80
Lattice="9.77192453 0.01751879 6.90363604 0.24348012 9.76890588 6.90363604 0.01370155 0.0133883 13.86910312" Properties=species:S:1:pos:R:3:forces:R:3 energy=-577.43909298 source_file=vasprun.xml step_index=920 time_fs=5840.0 time_ps=5.84 file_index=2 pbc="T T T"
Na       7.60722044       6.39095365      17.79048575       0.80781242       0.21383520       1.09672343
Na       7.18447319       1.55239677      12.76656853       0.32944841      -0.01246519       0.29569394
Na       2.79643853       2.16953152       8.80190782      -0.18405712       0.25141909       0.21959141
Na       8.35829273       7.49356335      12.00060079      -0.01466225      -0.40500598      -0.66361891
Na       8.98998878       3.27862519      21.18313507       0.35530381       0.07361031      -0.33295151
Na       4.14966593       2.40519271      15.58222636      -0.43791129       0.29568939      -0.17552687
Na       2.31656941       6.27566534       7.28152650       0.19615707      -0.06276167      -0.35012060
Na       4.35196730       9.21434047      13.74864694      -0.24366752      -1.28380765       0.32242441
Al       7.62278264       5.43613730      22.88148916      -1.26568314       0.43888644      -0.92280778
Al       4.99593560       3.18946377      11.57961581       1.25149516       0.80800208       0.03102278
Al       3.40968553       4.62255403      18.27202201      -1.72747073       1.55337741       0.63846077
Al       5.69752776       6.91454323      15.72536949       0.27117751       1.39828346      -0.72004608
Al       0.92634282       2.06499748      11.61858387      -3.41540806       0.74441188      -0.80686042
Al       8.26115855       9.69793179      22.66647691      -0.20596085      -2.11417621       1.11289203
Al       9.91640065       8.03304721      15.91240455       1.19714318      -0.97753038       1.62701390
Al       2.53495537       0.60362512       4.34389434       0.89444036       1.79371959       0.18619047
Si       2.81644995       5.68044911      15.26710452       2.24098534      -4.76460272       2.54651969
Si       4.70151854       7.48827292      18.71427240       0.12945613      -1.28084397      -0.44998528
Si       8.00387886       4.57162673      11.92568114      -0.71874794      -0.70413614       0.82127507
Si       5.86378709       2.76080324       8.44617932      -0.52003706       0.45463072       2.93327242
Si       1.17338999       7.70417669      11.99826072      -1.36015662      -2.87482838       0.79211745
Si       3.08848683       9.33057957      22.23076752       2.82471323      -0.51378088      -1.13234643
Si       9.38826373       2.55338223      15.37424912       1.51333211       0.89974365      -2.48089582
Si       7.73931463       0.48782279      19.00831727       2.57684882       2.82686869      -3.30171999
Si       0.99612740       3.07622281       5.63088083      -1.35475459      -0.17126761      -2.56418002
Si       7.41869340       9.54805223      14.93166903      -2.65180589       0.11020281      -1.64213615
Si       9.83868787       7.18383591      21.67876901       0.79021388      -0.81702294       0.42638824
Si       3.63343997       0.64394068      12.45899347      -1.10996269       2.57333059       1.84924195
Si       8.48398326       5.64935498      14.77610055       1.01127381      -3.10230448      -1.15331198
Si       4.98771765       2.20128627       5.61280717       1.44329072       0.95664152       0.08792839
Si       2.27255232       4.64807422      12.55925892       0.52826950       0.61002583       1.42634749
Si       5.93148873       7.74614173      21.46688258      -1.71315135      -0.66163507       3.52860391
O        8.96025718       5.78482427      21.82544999       0.41541145       0.73365393      -0.45231894
O        4.88420268       1.74549410      12.56494864      -0.57011066      -1.68702965      -0.10471392
O        2.05333990       4.26984657       5.49945701       0.00321924       0.38783478       0.85107500
O        6.09573230       8.52735631      14.89022475       0.09932521       0.01972088       1.14817267
O        0.98406235       3.74781767      12.13353341       0.22675000      -0.66362165       0.25024485
O        6.98705316       8.92934330      21.74738526      -1.08775266       0.43095957      -0.88171047
O        9.86180518       6.50408663      14.97450977      -0.78931408       0.66909480      -0.55756152
O        4.01374012       0.96970328       5.48520196      -2.03663977      -0.91133768      -0.93080426
O        3.57052497       6.34388571      18.64419895       0.50480887       0.83179534       1.46763901
O        4.28714020       6.21084562      14.98523207       1.82249763       1.65359832      -0.15075016
O        7.09250407       3.77472058       8.58699862       0.40235285       0.98132417      -0.36438092
O        6.66109794       3.74791289      12.00012307      -2.33566129      -1.52943813      -0.50490692
O        1.61820500       8.77795861       8.52795480      -1.24851034      -0.99071351      -0.56366909
O        2.12630682       8.97368220      11.91148487       0.29940101      -1.31196467       0.84125895
O        9.25666208       1.32260206      19.35692390      -1.42569555      -0.70303944      -0.95911792
O        8.22781212       1.49298956      14.95183203      -0.05345351      -0.59068790       0.84011144
O        2.89857817       4.81754810      16.68972240      -0.26412646       0.05484465      -2.11701219
O        5.62986386       7.38436011      17.40864423       0.55761477      -0.54546462      -0.86926291
O        8.14816642       5.48401120      10.65500411       0.29329312       1.29359956      -0.81023338
O        4.98308754       2.71759092       9.90492522       0.25863778      -0.33680782      -2.78586625
O        0.33262477       7.35565504      10.67450504      -1.25820416       1.17403570      -1.64039141
O        3.15519437       0.51868336       2.69053372       0.45221932       0.49746642       1.61744953
O        0.38980005       2.20879695       9.83948689       0.44273991      -0.13542576      -0.14287793
O        7.82905658       9.39275099      24.45210554       0.70097075       2.00517372       1.62130135
O        9.46933734       8.38933770      22.68793484       0.42577433       0.07436256      -0.22213311
O        2.37367343       1.25307609      11.59886180       2.03382496      -0.87935856       0.01177465
O        1.36279962       1.85482576       4.61596362       0.18592891       0.39058694      -0.13527265
O        8.56077483       9.08874494      15.93384922      -0.22931904       0.48985393      -0.36978627
O        3.73775978       4.24794520      11.99125335      -1.01699985       0.44686740      -0.41517198
O        6.24164018       6.42053370      22.39431638       0.12147362       0.84122306      -0.19803331
O        7.26592694       6.06422140      15.68570665      -1.31100281       0.60691048       0.72310751
O        4.56123857       3.39998876      18.47743264       1.76174653      -0.82428921      -0.03446255
O        9.17432264       3.56630801      12.24424267       2.12064882      -1.18894864      -0.81097877
O        6.72797341       1.41905353       8.20113235       0.95978963      -3.79106836      -0.40846209
O        1.62423169       6.57227147      15.05110880      -4.10671833       4.94107841      -0.01765652
O        4.18038358       9.00130020      18.73691999      -0.11452009      -0.25570568      -0.29196148
O        8.85462436       4.05362408      15.11055429      -0.50865933       1.06204999       1.08190934
O        6.53578391       1.55726399      19.11114857      -2.15783645       2.53028245       0.48754738
O        1.89927261       6.19441651      12.14905814       0.75551815       0.76961234       0.71241043
O        4.21997661       8.13711521      21.82844145       0.48955218      -0.22504678       0.71900097
O        7.92130214       5.53130265      13.22941542       0.58576250       2.51160217       1.18602797
O        4.74716173       2.90176814       7.23355030       0.83779337      -1.04367070      -1.34936666
O        2.46274798       4.46809445      14.26020492      -0.17357157      -1.43682916      -2.84387884
O        5.72654845       7.26226539      19.96366558       0.73782036      -0.27691985      -1.31351310
O        0.74226813       2.52368238       7.07508653       0.25524584      -1.69437430       5.03402191
O        7.74297928       9.27366491      13.24862092       0.53346876      -1.57451077       3.16383963
O        9.79402274       7.83238047      20.16395596       1.20100437      -0.13797823      -0.99919054
O        3.14631238       0.54576635      14.06902949      -0.20967279       1.04776241      -1.75725168
80
Lattice="9.77192453 0.01751879 6.90363604 0.24348012 9.76890588 6.90363604 0.01370155 0.0133883 13.86910312" Properties=species:S:1:pos:R:3:forces:R:3 energy=-577.05180762 source_file=vasprun.xml step_index=190 time_fs=90380.0 time_ps=90.38 file_index=45 pbc="T T T"
Na       8.33107294       3.70382853      20.61116745      -0.17904262       0.54447325       0.24778809
Na       1.47049358       9.62367586      16.95790183      -0.27299328      -0.66716222      -0.60353110
Na       5.41519034       4.15715726      16.84310785      -0.09309226      -0.61783488       0.53262996
Na       7.34543816       7.43499480      12.23142990       0.33602004       0.28204791      -0.01117559
Na       1.95225618       2.45625298      15.76076850       0.08893244       0.54196330       0.01905575
Na       6.11095149       1.41434241      13.35538904       0.42968750      -0.74612617       0.38237206
Na       2.02743802       5.56540165       7.59195523      -0.33384533       0.19557658      -0.05889108
Na       3.79496064       8.28434451      13.40862526      -0.02631861       0.37101497       0.08897176
Al       7.12193441       5.56094530       9.47462102      -1.15201365       2.36301787      -2.37128886
Al       4.51815062       3.10755525      11.65917233      -1.04903910      -0.74837176      -1.51836465
Al       2.70937567       4.82961400      18.53061624       1.60569808      -0.92840395      -1.60912383
Al       5.27977745       7.27882650      16.10247529       0.55072917       0.31423615      -1.06676411
Al       0.25085095       2.32851163      11.47182816       1.04756263      -0.96240878      -0.38199560
Al       7.82611146       9.77771197      22.91308460      -0.64608854      -1.73573788      -2.65592734
Al       9.47184182       7.86212241      16.07846801       0.34286946       0.79817775       0.62766014
Al       2.26914839       0.62654739       4.72408773       0.05418088       1.07351302       0.21160889
Si       2.53620175       5.85006875      15.46523288      -4.93316523      -1.88052666       2.06907354
Si       4.26966132       7.48879004      19.15008054       1.10700106      -0.67539517       0.73866941
Si       7.40563279       4.30904697      12.28852197       1.66358031       2.59997121       1.95799791
Si       5.60459802       2.85932126       8.58261316      -0.46869349      -1.26378948       0.51717699
Si       0.67522621       7.84613996      12.21636580       0.00236527      -1.37981534      -0.40192262
Si       2.66276847       9.24171427       8.72828544      -1.81360357      -0.95475258      -2.16932279
Si       9.10687313       2.46284056      15.21388147      -4.29793864       0.08152832       4.35723604
Si       7.19797388       1.07492092      19.07459301       0.12478109       1.08684004      -0.76465510
Si       0.35683828       3.12917544       5.67561172      -0.17469426       4.20288385       0.90059237
Si       7.03988192       9.73021253      14.96635629       1.26644545       0.31560757      -1.72697906
Si       9.45464109       7.18131528      22.13557648       2.43049439       2.17763624       0.19222997
Si       2.73805778       0.40866585      12.66968855      -0.28087722       3.23016911      -3.81328581
Si       7.87755267       5.31694934      15.25395529      -1.26811043      -0.86570403      -0.95127648
Si       4.56678794       2.41909345       5.76594127      -1.49114437      -2.60975894      -2.50919183
Si       1.87585384       4.80844913      12.56154370       3.66575194       3.81005259      -0.83815963
Si       5.36428522       8.04010034      22.02442460       6.80715828       1.00356570       0.24772580
O        8.51026544       5.92652971      22.23543941      -0.93650681      -1.96757452      -0.05236424
O        3.93209756       1.45413421      12.19820911       0.96934797       0.49253503       1.03429844
O        1.09823022       4.69620343       5.27537026      -1.50119464      -2.43633404       1.27944071
O        5.77997936       8.96269554      15.50478193      -2.41544900      -2.50977148       0.41256454
O        0.75200756       3.84653825      12.24121938      -3.59327993      -3.97152209      -0.83831029
O        6.37993956       9.36968590      21.80635765      -0.00764426       0.34091146       1.08822492
O        9.16754876       6.17660482      15.63002560       0.47704380       0.43806767       0.62044092
O        3.85377228       0.91578048       5.46422518      -0.32925778       0.49678048       0.31997118
O        3.53424064       6.09395587      19.40822083      -1.78769596      -0.77048406      -0.07414687
O        3.59323587       6.93958606      15.34451596       5.35660152       2.72228859      -0.54556224
O        6.32789946       4.27314564       8.60070261       1.38378002       0.18357585      -0.53291689
O        6.04614320       3.61365225      12.43209139      -3.43592260      -2.60980739       0.54381919
O        1.29644023       8.36028255       8.64734302       1.39576059      -0.45092616      -0.54385918
O        1.87757780       8.96309310      12.32254825       0.33230666      -0.93471168       0.40094244
O        8.61817550       1.87437354      19.29514193      -0.63893987       0.01038843       0.46568622
O        8.23676461       1.18010575      14.76220927       0.16834144       0.33838206       0.46553142
O        2.79413899       4.67987899      16.64435918       0.08454431       0.88583661      -0.43195314
O        5.08536424       7.39057835      17.77448405       0.39555539      -0.01818682       0.68407203
O        7.27193099       5.43391798      11.17985390       0.62033182       0.66708420      -1.46584230
O        4.69360141       2.76659487       9.87417142      -0.45097536       0.04052552       2.12997112
O        9.53804222       8.26496784      17.81326280      -0.07144706      -0.87015510       0.76547524
O        2.28577801       0.55493440       2.96378467       0.34350908       1.20285635       0.89699214
O        0.13840116       2.19720766       9.67465863       0.57782394      -0.60824410       2.20407001
O        7.19808836       0.47471561      17.58720896      -0.31716048      -0.11330241       0.81624569
O        8.96516238       8.38882942      23.12854835      -0.08385441       0.85121446      -0.07298636
O        1.41574554       0.99811895      11.86281030      -0.12634782       0.28965254       0.54263401
O        1.26409817       2.05759735       5.05773292       0.84077600      -2.02311857      -1.06619413
O        8.33501083       8.80415326      15.12800897       0.65684375       0.21715549       1.30230290
O        3.38794534       4.38007939      12.07221813      -0.81980226      -0.09487498       0.22040197
O        6.18228203       7.15208910      23.09565710       0.24603737      -2.08981989       0.55982464
O        6.35619775       5.77306384      15.76028151      -0.12698174       1.99007182       0.10356455
O        3.98478796       3.52635972      18.64891673      -1.55889251       1.35968903      -0.20627696
O        8.51985762       3.16095845      12.11618603       2.01326980      -0.72710998      -0.05700216
O        6.72149475       1.56447325       8.47073426      -0.04464921       0.51071600      -0.21211589
O        1.18930195       6.73230127      15.88175655      -0.85639518       0.71125588       0.31132950
O        3.19415178       8.71634305      18.94443675       0.39208691      -1.09746872      -0.02565898
O        7.91067542       3.72392052      15.69053833       1.01629175      -0.95569475      -0.46243465
O        6.07670513       2.31669771      19.09429683       2.58115789      -0.60812631      -0.15348620
O        1.39976959       6.24612965      11.90871505      -0.69783840       2.83534947      -0.06212099
O        4.03018324       8.40862742       8.80338824      -4.39354198       0.67085159       2.14412299
O        7.81627801       5.33497229      13.58749625      -0.29192425      -0.56478265      -0.75235250
O        4.58629201       2.73461550       7.28795615      -0.03256388       0.72635424       2.59094899
O        1.88266997       5.24578971      14.11849785       0.95399450      -1.81462088       0.67586406
O        5.19471902       7.50630538      20.55366915      -1.07731989      -0.35164866      -3.22707737
O        0.36242140       3.10406121       7.39139950       2.62181306       1.62839237      -4.84709436
O        7.10347777       9.67284824      13.23505108      -0.60303637       0.56122590      -0.24670109
O        9.69598316       7.97219505      20.63680065       0.21027227      -1.63274648      -0.51910428
O        2.57545056       0.33640557      14.20833803      -0.49421851       0.08060505       4.17290158
80
Lattice="9.77192453 0.01751879 6.90363604 0.24348012 9.76890588 6.90363604 0.01370155 0.0133883 13.86910312" Properties=species:S:1:pos:R:3:forces:R:3 energy=-576.5731374 source_file=vasprun.xml step_index=50 time_fs=4100.0 time_ps=4.1 file_index=2 pbc="T T T"
Na       8.20389424       8.28355972      19.19189349      -0.07554056      -0.15548522      -0.42937445
Na       6.65185098       2.15645601      13.77026293       0.30511287      -0.70794902       1.01728465
Na       3.08007572       2.90650118       8.41390661      -0.62198573       0.12857637       0.12638362
Na       7.58179922       7.59409250      11.77955839      -0.50328003      -0.70740742      -0.67629019
Na       8.61011252       3.68238370      20.51140133       0.14219651      -0.24704916      -0.35149002
Na       2.72441201       2.18991356      15.81830993       0.06100965       0.92366623      -0.17106769
Na       2.53103772       6.45379471       7.11134480      -0.00904741      -0.27540579      -0.41529774
Na       4.05218194       9.39002021      14.57497120      -0.09208844      -0.52586490      -0.52187383
Al       7.46379639       5.37584099      22.80701754      -2.26225732       2.89276631       3.68872027
Al       4.92876243       2.65330319      11.46153950       0.48097351       1.38554953      -0.98088603
Al       3.62127702       4.52294449      18.29500348       0.38374335      -0.51326746      -1.34295376
Al       5.80711081       7.12282660      15.75418897       0.70445081       0.95397561       1.21864197
Al       0.98200792       2.32882575      11.25551916      -0.58782748      -0.75848802       1.04043943
Al       8.35081685       9.51129396      22.72112527       2.19769991       0.10806174      -2.83880249
Al       0.36151400       7.74886541       9.00507196      -5.36456614       0.32175346       0.72536577
Al       2.36578238       0.59781010       4.48838793       1.01789671      -1.94863865       1.26933360
Si       2.86647753       5.73558277      15.40073371       3.76051585       0.05550002      -1.25008146
Si       5.00611530       7.50506753      18.79088244      -0.48504480      -1.26102306      -0.25797434
Si       7.59655576       4.52733235      12.00213952       1.40244220      -1.01536454       2.23326415
Si       6.05114093       2.56127093       8.39106666      -0.00918671       0.05775823      -1.53988566
Si       1.20180521       7.47754301      11.96755506       1.10304346      -0.06646473      -2.84598870
Si       3.15886960       9.08302642      22.29438782       0.12409844       0.51094221       2.65884212
Si       9.67812423       2.55867539      15.20716473       1.30919295      -1.68292828      -2.28824502
Si       7.99300453       0.81210277      18.84499246      -1.63092049      -0.77991219      -0.08662538
Si       0.86578912       3.12902258       5.36640929       0.72215207       0.62923379       0.46143198
Si       7.60616240       9.39983445      14.60530751       1.90247979       1.54678872       1.27162620
Si       9.91293100       6.76799233      21.72733738      -2.94108967       0.24504578      -2.57239171
Si       3.28458214       0.27568408      12.43470442      -0.31088024       1.88131177       2.04412459
Si       8.33340254       5.49607223      14.90811378      -0.84507868      -2.81957494       0.30796552
Si       4.96859335       2.03683002       5.54393525       1.66541567      -1.93077705       1.65863275
Si       2.41156505       4.63673020      12.47350073       4.86959856       2.52578747      -1.90127001
Si       6.00665773       8.07293565      21.65325487      -0.48329164      -0.99064518       3.22958411
O        8.66392177       5.67700335      21.73541115       4.79476699      -0.04447236      -1.25628826
O        4.67851623       1.19610288      12.35442701      -0.61532463      -1.47662843      -0.07037824
O        2.20377619       4.11406709       5.34722431      -1.22530010       0.73574538       0.30677754
O        6.25833740       8.52676543      14.72648024      -0.59349290       0.49555288      -0.18876385
O        1.22116831       3.69172366      12.30037402      -3.05388543      -1.39385198      -0.29837523
O        6.83675683       9.50702234      21.83580741      -1.39698748      -1.28137472      -0.62166932
O        9.71583503       6.29789511      15.03547818       0.33164459      -1.00092656      -1.08959565
O        3.86402521       0.83740858       5.45766206       0.30812898       0.05219328       0.80988214
O        4.35376865       6.01629755      18.76859443       0.24905507       0.05320630       0.86046734
O        4.15361000       6.90516684      15.27818061      -1.83229837      -2.00752049      -0.05643543
O        6.83960862       3.97428727       8.32740655      -1.08102430      -2.70002064      -0.54162567
O        6.44472433       3.41485652      12.02467835       0.04148890      -1.02972545       0.07059003
O        1.82192037       8.15719274       8.48769270       3.07016936       0.80719609      -1.91858890
O        1.95414295       8.91989806      12.15122364      -0.67258424      -1.14215082       0.20930929
O        9.22389835       1.83187389      18.87589310      -0.53375693      -0.27454859       0.48454518
O        8.97492001       1.14003270      15.06903380      -1.04226164      -1.22892789       0.12178848
O        3.05910456       4.65077279      16.56712850       0.16057821      -0.10294133       0.87668594
O        5.69217590       7.87916483      17.41020374       0.69529113       0.01509581      -0.32461276
O        7.42118779       5.50894965      10.79612985       0.59954709       0.96023677      -1.97141604
O        5.11791881       2.36065375       9.69463830      -0.34253757      -0.28439855      -0.00696521
O        9.90240146       7.48425833      17.56254232       1.02401396       0.27660930       3.02099449
O        2.95270340       0.19416911       2.92252900       0.24694464      -0.52866445      -1.74042500
O        0.88327046       2.61331882       9.56211729       1.28757595       0.57938381       0.39383412
O        7.75517574       0.16954048      17.36691449      -0.04038727      -0.34937158       3.18507956
O        9.40630267       8.12361004      22.26881318      -2.18452950       3.12310060       1.87749779
O        2.04575199       1.02157543      11.68406681       1.49804042      -1.18942164       0.21308657
O        1.23463977       1.85345534       4.45508747      -0.83774228       0.75325850      -1.05113793
O        8.75454931       8.95786291      15.67740220       0.13902235      -0.17419279      -1.23731497
O        3.77449412       3.88066022      11.74601724      -2.26404092       1.19556853       0.41809504
O        6.57117133       6.87443568      22.64572662      -0.79000426       1.73009228      -1.14560901
O        7.21496723       6.09712558      15.87238153      -0.55453823      -0.27940035       0.67384459
O        4.71341004       3.09444122      18.32372439      -1.10355873       3.15842152      -2.38911021
O        9.16411444       3.83254003      11.86119566      -0.01075069      -0.00846929       0.69745780
O        7.24517767       1.42860319       8.09187820      -1.34887022      -1.85716192      -0.41262690
O        1.58176556       6.66441867      15.39728860       1.29503190      -0.75288406       1.84001702
O        3.63201156       8.41731806      19.01242703       0.01366655       1.76522270       0.71444864
O        8.53320555       3.64330203      15.09015612      -1.09926024       4.18080716       0.00118068
O        6.62918909       1.60485599      19.29738510      -1.49569909       0.46217296       0.02652670
O        2.18495812       6.17125195      11.73876066       1.14857937      -1.53191248       0.56114028
O        4.32152985       7.97020332      22.06853204       1.79785016       0.30653094      -0.60597323
O        7.43838648       5.36834708      13.52578658       1.05993066      -0.18670270      -2.94159122
O        4.84305864       2.76987627       7.07286799       1.58845243      -1.37512631       1.21266139
O        2.77939952       4.74249540      14.05283923       0.02067375       0.74007128       1.07063580
O        6.07716179       7.70233334      20.08908215      -0.43887373      -0.24754802      -2.34149377
O        0.98800278       2.58134011       6.91590217      -1.36835722       0.53346198       2.09863123
O        8.12605673       9.19601524      12.98999365       0.63843256       2.40380920       0.29533773
O        0.35959347       6.96808255      13.20421357      -1.72769329      -0.06916111       1.13849729
O        3.05090534       0.44525784      14.26410384      -0.31293805       0.40492536      -3.43993031
80
Lattice="9.77192453 0.01751879 6.90363604 0.24348012 9.76890588 6.90363604 0.01370155 0.0133883 13.86910312" Properties=species:S:1:pos:R:3:forces:R:3 energy=-575.72776577 source_file=vasprun.xml step_index=270 time_fs=84540.0 time_ps=84.54 file_index=42 pbc="T T T"
Na       8.87229938       4.10056222      20.67553354      -0.15258634       0.23076708      -0.06562540
Na       9.27588836       1.32645455       9.71752953       0.69223145       1.98150323       0.54892780
Na       6.17079806       4.56828166      17.29875929       0.03499271      -0.74474617       0.78545667
Na       4.71991319       6.02812515      11.05543930       0.05190523      -0.05725410      -0.03034386
Na       2.68103285       2.81257614      16.20812823       0.06204757      -0.73834818      -0.35945597
Na       6.47022934       1.04414575      13.57753494       0.01491038       0.04949419       0.20203158
Na       1.71683239       5.90189813       7.82884027       0.13881083       0.08597801      -0.54627111
Na       1.18725964       8.83384953      17.43549037       0.11615123       0.12989689      -0.00979074
Al       7.20614402       5.41746179       9.16058749      -1.09802099       0.94259641      -0.10054188
Al       4.55533504       2.73517580      11.76888497       2.25461878       2.02521515      -1.93744479
Al       2.90004271       4.68567012      18.75101976      -1.29006103       2.08513794      -0.52401826
Al       5.38339457       7.26876781      16.11773166      -0.55535714      -0.58144255       0.59633951
Al       0.48793514       2.57606435      11.40785989       1.54094488      -1.17084705       2.13345722
Al       7.39857955       0.08391447      16.47889072       0.58604402      -1.74567246      -2.41002456
Al       9.54962072       7.87856094      16.17340950       2.14186902      -1.87854831       1.36369925
Al       2.12369992       0.57252315       4.61396427       0.69999662      -0.45876819      -1.46634173
Si       2.42304820       5.89466829      15.81514575      -0.79134503      -1.00867026      -0.31535600
Si       4.36641902       7.50658994      19.18353096      -3.18748195       0.62323500       2.59154156
Si       7.37563998       4.25181161      12.20595137      -0.07022197       0.33214086      -3.23179777
Si       5.70803285       2.63514902       8.73316794       2.94296032       0.71899285      -0.62197644
Si       1.01700764       7.57173978      12.15631207       2.33020116      -1.54022298       0.86296581
Si       2.55955736       9.12070318       8.50341143      -2.00799988       1.96019603      -1.27446696
Si       8.97663692       2.61782185      15.51499076       0.97953228      -1.15159472       0.25765465
Si       7.42444403       1.14167363      19.24602874       1.94555567       0.59883520       2.61894859
Si       0.41642919       2.88107622       5.57937615      -2.43511919      -0.63926362       0.48381897
Si       7.38095690       9.68301504      15.44780147       0.60935349       0.38207626      -0.91095876
Si       9.59885256       7.29451222      22.03287355      -0.78218738       0.88119272       0.60922689
Si       3.00603815       0.59927823      12.52405457       0.10499750      -0.24953435       1.21128309
Si       7.74342681       5.58020647      14.92069109      -1.25379692      -2.52774220       0.76448315
Si       4.73498637       2.45920848       5.63130493      -2.18303264      -1.09114112       0.21517314
Si       2.22312567       4.83256304      12.79140359       0.06052481      -0.69706312      -4.30882660
Si       5.31318972       8.05298236      22.16909834      -0.14968350      -1.08644064      -0.45808720
O        8.57752402       6.05992024      22.07460583      -1.07739389      -1.34326725       0.36275917
O        4.58042445       1.15499148      12.33224605      -2.23387464      -1.77337048       0.85752323
O        1.58717149       3.92828460       5.75114839       0.58019187       1.20378223       0.91405093
O        6.30455088       8.53289502      15.38800759      -1.20452172      -0.53034544       0.87001757
O        0.89702591       4.13228230      12.00672457       0.85775684       0.64240899       1.91837018
O        6.10037690       9.40249989      22.54066423       0.91129771       0.41159544       0.71613798
O        8.65834884       6.78347057      15.26046256       1.38254258       0.03650929      -0.16326431
O        3.47681967       1.39391922       5.27468649       2.53801068       0.88141809       0.67672392
O        3.28073272       6.24433824      19.58977937       0.97787607       0.31458894      -0.59397442
O        3.63722151       6.97809870      15.75980173       0.12700617      -1.03789585      -0.24012387
O        6.73798689       3.89879065       8.47105796       0.91758909      -0.60972516      -1.22356906
O        6.13343417       3.22234842      12.44829542       1.85666337       0.58843801       1.11902739
O        1.14671223       8.23168328       8.14351807       1.86104684       0.22501929       1.09773262
O        2.06624256       8.82145097      12.25426330      -1.32058525       0.28165642      -0.77567178
O        8.81613296       2.12489236      19.20796386      -1.46405617      -0.82200109       0.75011321
O        7.69065132       1.61072385      15.69280432       0.57696209      -0.04498981       0.00114585
O        2.22577024       4.77927189      17.03760871       1.78030364       0.63760590      -0.04515224
O        5.28955893       7.17684248      17.96805494       1.11275921      -0.17981001      -2.27504555
O        7.03504109       5.27840062      10.89058220       0.44338715      -0.90635010       1.13999556
O        5.04434651       2.96223717      10.07783754      -3.09901585       0.14600093       1.99465006
O        9.84312302       7.07354281      17.86930238      -0.18759800       1.95941969      -2.18873841
O        2.02912618       0.54233300       2.68090047       0.25338715      -0.76830235       2.11859467
O        0.38699420       2.40540854       9.78508559      -2.15846021       0.15722715      -4.52730148
O        7.75777357       9.76711863      25.07931225       0.13836513      -1.16900683      -0.68957319
O        9.04289295       8.70302382      22.67584148      -0.45835994       0.12145125       0.49684789
O        1.97984777       1.41000599      11.51055434      -0.07199085      -0.17029776       1.79973585
O        0.86914413       1.73028590       4.52934574      -0.86004517       0.47037218       1.07812788
O        8.74915672       9.30394126      16.42359585      -3.43297399       0.93285103      -1.60172128
O        3.60261202       4.04184359      12.27209529      -2.03781204       1.73271056       0.69219549
O        5.89110109       6.64444016       8.85317996      -0.04415446       0.08644106       0.24064783
O        6.28036401       5.82200165      15.60951558      -0.24666742      -0.05279640      -0.03106442
O        4.31717622       3.77674096      18.55222477       1.47477853      -0.69114425       0.95200590
O        8.78495170       3.35739513      11.71016208      -1.20240613       1.48983280       0.87612801
O        6.74605366       1.33521182       9.19807902      -1.00747959       1.12543376      -0.40647293
O        1.05672092       6.74774993      16.12098914       0.14842348       1.19852646      -0.81812441
O        3.19621191       8.79880758      18.98894847       0.85897439      -1.75569742      -0.90122931
O        8.26711651       4.05377954      15.57729062      -0.85121110       3.42085165      -0.11882746
O        6.21556743       2.19188501      18.72297971      -0.41112392      -0.58990503       2.03823492
O        2.21037970       6.37585513      12.24989752       0.94586511      -0.66911852      -0.14532315
O        3.72225817       8.07318929       8.99541302       0.83528055       0.12922896      -1.17330194
O        7.61337934       5.43913675      13.32253092       0.30816754      -1.05728227      -0.21252855
O        4.77356314       2.60775119       7.38078088       0.02727430      -0.81086641      -2.80074592
O        2.16181585       4.78928280      14.36345493       0.18848907       1.20529501       4.65336432
O        5.24458694       8.08662896      20.48739013      -0.51732539      -0.73700601       0.14824544
O        9.57220400       2.46940914      13.98440439       0.86257034      -0.32138674      -0.25863936
O        7.25152903       0.31980580       6.91345982       0.81229521       1.37491528      -1.82491112
O        0.27365885       7.35239678      13.57731436      -0.52348677       0.69749378       0.39454197
O        2.66544481       0.56027512      14.23899426       0.26734675      -1.07893338      -1.53363193
80
Lattice="9.77192453 0.01751879 6.90363604 0.24348012 9.76890588 6.90363604 0.01370155 0.0133883 13.86910312" Properties=species:S:1:pos:R:3:forces:R:3 energy=-576.01649042 source_file=vasprun.xml step_index=495 time_fs=58990.0 time_ps=58.99 file_index=29 pbc="T T T"
Na       8.22282354       5.72768441      18.06892192      -0.98255917      -0.50630514       0.19411176
Na       8.47457993       2.65647174       7.82610920      -0.07259635       0.01840892      -0.22671515
Na       0.66101191       6.40564684       5.88450075      -0.03977254       0.63776989       0.61719446
Na       3.35116890       8.08677042      13.35636937       0.53136536       0.61433334       0.49406922
Na       3.88960166       2.64553868      14.90880641      -0.25001023      -0.06002159       0.43560671
Na       6.45558880       0.69652197      13.40476643       0.19864021       0.20646547      -0.20552233
Na       2.37594447       2.16389911       9.54192528       0.37121319      -0.15605307      -0.76906154
Na       3.98757630       6.27863694      10.48178811      -0.09200673       0.14648454      -0.35434910
Al       6.66169391       5.06481487       8.88269059       2.43335301       1.19459375       1.29381792
Al       4.52400001       2.78432920      11.40690622       1.27714055      -1.13621313       3.65946085
Al       2.56790328       4.61489356      18.37483732       3.17441311      -1.97551107      -0.37781107
Al       5.38000381       6.94281723      15.87363178       0.74063195      -0.77809611       0.56378848
Al       0.36916547       2.06076596      11.63897265      -1.70126627       0.56008034       1.76896480
Al       8.04650471       9.37495707      22.82649826       0.45416519      -2.59200936       1.16910440
Al       9.50882797       7.39140182      15.72529376       0.84435419       3.39294167       1.50842648
Al       1.78640863       0.41862262       4.39857919       1.05620322       1.33975151       3.04285743
Si       2.63397562       5.54103196      15.21758143       1.47269623      -0.67269475      -0.69040561
Si       4.33102628       7.20078379      18.93834885      -1.08182106       0.42921293       1.00338680
Si       7.17864182       4.05256570      12.00407631       3.31667080      -0.27896716       0.74034581
Si       5.34907360       2.35583423       8.40579707       1.58638932      -2.17897622      -1.84539490
Si       0.84032455       7.25605522      11.98414380      -1.89812281      -2.01633035       2.49256550
Si       2.45435101       9.10604924       8.47997611      -1.01212908      -2.68521415      -1.80716277
Si       9.26745323       2.35165731      15.35873434      -1.26172942      -0.62109828       0.75203358
Si       7.33401049       0.81304678      18.94238108      -2.80451577      -1.28512751       1.06789789
Si       0.29782437       2.94656182       5.65971666       0.61260025       2.34969178      -1.49560268
Si       7.04261847       9.33638341      14.72278964      -1.78018955      -1.37123578      -1.76498975
Si       9.25290038       6.39606141      21.66347647       4.20631078       7.00501682      -0.43883079
Si       2.94448299       0.30311862      12.54639747      -0.86765914      -1.05184151       0.07124532
Si       7.82912373       5.01760844      14.72210459      -0.97116523       0.20588625       2.69973606
Si       4.28139239       1.89400309       5.67633435       1.57180693       2.96744255      -1.87589565
Si       2.15478961       4.47862778      12.44143395      -0.42096879       0.83724682       0.03604782
Si       5.34938575       7.86712260      21.94495185      -0.92147007       1.08226713       0.67684349
O        8.38225116       5.20000856      22.03488217      -2.10466334      -2.68921871       0.43730574
O        4.36461140       1.20432529      12.39990235      -2.39492364       0.34018005      -0.05335113
O        0.92994323       4.40486232       5.14252428       0.49023764       0.20332801       0.07305572
O        5.69854581       8.42928586      15.08562529       0.66314166       1.37884051      -0.46905973
O        0.75220886       3.74717544      12.30372986      -0.91742537      -1.57558012      -0.88115605
O        6.45635707       9.05687865      22.24079812      -2.74191087      -0.22747454      -2.33380690
O        9.14327150       5.92380663      15.01762935       0.66748465      -1.41937995      -1.27372752
O        3.33543206       0.69741315       5.35603599      -1.78656608      -3.54477276      -0.91193764
O        3.41998474       5.91156162      19.33828707      -1.37538372      -0.17064127      -1.78176182
O        3.92884357       6.50345425      14.92766716      -0.49818936      -0.20015046       0.28370444
O        6.05490702       3.73779938       8.02191726       0.31423122       0.16116211       0.42042366
O        6.01548706       3.06976540      12.35649820      -2.91215577      -0.63786067      -0.08643757
O        1.23536221       8.08495852       8.10563553      -0.91276418      -0.70097662       0.42215430
O        1.41741942       8.70599499      12.06038802       1.06618064       1.02556617       0.71684809
O        8.61502322       1.68854266      19.56057674       0.66744563      -0.20774721      -2.11129577
O        8.56024375       0.89458263      15.14801348       0.69106727       1.63858256      -1.68119463
O        2.86377840       4.65649334      16.50631945      -0.56667057      -0.39768716       2.53184595
O        5.29538118       7.15644290      17.67040653       0.33938940      -0.68748990      -0.74788661
O        7.19410542       4.68979138      10.58156571      -1.32436101       0.77750933      -2.36048245
O        4.60942333       2.33637225       9.83369492       0.47181783      -0.74895749      -2.17509645
O        9.84231785       6.98495844      17.58050694      -1.23748210       0.13483107      -4.65656885
O        1.91209022       0.27779200       2.76371296       0.01043184       0.99560796       0.01191471
O        0.25320153       2.12616653       9.91053893      -0.28882964       1.12442314      -1.12404214
O        7.56877650       9.65086851      24.47410947       1.25005343       2.17772057       1.24283053
O        8.90561268       7.85735555      22.42854599       0.08565573      -1.54157237      -0.28470913
O        1.52824687       0.80369128      11.84529508       1.92711775       0.62353633       0.05230304
O        0.96100680       1.91196722       4.68928019      -0.20225384      -1.69794035       0.09031951
O        8.27909649       8.74645411      15.53142052       1.81091583      -1.41995521       0.38786240
O        3.23788024       3.97152514      11.32895599       0.48311998      -0.21960101       0.24877561
O        5.83481432       6.60543479       8.95460069      -0.22250325      -1.70702288       0.41502885
O        6.72139502       5.72095005      15.70744522      -0.75649814      -0.03756282      -0.08881288
O        3.67732594       3.16900804       4.84139645      -0.40202914       0.67326508       0.21008893
O        8.50969478       3.09318503      12.24290745      -1.16430395      -0.68959381      -0.10458001
O        6.64516685       1.14616385       8.21447318      -1.91396993       2.75456398       1.35087755
O        1.28292591       6.32523386      15.03797770      -3.62877561       0.50401703      -0.22693852
O        3.41872067       8.58530012      18.75126748      -0.37867261       0.77546947       0.47045684
O        8.01912031       3.43567354      15.39618488       0.02985921       1.64214062      -0.87118581
O        5.95192808       1.78548210      19.24068628      -0.00607414       0.08598304      -1.06918306
O        2.09245418       6.10663309      12.11810924      -0.13225375       1.32722190      -0.08592017
O        3.73904827       8.13152083       8.66242789       2.42775750      -0.49463856       0.95449310
O        7.42396438       5.17276260      13.16091670      -0.28774962       0.44507946       0.31699874
O        4.18550667       2.15881395       7.29223754      -0.37415734      -0.46768591       1.35402102
O        2.64169214       4.35526350      13.97702719       0.89448051      -0.32998733       0.48345947
O        4.98002410       7.48386999      20.42421844       1.99424028       0.46213088      -0.22583671
O        0.51581838       2.93241574       7.28674124       0.18485129      -1.36472979       1.11238176
O        7.05363490       9.35902511      13.01335986       1.38389469      -0.60933846       2.23645038
O        9.29767206       6.85512134      20.01039587       1.51137393      -0.56969289      -0.21517202
O        2.51335111       0.29270564      14.18562088       1.45333713       1.46526740      -2.43890903
80
Lattice="9.77192453 0.01751879 6.90363604 0.24348012 9.76890588 6.90363604 0.01370155 0.0133883 13.86910312" Properties=species:S:1:pos:R:3:forces:R:3 energy=-575.02936579 source_file=vasprun.xml step_index=990 time_fs=87980.0 time_ps=87.98 file_index=43 pbc="T T T"
Na       8.73087033       3.57013380      21.75510584       0.56665282      -0.26289726      -0.79521680
Na       1.47358850       9.71249124      15.37692912      -0.16086006       0.21482463       0.43590747
Na       6.22040214       4.58185621      17.67259069      -0.30867760      -0.66306935       0.56029789
Na       7.44386238       7.55948154      11.81499090       0.10333905       0.13364396       0.05890155
Na       2.43713740       2.76960871      16.51309686       0.35270063       0.17703392       0.28384305
Na       5.50767704       1.59871903      14.09000323       0.29085946      -0.05038717      -0.33272115
Na       2.22107728       6.12592104       8.00356840      -0.58106499      -0.20770928      -0.18528546
Na       4.21865707       8.05775433      13.40866872      -0.10283248       0.10284147       0.04781536
Al       7.08557070       5.53499258       9.29055130       1.01402481      -0.59452355      -0.17423945
Al       4.46552096       3.01372452      11.52681933       0.51665625       1.81072390      -1.58779586
Al       2.77672187       5.13160248      18.73191345      -0.80051959      -3.92144037      -2.67033825
Al       5.46483075       7.23933340      16.22421684      -1.77003989       0.72501019      -2.49324485
Al       0.30561835       2.11358202      11.67795807       0.78666872       0.21155043       0.82999204
Al       7.62204284       9.78145697      22.76900306      -0.83958088       0.68954343       0.83550313
Al       9.45293358       8.34786846      16.15286383       1.62461890      -4.17530114      -0.88005002
Al       1.84407698       0.47338685       4.63310332       2.28904369      -0.80411823       0.01281623
Si       2.43424412       6.13468345      15.47738851       3.39664012      -3.05256573       0.80922969
Si       4.44592874       7.44511488      19.32049026      -1.93260271      -0.06623529      -3.47493494
Si       7.29556770       4.36034980      12.25121311       0.17112193      -2.62716021       1.03652543
Si       5.56250601       2.94528222       8.45853060      -1.43737298      -1.58283418       2.47053522
Si       0.66075808       7.57434863      12.09597843       1.34635330      -3.89239903       1.74340172
Si       2.55682425       9.12908012       8.43750140      -0.37922607       2.06652935      -0.16420149
Si       9.00716739       2.60970295      15.57824358      -1.99827618       0.71111182      -0.50796664
Si       7.25509528       0.93920899      19.13323725      -3.12776776       0.54875516      -3.04743664
Si       0.40142769       2.88538380       5.80685761      -0.14847348       1.96086669      -1.60273745
Si       6.99070146       9.74864896      14.92601778      -0.41607717       0.50837840      -1.61985674
Si       9.52892223       7.25023358      21.98069526      -0.95507112      -2.30240460      -0.45224775
Si       2.88359391       0.49281524      12.65992166      -2.88074067      -0.70497193      -2.84996144
Si       7.80943567       5.55449591      15.12428184      -1.57703789      -1.82840107       1.97717097
Si       4.42360062       2.37896985       5.62029302       0.46386935       2.69790900      -1.80227134
Si       2.06202230       4.81772792      12.43817633      -0.71748419       1.83438709       0.90758414
Si       5.29118245       7.67039393      21.93833188       1.93310312       4.07471015       0.86349496
O        8.72655603       5.85244925      22.40783427      -0.60433166       0.81336491       0.78585951
O        3.81442740       1.66357863      12.28798901       2.13389039       1.50163499       0.14915458
O        1.55797583       4.00167705       5.63248021       0.19561790       0.83196482      -0.23726109
O        5.75828125       8.76440062      15.22288902      -0.06429154      -1.32540598       1.58793728
O        1.02075918       3.61052512      12.50541499      -2.08400608      -1.53728870      -0.78264847
O        6.05544953       9.24338429      22.03042607      -0.73452555      -1.16454509      -0.01101435
O        8.75353941       6.78602750      15.24506297       1.92222291       1.44601091       0.98715046
O        3.38248992       1.32005152       5.15757976      -3.29377832      -3.12943728       0.50446865
O        2.97115931       6.57567747      19.60182863       2.28822437       0.74124785       1.04779308
O        3.85643113       6.96978794      15.42357721      -1.11138508       0.08624603      -1.16100403
O        6.67840427       4.09517566       8.36598069      -0.10549919       0.88154972       0.19769755
O        6.15334369       3.14006665      12.10754824       0.46848729       1.17691427       1.21788087
O        1.12498114       8.49108900       8.07328675      -0.35767293      -0.38414288       1.70494277
O        1.78375945       8.63959118      12.35455442       2.23802213       3.50867930       0.83065388
O        8.50344350       1.84460564      19.48357647       1.31589539       0.91612542       0.30271541
O        7.75420034       1.60704849      15.11033128       0.10079409      -0.38425444       1.00693148
O        2.49018355       5.05961912      16.78229511      -0.36047229       0.88443680       0.46603847
O        4.85998086       7.09364224      17.76514958       0.82733743      -0.77193280       3.56823838
O        7.04533235       5.34218585      11.02711189       0.81810416       0.92006590      -0.73572816
O        4.53816614       3.01345312       9.76347679       1.51795284      -0.25958920      -1.49709709
O        9.45494919       7.99598427      17.89116450      -2.00471011       1.46695333      -3.48657110
O        2.36630757       0.21334896       2.92284055      -0.77869438       0.08377210       0.21659186
O        0.14589421       2.07891635       9.88870212       0.05318219      -0.17360555       0.87608287
O        7.37590517       0.22734385      17.67521653       0.61945878      -1.27208560      -1.21850139
O        8.85295642       8.64571217      22.32222670       0.57876966       0.27443229       0.43185087
O        1.39918339       0.77472710      12.02060020       0.15300603      -0.23209476       0.17830420
O        0.56061777       1.56428388       4.86642613      -0.39586674       0.60243675       0.18333145
O        8.43931235       9.40015995      15.47896745      -2.28390815       2.72673375      -0.57951445
O        3.39434998       4.39901725      11.74330965       1.94861088      -0.40644538      -0.44142275
O        6.02337524       6.86621465       9.24244270      -1.11153697       0.05410799      -0.58066849
O        6.36895126       5.80124066      15.95093921       1.43173229       0.19710810      -0.80053998
O        3.96312122       3.75305094      18.60204180       1.57972061       0.58730236       0.61328578
O        8.76849847       3.66436324      12.45477680      -1.57765880       0.38687028      -2.00731337
O        6.46598444       1.55931060       8.36960282       0.50116501      -0.75199582      -0.00171705
O        1.24117173       7.16773065      15.82554541      -1.14358590       1.37598018      -0.93351067
O        3.78120979       8.91613221      18.90774543       0.76698743      -0.50490311       1.64975610
O        8.29721662       4.10129140      15.98574430       0.37723447       0.47137078      -1.51383572
O        5.80241130       1.83524416      18.78858045       2.31809254       0.43094602       1.01103401
O        1.57125626       6.25079871      11.62740439      -0.09655363      -1.40041178       0.71233776
O        3.60194002       7.88682457       8.41838753       3.06084606      -1.82180317      -0.65708028
O        7.35219664       5.35810200      13.57829194      -0.70832800      -0.11808295      -0.74361663
O        4.61795994       2.80131961       7.17574251      -1.03285916       0.23350425      -1.02175682
O        2.39531375       5.13099034      14.08357723      -0.76017538       1.52676051       0.95546099
O        5.75254356       7.12617610      20.36793499      -3.10623118       0.74519349       0.75981665
O        0.17116276       2.65317641       7.35119090       1.22426537      -1.27938002       2.51797111
O        6.94017190       9.50524461      13.15306701       0.92096277       0.28126731       2.23540469
O        9.67441729       7.06009425      20.36178434       0.13100903       0.75882724      -0.00303626
O        2.88745500       0.44123892      14.23291614      -0.48931466      -0.69925229       3.50755473
80
Lattice="9.77192453 0.01751879 6.90363604 0.24348012 9.76890588 6.90363604 0.01370155 0.0133883 13.86910312" Properties=species:S:1:pos:R:3:forces:R:3 energy=-576.98585077 source_file=vasprun.xml step_index=80 time_fs=160.0 time_ps=0.16 file_index=0 pbc="T T T"
Na       2.82160765       2.27408242      15.62416306       0.11882395       1.13230485      -0.22468030
Na       7.44056977       6.55053797      18.81822687      -0.11963738       0.10999617       0.03300622
Na       6.13786373       7.10696274      12.12827830       0.29795202       0.14855084      -0.21748282
Na       2.63561982       3.53884558       8.60456673       0.06371619      -0.19824098       0.15629350
Na       8.65328245       2.66538841      20.99793193      -0.08313736       0.34644686       0.13530219
Na       6.96730779       1.27317463      13.76025024      -0.32406635       0.04242168      -0.21039962
Na       1.15167091       7.64714670       6.44187039      -0.28214078      -0.44339377      -0.22975492
Na       2.42345993       8.73192521      14.33388225       0.46325695       0.21867137       0.24884119
Al       7.19147661       5.43950523       9.16627036      -1.06176204      -1.30878815       0.53331122
Al       4.47837226       2.77352904      11.51540218       0.51204181      -0.01418045       0.23390667
Al       2.90124676       4.41364789      18.46938454       1.47995882      -0.02187664      -0.08173665
Al       5.54350161       6.97782690      16.10793150       0.01998672      -0.92220137       0.22855514
Al       0.67319887       2.36429641      11.29262607      -1.12660311      -1.56401082       2.66847596
Al       7.71053552       9.21292799      23.31417269       1.26317442       1.25488332      -2.18703035
Al       9.46090949       7.45896938      16.34932492       0.91305663       1.59872416      -1.64435674
Al       2.37851875       0.53032123       4.47348560      -1.87077842      -0.42045659      -0.08652156
Si       2.90121195       5.63636605      15.50002865      -2.11909345      -0.01542948      -2.22846439
Si       4.24425973       7.08368852      19.08337770       0.13286789       2.98975312       2.89931985
Si       7.27295712       4.16922421      12.13126892       2.24140143       0.73598567       0.89178748
Si       5.71131856       2.65143766       8.62003242      -0.08006235      -2.47717305      -1.98658268
Si       0.96650497       7.46619254      12.24555819      -0.78602374      -0.33111938       0.98101422
Si       2.62122278       9.04363136       8.53576806      -2.03650729       1.04277130      -0.82750939
Si       9.24872044       2.33314893      15.43878688       0.49271703      -0.13610944      -0.39199653
Si       7.51959908       0.67954311      19.14309822      -0.64984540      -0.56836623       0.48699750
Si       0.50459105       2.75419067       5.60141898      -2.67536861      -0.76661119       0.26675487
Si       7.28389618       9.36068862      15.10811621       0.15216853       2.36499286      -0.17984486
Si       9.59275680       7.00578853      22.09265039       2.54429670      -0.01207139      -1.72994044
Si       2.83167200       0.44838287      12.61383490       1.08688157      -2.12470054       0.54936836
Si       7.97357786       5.32061889      14.91822152      -0.87888701      -1.69075051       0.93402734
Si       4.53001701       1.95672144       5.83739485       1.79887127       0.96109240      -0.68377917
Si       2.06043761       4.49522720      12.72722758       1.21584460       0.88361116      -0.93339876
Si       5.46474961       7.82690280      21.86464240       0.10920566      -0.52143596       0.11707666
O        8.65293924       5.73141348      22.20515883       1.06432869      -1.35266023      -1.49341309
O        4.18231416       1.25482102      12.28815625       1.16849207      -0.70516817       1.42310953
O        1.36275191       4.04398471       5.26844009      -0.56990714       1.47301083       1.33233296
O        5.97383827       8.46320406      15.39019827      -0.73595116       1.28520624      -1.69170946
O        0.63587020       3.70131619      12.54393852       0.53305880      -0.19065379      -0.46915065
O        6.38003903       9.20727138      22.07625565      -0.39697460      -0.94824375       0.12516696
O        9.37590408       6.14707687      15.12417110      -0.71345979      -0.11134807       0.03559068
O        3.68341195       0.56887907       5.64772534       0.29285880       0.58094157       0.30272783
O        3.26740432       5.89037363      19.41312983      -0.52853812      -0.91578530      -0.02035242
O        4.11427945       6.63062708      15.11929060      -0.34364782      -0.41858279       0.06651971
O        6.77900788       3.81272538       8.42270085       0.14710280       1.61557539       0.36736863
O        6.05812453       3.14834692      12.30900246      -1.21234106       0.23398115      -0.38216971
O        1.19967564       8.23510357       8.69465229       0.86819710       0.25789145      -0.00856530
O        1.86860350       8.79145809      12.03716771      -0.31158383      -0.55378888       0.05622373
O        8.82915163       1.57250169      18.77286740      -0.10617501      -0.01865015       0.32804520
O        8.33086210       1.02358122      15.80353492       0.15873376       0.28923524      -0.45308201
O        3.11626679       4.68007432      16.73111641      -0.50671155      -0.26556896       1.33776584
O        5.16164604       6.91838572      17.84269286       1.03251544       0.21315341      -2.57151777
O        7.30515653       5.27154658      10.92497556      -0.17244225      -1.05335744      -0.04467152
O        4.61502866       2.66950988       9.77262175       0.37131536       0.13998319       1.08238103
O        9.61928732       7.11254417      18.04180776      -0.14364264      -0.29023829      -0.49414025
O        2.71124336       0.38729183       2.72083001       0.40651010      -0.04696607       2.31597973
O        0.66574936       2.71153230       9.64285422      -0.94474954       0.29809921      -1.87717485
O        7.31281507       9.25998039      24.96118480      -0.22940382       0.97516291       1.67881054
O        8.91529725       7.97018689      23.10323692      -0.42828068       2.13739051       1.43452760
O        1.88275513       1.11491723      11.58920516      -2.95217719       0.98102953      -1.60709132
O        1.06850419       1.77161380       4.50077754       1.18825709      -2.43533004      -0.95493688
O        8.22665026       8.71053498      16.18592742       2.26991182      -0.85648878       1.22395735
O        3.15051356       3.90793812      11.59436155      -1.08529293       0.56339968       1.35304746
O        5.96882650       6.68827816       9.09391028      -0.21273171       0.69823632      -1.07967481
O        6.86285986       5.78436613      16.05453985       0.51348597       0.35972381      -0.65428449
O        4.07729582       3.07257829      18.59132580      -0.73372807      -0.12595376       0.69618443
O        8.56816625       3.05562364      12.28106618       0.74734759       1.05603398       0.18531530
O        6.80075669       1.30493737       8.51601659      -1.17812359      -0.81891990      -0.32671801
O        1.52202814       6.70670449      15.55307197      -0.55838000      -0.72861801      -0.55115534
O        3.23504244       8.49193999      19.22666301       0.55586515       0.42824766       0.22412656
O        8.16701927       3.63028592      15.24504262       1.30644345      -0.02253684      -0.59176491
O        6.20366007       1.77338231      19.37488107       0.91066060      -1.64601199       0.38808542
O        2.04030779       6.16913346      12.39233013      -1.19805480      -0.07015209       0.65835437
O        3.81708384       7.96860262       8.39016382       1.05882241       0.14775746      -0.89224082
O        7.28713652       5.40477490      13.38571100       0.64212335      -1.13803342       0.26095934
O        4.47244210       2.62247480       7.37103635       1.05853131      -0.57442620      -0.24032503
O        2.61700689       4.34085537      14.29448769      -0.08810117       1.52214769       0.35434022
O        5.55455636       7.29643469      20.24508894      -1.15263721       0.32424125       1.04311066
O        0.56151300       1.91796482       7.10338434      -1.62842160       2.01695306       0.96623532
O        8.17175965       9.41459863      13.61825088      -2.08328584       1.33881657      -0.58194863
O        9.62234822       7.77939044      20.52885440       1.97113739      -1.60041933       0.14982484
O        2.17072558       0.55869586      14.17394104       1.13156434      -2.30964052       0.08874311
80
Lattice="9.77192453 0.01751879 6.90363604 0.24348012 9.76890588 6.90363604 0.01370155 0.0133883 13.86910312" Properties=species:S:1:pos:R:3:forces:R:3 energy=-576.75051913 source_file=vasprun.xml step_index=195 time_fs=88390.0 time_ps=88.39 file_index=44 pbc="T T T"
Na       7.61983470       6.10871685      18.61265847      -0.14871399       0.37325376      -0.44648763
Na       8.14848930       1.56220858      11.04218905       0.19243581       0.05879523      -0.33893003
Na       3.20782929       5.58086869      10.15840900       0.55797059       0.22185869      -0.77712094
Na       1.33487994       9.15747191      17.38994593       0.17620087      -0.17383550       0.21651620
Na       9.41989188       3.86250429      21.25858217      -0.35244262       0.15214337       0.19886958
Na       6.55300368       2.49355615      14.74473627      -0.13335474      -0.06916197      -0.12430541
Na       1.60558594       6.81925664       6.55612350       0.11630868      -0.18067547      -0.02663066
Na       3.97540315       9.01017326      13.52749020       0.73642057      -0.20635230       0.31488279
Al       7.09964825       5.77035005       9.12830656      -0.02815946       0.50827062       0.27107588
Al       4.93694756       2.88648185      11.51997307      -0.25936394      -1.59310606       2.21461707
Al       3.47421449       4.91638712      18.85881551       0.32999684       0.41539326       2.66077137
Al       5.60529199       7.62260882      16.24081505       1.69717997      -2.02202411      -1.83046127
Al       0.75094675       2.73174347      11.69739909       0.09372707      -1.89719395      -0.83035539
Al       8.14237288       0.13376426      16.39144550       1.51818026      -2.49908090      -2.09582821
Al       9.94768490       7.85581474      16.03413955      -0.84862125       1.03797293       0.84285966
Al       2.24240966       0.90447245       4.54916381       0.30231848      -0.06005995       1.33861871
Si       2.87937188       5.84525576      15.90502498      -0.34477202       4.58267280      -1.53084616
Si       4.71392064       7.85957502      19.23835457       0.85855500      -1.89196863       2.65214313
Si       7.48999646       4.61546028      12.08661622       1.81093540       1.70341924      -1.56735294
Si       5.92066610       2.85485359       8.54171916       2.56034951      -0.98867477       1.10358303
Si       1.32661061       7.63904596      12.22033483      -1.54331869      -4.01162424      -1.64688813
Si       2.61353582       9.71100266       8.59705455       2.43964678      -3.26447144      -1.50537995
Si       9.36110758       2.95795699      15.61673965       1.68415837       3.69473025      -2.36533891
Si       7.97294363       0.95728881      19.18635395      -1.93642027      -1.97234253       0.35804488
Si       0.68111502       3.37773493       5.69571249      -1.13673422       2.66620223       1.81247563
Si       7.54522611       9.77843783      14.99686885      -0.72753556       0.58856362       4.90572938
Si       9.87964723       7.18043267      22.02252187      -1.43364307      -0.61155062       1.05119132
Si       3.11520362       0.66271453      12.71057592      -1.00610743      -0.46955014      -3.95528760
Si       8.02868256       5.76111113      14.90121497      -4.45442644      -0.55292643       1.15662023
Si       5.11097067       2.31878613       5.63169589       0.26158784      -1.41080809      -0.87920792
Si       2.64215176       4.90324506      12.79534630      -0.93640759       0.74855184       2.21117395
Si       5.69665240       8.38482248      22.33015656      -1.92636096      -0.79113269       0.31259820
O        8.55287172       6.20242207      22.13550017       1.27123757       0.47241121      -0.97719190
O        4.57018625       1.26594356      12.39868887       0.48415665       1.78323806      -0.63906545
O        1.89497542       4.46280764       5.71982477       0.46613523       0.16782254      -0.52540409
O        6.21824834       8.84921554      15.06219206      -1.53714476       0.03594124       1.02508701
O        1.15634752       4.25701947      12.47526201       0.28528934      -0.86384016       0.91401262
O        6.90049338       9.48399217      22.60515460      -2.16084949      -0.78617842      -0.47207597
O        9.41889540       6.46913473      15.10815571       1.46415165       1.12833597      -0.64089606
O        3.90703655       1.39501273       5.03464090      -1.69649380      -0.74066774       0.49727524
O        3.87724644       6.50736381      19.60290192       0.02699964      -1.39984061      -0.40287706
O        4.12785144       6.94913081      15.60413285      -1.69851650       0.61170369       0.35823494
O        6.67588212       4.28888340       8.37275571      -0.83139414      -2.08057153      -1.20021931
O        6.56347741       3.24390276      12.06258793       0.47325854       0.50800534       1.11263128
O        1.66389762       8.34178422       8.33058357       0.25037631       1.20640444       0.15515672
O        2.10929849       8.97012477      12.15445252       1.55242815       3.28137781       0.35950887
O        9.02125468       2.11447991      19.42431491       1.42245918       2.15951941       0.08797579
O        8.63774903       1.58769185      15.63074409      -1.81009797      -1.18994896      -0.12454999
O        3.13608881       5.23543270      17.28677205      -0.07796754      -1.57628445      -1.01741660
O        5.76270544       7.71178360      17.98564164      -0.71010120       0.82338687       0.83670844
O        7.50902430       5.53063373      10.73890648      -0.79572484      -0.90667619       2.30658059
O        5.02096443       2.84672535       9.86769866      -0.86656561       0.06297424      -1.85166023
O        0.36521790       7.39289287      10.86835088       0.46135581       0.29887253       0.68991932
O        1.94645137       0.86756778       2.87999878      -0.51491164       0.59758279      -0.24539096
O        0.52597767       3.12543189       9.97994185       0.55875146       0.08161627       1.55538949
O        8.65053173       9.66581483      24.94093557       0.76275216       0.45660214       0.73655392
O        9.73065154       8.64258156      22.59604847      -1.74858190       2.80095375       0.69530549
O        1.82321512       1.19251860      11.78701891       0.19678076       1.57255878      -0.17598795
O        0.96493511       1.95622066       5.12488834       0.39143938      -2.00830831      -1.35817293
O        8.71114356       9.12271860      15.92839388       0.35642375       0.00146835       0.78459867
O        3.77024660       4.07340906      12.00840566      -0.25051255       0.55758891       0.29280710
O        5.77766971       6.88609912       9.28332846      -0.38782365       2.37438976      -1.59243083
O        6.74718500       6.16853682      15.93836910       1.48356503       1.06905189      -0.35087432
O        4.87323541       3.89454820      19.13376150       0.69251385      -0.89740636       0.13614448
O        9.05809393       4.04456330      11.84939934       1.17443313      -1.35905392       1.64749246
O        7.11386861       1.61180842       8.77783681       0.31273325      -0.45768173      -0.02660947
O        1.30407296       6.62495698      16.06976070       2.93785260      -1.74892104      -0.01985611
O        3.36860929       8.79541853      19.16411666       0.27628394       1.92159796      -0.18808024
O        8.28955968       4.23630843      15.37597420      -0.25274668      -2.78147029       0.89924029
O        6.42490102       1.42923517      18.75698076      -0.11441493       1.99075768       1.15800276
O        2.54160041       6.39983203      12.10489033       0.02417047       0.74782761       0.29169346
O        4.11981308       8.93164796      22.83821984       0.77809842       0.71952724      -0.95093230
O        7.27457053       5.65811286      13.39024725       1.05687808      -1.04509275      -0.21580097
O        5.26451756       2.08407722       7.29362081      -1.39712781       0.66756687      -2.40776024
O        2.86308841       5.10453319      14.48684496      -0.59759598      -2.15217973      -2.90763995
O        5.68854658       8.09502040      20.66246549      -0.73809298       0.59300982      -0.81808180
O        0.43533738       3.16702207       7.30238927      -0.25868542      -0.66980306       0.91935666
O        8.05792283       9.73695310      13.56146104       1.37202994       1.26523495      -4.41268182
O        0.48491060       7.10744828      13.54704287       0.66896309       0.84231295      -1.82286123
O        2.59571022       0.84545838      14.15905177      -0.89233234      -0.20132262       4.17663366
80
Lattice="9.77192453 0.01751879 6.90363604 0.24348012 9.76890588 6.90363604 0.01370155 0.0133883 13.86910312" Properties=species:S:1:pos:R:3:forces:R:3 energy=-577.00566904 source_file=vasprun.xml step_index=125 time_fs=54250.0 time_ps=54.25 file_index=27 pbc="T T T"
Na       6.49361737       4.48592577      17.73306930      -0.34022317       0.17283092       0.08392841
Na       8.45639286       2.64326792      21.25482673       0.93638804      -0.67532854      -0.40354098
Na       1.06872661       6.53176295       6.26292247      -0.01567088       0.12993772      -0.10924213
Na       3.43711157       8.47001107      13.63990194       0.34527312      -0.06582562       0.40538023
Na       2.72161168       2.22344296      15.53647393      -0.15206920       0.60977142      -0.25723172
Na       7.02266193       0.40015214      13.32744957      -0.31852867       0.19248098      -0.44478879
Na       2.29140508       2.81757131       8.01545094       1.07501363       0.08904229       0.59670502
Na       4.00280350       6.42875239      10.06741437      -0.08752760      -0.42393321       0.49825204
Al       7.24431008       5.25335920       8.94972488      -3.04058850       1.06779701       2.11966190
Al       4.47978975       2.98393517      11.57710247       0.64492502      -1.35023364      -1.36600633
Al       2.79022550       4.43246272      18.66872850       0.39167727       1.34563684      -1.06843074
Al       5.22751081       6.67235701      15.73383721      -0.21931747       0.61377304       0.74203576
Al       0.19239766       1.71968544      11.60957668      -0.81747928       0.87137063       1.82914751
Al       7.69344417       9.32571497      22.92174099      -1.32175894       1.45138160       1.94501927
Al       9.53659388       7.57297303      15.72767632       0.06941149       1.38680333       1.12554195
Al       2.14697931       0.42534319       4.35228202       1.20788395      -2.74532968      -0.71973660
Si       2.22360473       5.42912838      15.55492373       1.30347881      -0.23217377      -2.16139650
Si       4.21707396       7.16775375      18.83473947       1.19152415       0.08989040      -1.23162055
Si       7.44491099       4.18320626      11.91185677       0.91825763       1.00533235       0.36982223
Si       5.80275669       2.55102540       8.62764436       0.13268909       0.47402437      -0.67594086
Si       0.73971747       7.35252318      11.94035297       0.78730524       0.56165488       1.03280711
Si       2.69950726       8.96124087       8.26796530      -2.88189329       1.70372928      -0.82198126
Si       9.04768880       2.31258017      15.49075068      -1.47419965      -0.30883396      -1.04487097
Si       7.10411032       0.47457680      19.03850921       0.04418438      -1.38453843       1.40213337
Si       0.50528576       2.63260859       5.74878245      -1.21949425       3.02150009      -3.64419803
Si       6.73913409       9.16486919      14.97062609       1.95159539       3.60334566      -1.05718821
Si       9.44308894       7.27884145      21.93071449       1.65668713      -3.87431331      -3.24471919
Si       2.84435937       0.38751124      12.44670979      -1.84793755      -1.94007821      -0.42916744
Si       8.05849271       5.29898056      14.78821479      -0.29983719      -3.14011874      -4.54973250
Si       4.68152269       2.12810516       5.59499338      -0.18153820      -0.38281015       1.47990017
Si       1.83701349       4.37672335      12.57610877       0.98400740       0.77550525       0.96834756
Si       5.40637192       7.52165054      21.57306727       1.63596914      -2.84307441      -0.67558981
O        8.29820063       6.13283237      21.90711537       2.35040076       1.62143409      -1.28177832
O        4.03441300       1.32685937      12.11252912       2.04169998       2.64633367      -0.35315312
O        1.67192641       3.87780647       6.06092558      -1.29482212      -1.29968107      -1.42420334
O        5.41027049       8.46703205      15.46303361      -0.86556604      -1.28283360      -0.22700658
O        0.82061079       3.16266273      12.49864095      -1.67911120      -1.27094197      -1.13497888
O        6.39190840       8.70069430      21.94837431       1.86538826       1.36403825      -0.46269142
O        9.43249949       6.07109303      14.83273702       0.63042983       0.92799801       0.34450781
O        3.44946300       1.01548609       5.37893205       1.68992646       0.41474627       0.06404263
O        3.10348582       6.10445719      19.25205956      -1.41468202      -1.42201229      -0.09770915
O        3.65646057       6.19043146      15.03790514      -0.22820778      -0.22807721       0.58283571
O        6.91386658       3.80074802       8.18088660      -1.76818002      -3.51896457       0.28267335
O        6.12024312       3.29060268      11.96344699       0.58988586      -0.76586824       0.86466425
O        1.25804472       8.18755421       8.07830149       1.25009213      -0.09326485       0.19705060
O        2.00891275       8.50954161      11.85090465      -0.75246776      -0.80798944       0.16383107
O        8.59496458       0.95094788      19.54251466       0.45009067       1.17462630      -1.37683780
O        7.88374379       1.17064880      15.34144875      -0.01887890       0.00173179      -0.10995052
O        2.34046534       4.40894157      16.83664238       0.29178241       0.33404719       1.20585657
O        4.96329359       6.64447399      17.46250353      -0.15901745      -0.13321312       0.79551899
O        7.49513122       5.23561971      10.68496435      -0.07621548      -0.38333617      -1.02928530
O        4.73525431       3.03592988       9.78218682       0.22056665      -0.72724616      -0.95626466
O        9.74731834       7.21488556      17.46254744      -1.11232767       1.25609691      -1.46272750
O        2.52509477       0.17389442       2.61117180      -0.33511418       0.93748991       3.23787156
O        9.81601156       2.25261556      16.88883235      -0.34977584       0.43759324      -1.39303100
O        7.15759976       9.38198656      24.63035479       0.68037688      -0.25820857      -1.87371561
O        9.15168232       8.51709850      22.76319059       0.48737150       1.78665414       1.43549811
O        1.48740048       0.70138736      11.59367137       2.32995046      -1.85828366       0.88501853
O        0.93553553       1.51285551       4.65379496      -1.48623992       1.71545164       0.90044915
O        8.17843816       8.67671496      15.44126672       0.79493772      -1.33418865       0.29507849
O        3.34498269       4.23337711      11.88387717      -1.54593370       0.37538155       0.51692952
O        5.59335256       6.11285658       8.56881641       0.39292749       0.98045890      -0.07062945
O        6.78342908       5.76273784      15.49529296      -3.75367130       1.94085479       3.14717014
O        4.29766418       3.59504589      18.86380242       0.45301293      -0.46258006      -0.52402872
O        8.87213886       3.29966991      11.89655780       1.08813711      -0.85566493       1.23681128
O        6.73469009       1.15653576       8.71790772      -1.17195522      -1.01125792      -0.60567211
O        1.08721075       6.59254468      15.61574023      -0.05583232      -0.03941550       0.02300291
O        3.52482827       8.62032701      18.88128294      -0.46533776       0.67851815       0.02525904
O        8.34769170       3.74293981      15.16835748       0.16893171      -0.55660456       1.39348615
O        6.21196707       1.86260975      18.79220917      -1.18484916       0.29781156       0.75470956
O        1.27295914       5.80768922      12.01601103       1.02719976      -0.53882090       0.70602948
O        4.04189862       8.15784296      22.07123029      -1.22960755      -1.74665414       0.69924190
O        7.44502721       5.13999557      13.22656224       1.03974636       0.63174644       0.97012796
O        4.84436453       2.22522174       7.28743254      -0.69839507       0.17890964      -1.38373970
O        1.91292650       4.36019823      14.25034618       0.63938923       0.97795762       1.49513876
O        5.41409341       7.21774306      19.93874261       0.65783186       0.23735382       1.44730517
O        0.31637791       2.19002069       7.24259326      -0.68447798      -1.83337257       2.94771545
O        6.66817324       9.19674554      13.26388860       0.12902503       1.46235680       0.77122148
O        9.67713955       7.66837679      20.26701087       0.30310269       0.16269547       0.03965428
O        2.64379078       0.41367229      14.12942923      -0.28643310       0.10692617      -2.31767785
80
Lattice="9.77192453 0.01751879 6.90363604 0.24348012 9.76890588 6.90363604 0.01370155 0.0133883 13.86910312" Properties=species:S:1:pos:R:3:forces:R:3 energy=-576.27868847 source_file=vasprun.xml step_index=260 time_fs=68520.0 time_ps=68.52 file_index=34 pbc="T T T"
Na       8.30229055       4.60344375      18.62448243      -0.09268352       0.28113958      -0.13708621
Na       8.42224734       1.46496782      10.24446288       0.32521398       0.00155457       0.10614569
Na       3.63244182       4.71784145       8.04035109       0.11286544       0.11365019       0.05831470
Na       4.19296518       8.17267535      12.89997109       0.02902670      -0.54415245       0.62376300
Na       2.56238145       2.44313095      16.25299937       0.34817312       0.66092245      -0.56391286
Na       6.35954636       0.94593211      13.37899483      -0.26543726      -0.01110109       0.43366982
Na       1.24983138       8.90642713      16.80868506       0.65809729       0.36221774       0.07513358
Na       9.65606341       7.94312671      12.79677317      -0.32299262      -0.16239707       0.59975652
Al       6.80966608       5.44292521       9.42901436       0.63667447      -1.35561515       0.01403923
Al       4.59050752       2.66359935      11.42900011      -1.10838724      -0.19230700       1.34194215
Al       3.13613807       4.41049863      18.66891952       0.05641638       1.58504404      -1.83037647
Al       5.37916407       7.16931743      16.13746090       0.23301713      -1.31350460      -1.26322147
Al       0.44158269       2.35679319      11.70757609      -1.35335201      -5.50888377      -1.38296990
Al       7.96424926       9.50107906      22.83695050       0.50206491      -0.73444673      -0.19660257
Al       9.58804484       7.60685408      16.06791723      -2.71453043      -2.30350157       0.36316396
Al       1.95612015       0.34028729       4.74878327      -0.67362467      -0.80013954      -1.21418320
Si       2.77654589       5.65263446      15.54874739      -1.49327430       1.15387816      -2.07470591
Si       4.32409977       7.31017079      19.17244058      -1.55896750       0.25937867      -1.00178461
Si       7.31224923       4.08342106      12.28750231      -3.35855290       0.86029958       0.69923252
Si       5.51498063       2.46778474       8.56174098       4.08396032       0.77900163      -3.62881369
Si       0.99889069       7.07033774      12.22622129      -1.69525160       1.45724699      -2.71670781
Si       2.26693271       9.14926376       8.60207429       1.03206475       1.60515202      -1.48578085
Si       9.08811992       2.59312943      15.67907644      -2.72749772      -1.63771173      -0.27223970
Si       7.48572335       0.77602982      19.02532698      -0.49783882       1.32310320      -0.67099249
Si       0.53435040       2.97720837       5.87764887      -2.76054664      -0.07057243       2.06447570
Si       7.23749953       9.43631589      14.98954671       0.60550870       1.22805116       2.24738896
Si       9.51967393       6.82961520      21.88717217      -0.42505024      -1.33183016       0.19236170
Si       2.56236964       0.20436993      12.66137543       2.67171217       3.83755862      -0.35585381
Si       7.59695973       5.19215735      15.15622941      -1.23404335       1.25547933       0.74597400
Si       4.50978636       1.85651994       5.51612634      -0.05718286      -0.93999080       2.46146535
Si       2.26917749       4.44916151      12.76400987       2.62911404       1.30825995       2.56683228
Si       5.15609941       7.92043174      21.99216404       1.30413330       0.24504480       2.89609479
O        8.28309742       5.87937686      22.45706121       2.15992045       1.33918141      -0.86469008
O        3.79229733       1.32285403      12.25091588      -0.10729771      -2.06362588       0.50794008
O        1.76074377       3.97175014       5.76319533      -0.14914070       0.76735601      -0.21753527
O        5.95830629       8.44663776      15.11650514       0.71452156       1.60804969      -0.51685160
O        0.88853531       3.79628914      12.28549523       0.78245000       2.57287804       1.15935163
O        6.32054792       9.03946584      22.38340642      -0.74018063       0.04653825      -0.84227682
O        8.76622861       6.24809976      14.83643519       1.77807003       2.10218157       0.58632029
O        3.53270146       0.58489797       5.47185546      -0.98198832      -1.69493468      -0.58517752
O        3.78949261       5.75826760      19.66452753       0.72244973       1.80320437      -0.79322618
O        3.93135688       6.75503728      15.20070753      -0.63959373      -0.41537162      -0.04393126
O        6.39001685       3.88520857       8.54483519      -0.81426165       0.02209102       0.14801391
O        6.24703726       2.78382142      12.02212820       1.15843288       0.51038674      -0.35552733
O        0.99738391       8.31453429       8.23854178       0.39827180      -1.33890706      -1.95745746
O        1.64712463       8.55704471      12.20778427       0.42427194       0.16460163       0.18745647
O        8.59158452       2.10473197      19.34103025      -1.72459557      -2.26441484      -1.08845164
O        8.16566440       1.24362284      15.13361579       0.29596439       0.97742003       0.90985874
O        2.98394977       4.91292059      16.90830438      -0.03384598      -1.14249341       3.50458291
O        5.00498776       7.46107658      17.74277160       0.02530894      -0.09558529       1.91508787
O        7.16253224       5.32140835      11.23530532      -0.58770300      -0.45523435      -1.13448968
O        4.51373504       2.61893745       9.69064612      -3.05164910      -0.15946766       3.08862865
O        0.26566858       6.82001376      10.71467498       0.24453301       0.38810076       0.46112741
O        1.58117911       0.46966844       2.81479850       1.62353543      -0.51464521       2.79251568
O        0.26565760       2.18539052       9.97891110       0.09559561       0.21609165       0.56689546
O        7.79621285       9.47331878      24.60288015       1.36913201       1.71604668       2.10677449
O        9.43668187       8.37878176      22.30774438      -2.34631769       1.89114009       0.99904385
O        1.29891417       0.74560964      11.85684894      -1.87764275       0.48451542       0.00372488
O        0.84119178       1.56945752       5.09958971      -1.31048646       1.73686046       1.02701545
O        8.52832875       9.05693154      15.98523652      -1.60529767      -0.14489308      -0.32207375
O        3.65358450       3.94665284      12.16298787      -0.34880588       0.25901898      -1.10877874
O        5.56719019       6.56158523       8.96959120      -1.22795005       0.45538544      -1.02283751
O        6.56933060       5.89918750      16.23681140       0.30145193      -0.51508560      -0.64819749
O        3.90140593       2.88767629      18.35867482      -0.21853870       1.58598367      -0.46049760
O        8.76774242       3.47455780      12.16126891       3.43880207      -1.31381089      -0.08707724
O        6.77572416       1.34957885       8.71824996      -1.20931782      -2.18611839      -1.24237962
O        1.27895064       6.47302102      15.51705888       0.68733219      -0.52265065       0.55769223
O        3.07002528       8.53811209      18.86249101       0.20198428      -2.65976587       1.35173820
O        8.11814677       3.89473798      15.95242357       0.46980895      -1.52525439       2.03092900
O        5.96064505       1.51632585      18.86257225       3.52907642      -1.06552636      -0.24718795
O        2.19644441       6.09276726      12.56698442       1.28997321      -1.14443395      -0.45814487
O        3.53038365       8.09793236       8.66855286       1.46898838       0.48289633      -0.02766826
O        6.84327766       4.59437161      13.83345618       0.71613462      -0.13647090      -1.57952337
O        4.56206289       2.16146889       7.18168430       0.76763006       1.00373412      -0.23123216
O        2.57796806       4.39397367      14.48220058      -0.70471667      -0.39870022      -1.39546507
O        5.21297047       8.02024658      20.35806016      -0.38611994      -0.84723732      -0.15664027
O        0.13815911       3.10342961       7.56600332       2.94244627      -0.12931693      -4.78020950
O        7.67081346       9.50947815      13.40091616       0.42936565       0.46449629      -0.74416243
O        9.61156188       6.76478143      20.21183035      -1.14399021      -0.16460351       0.84639961
O        2.37391399       0.45753105      14.30391098       0.29332652      -1.10230319      -0.53236976
80
Lattice="9.77192453 0.01751879 6.90363604 0.24348012 9.76890588 6.90363604 0.01370155 0.0133883 13.86910312" Properties=species:S:1:pos:R:3:forces:R:3 energy=-575.81742973 source_file=vasprun.xml step_index=310 time_fs=10620.0 time_ps=10.62 file_index=5 pbc="T T T"
Na       6.26648876       3.57167335      16.89077834       0.42639558       0.30331881      -0.29763550
Na       7.02173592       0.99643041      12.84106754      -0.15044242      -0.08822981       0.47633201
Na       2.89426941       3.85914674       9.04698238       0.14101734      -0.37708561      -0.07077407
Na       8.05548466       7.15384280      11.49825382       0.00140591       2.19110125       0.22014384
Na       8.65775850       3.75754763      20.39929458       0.04269972       0.44632688       0.12260122
Na       2.06468788       2.39825224      16.23471590       0.21214868      -0.00955216      -0.15795068
Na       1.80189423       7.18989249       6.32332732       0.42016996      -0.67854988      -0.66200830
Na       4.58412526       8.24197708      13.49798051      -0.76173291       0.16514309      -0.57032444
Al       7.57962812       5.27761467       8.99909358      -1.84397164       1.83567514      -1.17316958
Al       4.97262876       3.10863328      11.63073978       1.34832203      -0.42292046      -2.33644561
Al       3.43370807       4.75016707      18.31627448       1.82253901       1.02018631       0.76236696
Al       5.90261947       7.19403233      15.92665421       1.84343780      -0.67334276       1.07033768
Al       0.74733133       2.44313739      11.55018638      -3.04844562      -1.37769761      -2.14935296
Al       8.54559524       9.38967665      22.82294457      -0.02418639       2.02141707      -1.01941435
Al       9.93824909       7.90460353      15.76860453       0.91650627       0.56727008       0.19243612
Al       2.62969757       0.51410145       4.66152064      -1.29694159      -0.09583513       0.10912418
Si       3.30002214       5.48737035      15.12685921       1.91361408      -0.23092619       1.05772567
Si       4.84117112       7.61756820      18.92678550      -1.27991903       2.89263951       2.01720855
Si       7.90367214       4.48369806      11.94260246      -1.15413545      -1.95345145       5.52676728
Si       6.09309195       2.59489766       8.36764717      -0.81097126       0.98548516       2.82509466
Si       1.25688679       7.60048746      12.05757353      -2.55162772      -1.89507077       0.70872459
Si       3.03801444       9.32228757      22.13872675       2.23240783      -0.21500062       2.02532264
Si       9.66258430       2.63485075      15.42999176      -1.12830616       0.60835369      -2.36411800
Si       7.79010983       0.88059469      18.85497015      -1.42357457      -3.06064022      -1.35331046
Si       1.10361208       3.28144979       5.70634938      -1.53589870      -2.36784936       0.07279742
Si       7.44918669       9.52503903      14.59662127      -3.97628872       1.73222455      -3.62881672
Si       0.44715949       6.82610032      15.07461810      -2.66507816       1.56266658      -1.79168672
Si       3.14411776       0.74918977      12.63920562      -0.06393891      -0.86520692      -1.11691239
Si       8.40668150       5.45922782      14.91285857      -2.16111331       0.90039745      -0.66107588
Si       5.02907903       2.28258149       5.64278098       0.08870905      -2.53767742       0.91444323
Si       2.50684287       4.77023367      12.26578937       0.49258340       0.78311913       1.29509611
Si       5.94832113       7.96523535      21.71644662       0.06739013       0.62262011       1.04118151
O        9.12982491       5.58343667      22.16864021       1.82343266       0.67258832      -0.07412588
O        4.50373907       1.48647640      12.19391952       0.58558450       1.30839218       0.15606835
O        2.10073932       4.52410072       5.60447715       0.17153199       0.35147594      -0.81891924
O        6.20310467       8.54088393      14.82947392      -1.04917202      -0.37365303       0.56555584
O        1.15905721       3.92026219      12.09980535       0.06272463       3.40594301       2.04963122
O        7.00120220       9.24447574      22.00103730      -1.08310843      -0.91171797      -0.87473763
O        9.69313432       6.44797770      14.78048160       0.32985073      -0.17158714       1.17945271
O        4.15197587       0.87942112       5.41466903       0.63236513       0.99838926       0.39734216
O        3.96046203       6.32897552      19.00872215      -1.57838028      -2.25899659       0.16617053
O        4.49837984       6.55425145      15.23873549      -1.01412524      -0.36658708      -1.71196462
O        7.09248220       3.84683977       8.17328645       0.35303325       0.16736772      -0.42529297
O        6.61456809       3.51485718      12.39940481      -0.54449420      -0.59691729      -0.87116039
O        1.67682736       8.51850277       7.94097710      -1.80169619      -0.11846964       1.34035222
O        2.00952091       8.92860323      12.29727614       2.28051877       2.58141835       0.41583065
O        8.94401263       1.89731152      19.18635196       2.71255688       1.02008292      -0.55944620
O        8.75819448       1.36274279      15.21441065      -0.96981378      -2.61639570       0.44819821
O        3.42667212       4.67662068      16.55598338      -0.65259332      -1.44516166      -0.03991329
O        5.56547755       7.64970277      17.56504707       1.06997193       0.88351259      -2.13557042
O        7.44947561       5.32318333      10.71930974       0.67957887      -0.04463351      -1.76967368
O        5.45432055       2.60528944       9.85973025      -0.59772858       0.78002057       0.75122538
O        0.52582074       7.59628481      10.58818262      -0.21234804      -0.08820871      -0.01449153
O        2.86788251       0.21065597       2.94969601      -0.45066923      -0.08819688      -2.18827131
O        0.75388440       2.69619729       9.81722743       1.41257746       0.00473772       1.48966998
O        7.95857137       9.65973541      24.41433219       0.76920571       1.66699253       1.80721704
O        9.80507887       8.16084247      22.95307216       0.37852788      -1.63528668      -0.81588959
O        1.76489933       1.30996419      12.04630482       2.78436817      -2.69686013       0.10897228
O        1.52238954       1.92268920       4.90034894       0.81951080       0.67097452      -1.37655141
O        8.56583237       8.93169248      15.33749834       6.75297608      -2.79344610       4.14149348
O        3.62769688       4.30308039      11.23938896       1.66413679      -1.48933402      -0.74784415
O        6.50233114       6.71767916      22.60913053       0.20573945      -0.47863955      -0.81978693
O        7.17060158       5.76183433      16.06031093      -0.11886822       2.18088719      -2.01501322
O        4.77427275       3.55383840      18.59599754      -1.69292309       1.43870880      -0.71824917
O        9.31454692       3.66504581      12.20173126      -0.60076154       0.58238099      -1.61103382
O        6.98530601       1.29997821       8.17492504       0.80973883      -1.52776147      -0.82699830
O        1.91968644       6.21258314      15.23895358      -2.11395679       1.47660587       0.36251066
O        3.58606326       8.89469721      19.42838862       1.12213819      -1.70194632      -1.65558377
O        8.59258628       3.96072312      15.50554516       1.36507788      -1.41827799      -0.95471318
O        6.59894428       1.95805588      19.03489601      -1.93063907       0.98555272      -0.01331482
O        2.36396018       6.37675506      12.21891312      -0.57448091       0.56370198      -0.73267266
O        4.25690049       8.03629945      22.10680920       0.35409058       2.41921595      -0.28899630
O        7.96644407       5.67612394      13.18242611       0.04723251      -1.27213253       1.19281922
O        4.89089849       2.66397438       7.28119994      -0.51088850      -0.12040780      -1.80115613
O        3.29348431       4.62531104      13.73537049      -0.00055383      -0.97989685       0.98858858
O        5.98222932       7.95514839      20.05598919      -0.05031298      -0.80651296       0.36379544
O        0.91114547       2.72381127       7.21130236       0.38312047       0.84033807       1.73574249
O        7.66999809       9.38741937      12.91581874       0.38617048       0.62626053       1.75379934
O        0.21385831       7.38456402      13.46073251       1.19361703      -0.51419424      -0.44793494
O        2.85376735       0.93105817      14.21168976       0.35766590      -0.90158392       3.83176034
80
Lattice="9.77192453 0.01751879 6.90363604 0.24348012 9.76890588 6.90363604 0.01370155 0.0133883 13.86910312" Properties=species:S:1:pos:R:3:forces:R:3 energy=-575.00842134 source_file=vasprun.xml step_index=85 time_fs=18170.0 time_ps=18.17 file_index=9 pbc="T T T"
Na       7.47365944       6.42792636      18.91220329       0.33659481       0.36980892       0.30401962
Na       8.83729933       3.03024619      21.11201593      -0.16636217       0.25793044       0.07768659
Na       1.78183085       8.32357907      18.04076443       0.05205304      -0.07335116      -0.10385715
Na       7.55741491       7.61955912      11.30162064      -0.07390322      -0.39375584       0.02071773
Na       2.59040716       2.55655562      16.21658633       0.04132363       0.24638825      -0.08811359
Na       6.92640728       1.77738829      13.91556978      -0.49647358      -0.07431417      -0.39746751
Na       2.74745861       4.10960016       8.87716628       0.14127253      -0.22307609       0.27771656
Na       3.94484353       7.98243971      13.05047888       1.33339236      -0.15862677       0.69890093
Al       7.27434765       5.50451463      22.72242582      -0.53303366       0.38826460       1.03538876
Al       5.13227497       3.18242148      11.47863786      -3.06309709       0.33303398       1.52058646
Al       3.17846194       4.92182505      18.31938534       0.09474561       0.64237110       3.01770856
Al       5.63372721       7.37568252      15.72260566       1.37334284      -0.93953309       1.54678918
Al       0.67255049       2.34933501      11.42569699       1.88701062      -0.85277961      -1.75532095
Al       8.24209291       9.77167081      22.89757770       1.87071875      -1.49536430      -1.21436140
Al       9.84627204       7.88569357      15.95954929       1.27280362       0.57340540      -0.93262692
Al       2.32890075       0.48045145       4.71521535       0.03866157       3.95596788      -1.85295638
Si       2.94329817       5.69238652      15.32829158       0.94417639       0.83191301      -1.07510387
Si       4.77393623       7.81587554      18.78396665       1.50744673       1.98533887       5.26292276
Si       7.68362030       4.46227874      12.03198451      -0.32148730       1.88772238      -3.00203754
Si       6.02552236       2.61862264       8.45845043      -0.49883109       1.75579800       0.41509086
Si       1.38091112       7.44008699      11.97217475      -3.89045828      -1.05834704       0.12660422
Si       2.69517860       9.28057388       8.46697894       2.31642000      -0.77189054      -0.68294132
Si       9.59783505       2.73779348      15.31919876      -1.25998003       0.05050157      -1.21824646
Si       7.65993523       1.13679033      18.94350841      -0.47598562      -3.49749903       0.91694262
Si       0.64397986       3.26031574       5.42501111       3.98459439       2.14906173      -0.69913049
Si       7.45630601       9.60933568      14.86340050       4.22337358       0.06208638      -0.45625874
Si       9.86641179       7.17962593      21.70862925       0.68960855      -1.09145718       1.11847772
Si       3.13997735       0.85934876      12.64736056      -2.04144592      -2.09254737       0.13378700
Si       8.16394922       5.62815141      14.92881612       1.58846976      -0.62557913      -4.25712095
Si       4.73793657       2.21757286       5.73390650       0.65404941      -0.00643726       0.34735512
Si       2.46313132       4.61792042      12.45130549       3.94778859       1.41888627      -2.03374601
Si       5.65760120       8.15667730      21.92491883       2.02940084      -1.69733913      -1.78995153
O        8.70493611       6.04413705      21.94825175       1.69989036      -0.13773672      -0.46034685
O        4.14446448       2.00171622      12.39574335       1.62801677       1.29067774       0.63319511
O        1.55911859       4.72623680       5.23595361      -0.03080628      -1.84478161      -0.21002833
O        6.05108105       8.97490447      15.00527428      -2.90921320      -3.19915681       0.24340889
O        1.13193705       3.91460854      11.98903227      -0.86753074      -0.11810798       1.34940894
O        6.77592229       9.37302913      22.09252284      -1.61998689       0.45768802      -0.88405257
O        9.41387204       6.62418343      14.91852625      -0.92325673      -1.49371657       0.48455837
O        3.80421198       0.90516624       5.58884192      -0.11181493      -0.46581607      -0.74056344
O        3.70500094       6.74937765      18.59623657      -4.93262904      -4.61547595      -0.27765912
O        4.19475684       6.75113761      14.93690132      -0.66110920      -0.72426861       1.04602738
O        6.89726765       3.95509361       8.12491902       0.41874923       0.07810910      -1.10641151
O        6.57588564       3.39127819      12.35140286      -1.51581994      -1.09322006       1.81999480
O        1.57789791       8.23216303       8.17315074      -1.64467836       0.06626412       0.56409905
O        2.22897527       8.75469272      12.24740308      -1.03235359      -0.34208971       0.48407294
O        8.82958848       2.20569104      18.84160953       0.16919304       0.25669796       0.84394226
O        8.77994940       1.26861586      15.03647440       0.06924713       2.27024114       1.26409289
O        2.89728880       4.78199179      16.65429302       0.78986952      -0.28885062      -1.41430659
O        5.81988800       7.37805566      17.75656037       3.05978846       0.41125823      -6.14973483
O        7.23360135       5.15205333      10.54651684       1.24941276      -0.27090223       2.98170751
O        5.47905431       2.81675620       9.93119378      -0.08186024      -1.35142834      -2.40819256
O        0.39287966       7.46113822      10.68342907       1.10198386      -0.42773325       1.13177868
O        2.40760116       0.44834792       2.87394708       0.32885638      -0.84972400       1.52574549
O        0.86701481       2.64463534       9.65981974      -0.74741951       0.08964038      -0.41544003
O        7.51994876       0.17246010      17.63465183       0.86686380      -0.14585484       0.54204349
O        9.61637863       8.46310719      22.65943081      -1.24482213       1.00714432       0.45035417
O        1.72705029       0.89299975      11.73692609      -0.28550800       1.24899662       0.74206423
O        1.37992260       2.03485185       4.66655798       0.12406389      -0.90328150      -0.07377432
O        8.59293982       9.04114680      15.91196060      -1.56993804       1.05146256      -0.94753183
O        3.68269870       4.24187942      11.27742305      -0.95024648       0.46322723       1.95763909
O        6.36598016       7.00327471      22.92190190      -1.64103611       0.92217244      -1.31307337
O        6.70720397       5.98157965      15.31439389      -2.06996998       1.88800152       1.99631823
O        4.33208014       3.57285293      18.85310688      -1.25904415       1.59677315      -0.92872127
O        8.95606140       3.52950725      11.83024247      -0.13414785      -0.73730042      -1.22961976
O        6.98541717       1.37790424       8.26142130       1.35554503       1.32100400       0.50322139
O        1.72800292       6.72589957      15.38710378      -3.44101136       1.03614493      -0.93898091
O        4.07685949       9.26124701      18.99360790      -0.20190965      -0.26308629      -0.77343300
O        8.52058046       4.11687139      15.38734566       1.14046170      -2.77495482       0.80205172
O        6.30072967       1.91266153      19.07467422      -1.67573805       0.85273896       0.60650901
O        2.53453623       6.27852896      12.06772913      -1.24866097      -0.12714755       0.70425372
O        4.06119837       8.28275843      22.11866418       0.11087396       1.13599852       1.32663902
O        7.93906802       5.56976083      13.14533493       0.11552486       0.70374420       1.15854116
O        4.84974703       2.48846131       7.35403710      -0.98001577       0.22331775       0.01599726
O        2.78336587       4.58369981      14.10007618      -0.29013829      -0.56630293      -1.02274863
O        5.73634683       7.69200193      20.21700787      -0.05880783       0.03499989       1.26993179
O        0.60721748       2.96195072       6.99186917       0.35794728      -0.33474513       2.50161158
O        8.10757652       9.71280825      13.27676486      -0.57737684       0.84488296      -0.83134554
O        9.82823560       7.26565054      20.04897120       2.30005481       0.39960549      -0.24423459
O        2.68971339       0.64286713      14.26447964       0.28737011       1.57952356      -1.77395508
80
Lattice="9.77192453 0.01751879 6.90363604 0.24348012 9.76890588 6.90363604 0.01370155 0.0133883 13.86910312" Properties=species:S:1:pos:R:3:forces:R:3 energy=-576.01453948 source_file=vasprun.xml step_index=895 time_fs=11790.0 time_ps=11.79 file_index=5 pbc="T T T"
Na       6.78038062       4.47128108      17.56339953      -0.16841390      -0.05088807      -0.13577875
Na       6.82843613       1.02514350      12.85988830       0.32738331       0.02911013       0.20713267
Na       2.99189818       1.78559066       8.75850706      -0.27865669       0.21884390      -0.02415912
Na       9.06102668       7.22441614      24.65612544       0.11712072       0.60732517       0.51447815
Na       9.51930484       2.72282973      21.30871121      -0.45247908       0.36458105      -0.12846824
Na       3.13855319       2.67884706      15.52020896       0.39797365       0.39917710       0.24923173
Na       2.14696637       6.27628259       7.39250893       0.40658496      -0.07894219      -0.37723103
Na       4.23861749       8.12722739      13.31072430      -0.35739962       0.20801666      -0.48014988
Al       7.50080766       5.67755259      22.65823515      -1.09384844      -2.02232916      -0.57548686
Al       4.82067216       3.10716667      11.38720934       2.22572195      -0.35655742       1.04145964
Al       3.42519693       4.63418442      18.73338494       2.37008486       0.55757356      -2.21285003
Al       5.78162270       7.17657698      15.79010047       0.42403793       1.98916077       0.14289162
Al       0.80283848       2.57406911      11.39372544       0.49501489      -1.23326430      -0.35275940
Al       8.15559281       9.73403844      22.84842619      -0.12692845       1.22239587      -0.33755778
Al       9.88928242       7.93552487      15.82483932       1.55600363       0.25277666       1.62701728
Al       2.60507315       0.37021980       4.40487635       0.74957727       1.56364489      -0.48123110
Si       2.98776184       5.91759652      15.70405187      -2.23856556      -4.75126375      -1.32709100
Si       4.87732682       7.61717074      18.90833621       2.09306929      -3.17469439      -0.21514732
Si       7.93903073       4.42252650      11.76660360      -0.62961381      -3.66219147      -0.40550145
Si       5.83455209       2.81381974       8.49240697       0.83017506      -0.52669447      -1.79947467
Si       1.15627891       7.42271940      11.89717575       3.70255717       0.42651241      -0.91653414
Si       3.11420504       9.43888895      22.29004801       1.35122364       0.44846257      -0.21991083
Si       9.56250850       2.86292568      15.46139760      -1.23475593       0.06081553      -2.31749494
Si       7.83739854       0.82592862      18.93857420       1.40710527      -0.76697244      -0.35616172
Si       0.85057482       2.98832453       5.47615976       2.06250072       0.69438960       0.60962021
Si       7.62114820       9.72511412      14.97295308       0.77028777       1.90353635      -0.29330358
Si       9.83423192       7.07375245      21.70295956      -0.42214253       1.40715369      -2.19044102
Si       3.35244680       0.72361629      12.42290640      -0.58433120      -1.40745193       0.91004540
Si       8.36043226       5.56653784      14.75854334      -1.64488126      -1.71518889       0.58452709
Si       4.99184028       2.00342202       5.58297012      -0.88042368       3.04661128      -0.40581499
Si       2.35996698       4.63732472      12.75674578       3.56403307       3.71681651       2.23538103
Si       5.79135288       8.21294095      21.63648578       3.05572210      -0.97463027       0.65981307
O        8.86817388       5.74684544      21.54755043       0.97385608       0.83929996       0.55290561
O        4.76258352       1.44548029      12.22688938       0.21348801       1.99858496      -0.83902594
O        1.89852957       4.35561713       5.51812493      -1.56048831      -1.87419825       0.48132781
O        6.31506137       8.85048301      15.17329129      -1.66998296      -2.80777400      -0.70260634
O        1.13318541       3.73283531      12.72116521      -3.94833169      -3.17111925      -1.72604815
O        6.76429410       9.54161136      21.73496880      -0.28349389       0.77846907       1.83998063
O        9.68345889       6.46395416      14.76249023       0.01757885       2.82871686       0.14532851
O        3.94690215       0.82690854       5.48436422      -0.10962560      -1.91525257       0.35460433
O        3.86391090       6.29232197      19.25259161       1.29281229       0.71538853       0.63830247
O        4.16904660       6.81708419      15.20477801       1.17265090       1.52250795      -0.97567758
O        6.85306436       4.00515188       8.51049175       0.65609069       1.42524116      -0.71940591
O        6.71104605       3.31657377      11.85198263      -1.71479371       0.48059104      -0.44209916
O        1.71224399       8.67522446       8.49186817      -1.49616555      -0.89229252      -0.16550518
O        2.40572008       8.54768582      11.65140020      -0.76003857      -0.72047937       0.51715458
O        9.01259659       1.91773996      18.66146700       0.17443939       0.49049131       0.70709701
O        8.47411469       1.67056514      15.40929757      -0.58997081      -1.76194818       0.64216908
O        3.28989400       4.94534189      16.98052927      -0.67109323       1.17836853      -1.54450184
O        5.69809548       7.24376595      17.47161981      -1.37005941       0.91338363       3.38490922
O        7.82268501       5.35448699      10.48175641       0.85033260       1.59044863       0.71307575
O        4.75453640       2.90462597       9.65524519      -0.72663293      -0.66494906       0.83754281
O        0.52262423       7.09458401      10.49911481      -1.71093874       0.38538740      -1.83759805
O        3.30100000       0.72725224      16.59269327      -1.35801154      -1.36077407       0.37034001
O        0.95618589       2.59219987       9.59491180       0.97384776       0.51417727       1.76018989
O        8.22031779       9.42272649      24.65332990      -1.08667208       1.49221981       0.68823410
O        8.99842257       8.23235543      22.60798302       2.71748223      -2.10589475      -1.42594796
O        2.19437129       1.49754834      11.58312498       0.80454621      -1.30694978       0.39638473
O        1.46287510       1.59286984       4.84596041      -1.20538927       1.86099907       0.58780169
O        8.80011673       9.32726766      16.01653661       0.01953081      -0.81300023      -0.45613600
O        3.60136026       4.30216717      11.76675642       0.53148485      -1.06449455       0.55410976
O        6.41735603       6.96758888      22.50080162      -0.78550770       0.80572099      -0.16258474
O        6.92329641       5.93648936      15.56246626       2.22626003      -0.41835481      -1.68472590
O        4.67555885       3.27968537      18.40447880      -1.20440928       1.02255593       1.47592441
O        9.31424562       3.46866553      11.61090448      -1.49594303       0.65040950      -1.27548286
O        6.76706401       1.49246208       8.21472749       1.29690000      -0.88393300       0.82476931
O        1.51313291       6.58294553      15.48343190      -1.29237831       1.89272490       0.74419434
O        3.92864402       8.86119104      19.10298036      -2.00367158       2.24225026      -1.32405393
O        8.83513241       4.32369071      15.71832569      -0.34623296      -1.08971564       0.62306714
O        6.47183884       1.77702111      18.81680185       1.93603306      -1.95693063       0.83067389
O        2.09237249       6.20031012      12.42750504       0.13351721      -0.60470080      -0.05290222
O        4.25298580       8.23808493      22.10597508      -1.01517344       0.67798728       0.05561682
O        8.05087746       5.08952107      13.22094450       0.02065545       1.60774766       0.94348164
O        4.87413870       2.61164953       7.14201751      -0.37762098       0.05047295      -0.68303684
O        2.60206554       4.63730041      14.45458057       1.72308056       0.39193868       0.11434674
O        6.12958154       7.98733348      20.05573987      -2.25461100      -1.52332143      -2.47382645
O        0.46483918       3.03072293       7.06017371       0.18089220      -1.14762521       0.88251925
O        8.23694878       0.04921405       6.57125005      -1.89788027       0.51335343      -0.63054606
O        0.32170397       7.79954134      13.16836029      -2.18047217      -0.13246383       4.37684611
O        2.99066836       0.64299200      14.04978159      -0.56626836       0.94919886      -0.14320151
80
Lattice="9.77192453 0.01751879 6.90363604 0.24348012 9.76890588 6.90363604 0.01370155 0.0133883 13.86910312" Properties=species:S:1:pos:R:3:forces:R:3 energy=-576.62809681 source_file=vasprun.xml step_index=990 time_fs=95980.0 time_ps=95.98 file_index=47 pbc="T T T"
Na       7.86058036       7.62092324      18.56086190       0.14916035      -0.01114201       0.01354024
Na       6.54407655       1.86415640      13.71691853       0.19803150      -0.46807982       0.27338957
Na       2.58279237       1.29375779       8.64972529      -0.04327839       0.40174013       0.05195345
Na       9.08185229       7.38426704      11.64026034      -0.30762564       0.33322320      -0.17523918
Na       8.68499752       3.81983269      21.02425740       0.12980090      -1.31759156      -1.40939420
Na       2.11392317       2.79526969      16.09081640      -0.11869949      -1.20319243      -0.41065504
Na       2.43059357       5.67863077       7.15376056      -0.42794301       0.12744724       0.13000772
Na       4.12406316       8.25097848      13.37003586       0.42370239       0.06568086       0.14314558
Al       7.84465000       5.43710579      22.96326311      -2.74178726      -1.12881086       0.56421771
Al       4.98162633       2.94497765      11.31475589      -1.09100353       0.63175369       0.46489247
Al       3.12919256       4.55441968      18.15129621       1.65846771       1.55891431       1.60475516
Al       5.86824965       7.33435518      15.87533020       1.72008798      -1.19981760       0.91095820
Al       0.81050815       2.34821719      11.26323827       0.04539299      -0.71254069       2.68469622
Al       8.36856067       9.54498948      22.59943051       3.93094707       0.84094782       0.61325535
Al       0.41236998       7.78701341       8.90285263      -1.86577963       0.16721071       0.46041816
Al       2.73036003       0.56303562       4.63326159      -4.02365853       0.28750237       1.03418070
Si       3.24092147       5.66843316      15.09726068      -1.33620074       0.74536995      -0.87880378
Si       4.75223221       7.50276128      19.00369570       0.82445732      -0.01017605      -2.72617914
Si       7.62779059       4.59251261      12.25529436       2.48239137      -1.13017977      -2.83833957
Si       5.96345024       2.52076514       8.45011467       0.88447111       0.48202403       1.67421795
Si       1.18711826       7.78455709      11.99283128      -1.72223615      -2.33686180       1.18764066
Si       3.15740983       9.18626471      22.34881655      -0.83451745       0.62459441       0.60341342
Si       9.43703998       2.61548649      15.23967480       0.09784353      -1.64509203      -1.21819684
Si       7.84577238       0.90653797      18.80764782      -1.05968786       0.92944164      -3.13221733
Si       0.59764976       3.02920367       5.52928533       4.43956188      -2.56775863       1.19055121
Si       7.57016750       9.47188092      14.49154411       1.81774332       0.81679757       1.16136035
Si       0.36411949       7.00565350      14.91869991      -2.02200214       0.22665420      -3.24155852
Si       3.27401705       0.49468736      12.61953337      -0.76880769       3.72414644      -0.10432324
Si       8.42457989       5.55949100      14.93024095       0.18984185      -0.68021674       3.00027986
Si       4.92670184       2.21526930       5.58926946       0.40786046      -1.02412684       3.22029028
Si       2.64084088       4.88689241      12.05641751      -3.74124919      -2.00968885       1.36889415
Si       6.01938184       7.86503052      21.87652324       2.71815540      -1.89076844      -1.61982937
O        9.27806477       5.62726703      21.96823865      -0.06659640      -0.70192527       0.56624788
O        4.64351244       1.52222436      12.41434791      -1.16730307      -0.65781189       0.17233670
O        1.71471795       4.19660671       5.30188325       0.58384701       2.05363621      -1.17629280
O        6.26732892       8.55079621      14.66762337      -0.72567703       0.22704285       0.30180522
O        1.12301108       3.96944035      11.79132107       2.81688349       1.19531588       0.80371857
O        7.01917023       9.14433027      21.78921196      -2.93110939      -1.21641418      -1.42828567
O        9.86178139       6.23227465      15.00720559       1.43980723       0.85302243       0.47575640
O        3.93011596       0.93963039       5.78505649       0.27154789      -0.92055332       0.43060922
O        3.68929608       6.36793881      18.64716672      -1.09699926      -3.71025247       0.84142269
O        4.58305811       6.59972432      14.94705814      -1.64055607      -0.83702071       0.40591139
O        6.88470298       3.80529628       8.74971562       2.07610845       1.51091844      -0.08655157
O        6.36101096       3.64300247      12.28946189      -1.53624188      -0.32541452      -0.13078807
O        2.03769570       7.97870229       8.42726497       1.27171611       0.42330358      -0.84052989
O        2.19581448       8.90840339      12.40845220       1.88764639       1.65551032      -0.42534210
O        9.08191450       1.88413118      19.03790161      -0.00748830       0.97254553       0.86187457
O        8.65152979       1.22552523      14.74514578      -0.61183169       0.93222485       0.37012759
O        3.10763262       4.70067677      16.41759813      -0.35422204       0.58154057      -0.44589215
O        5.69811609       7.68110538      17.64194636       0.20741381       0.07253104      -0.89762105
O        7.93313480       5.26844751      10.79185433       0.41155441       1.10602076       1.83460183
O        4.89090422       2.28526800       9.67493679       0.61890321      -0.29295283      -0.06280810
O        0.25878719       7.86862808      10.67519741      -0.14967686       0.20641482       0.06546529
O        2.60953889       0.27760550       2.95272720       1.49038979      -0.37568380      -1.47941420
O        0.45874065       2.11168428       9.64295811       0.62172115       0.46825725      -1.18195810
O        8.05807764       0.18697804      17.32300923      -1.02463685       0.72446507       2.68185177
O        9.46303679       8.07146560      22.75501936      -0.90149037       1.84781789       1.70126067
O        2.03398417       1.13286377      11.76913364       0.39059462       0.20836126      -0.38918743
O        1.30223598       1.72593586       4.76610150      -0.56070318       0.95601159      -0.29032712
O        8.88664066       8.93533499      15.34724250      -0.77930075       0.32669152      -0.90920421
O        3.82859520       4.41590870      11.10057595       0.87991374      -1.04384153       0.77208572
O        6.55400177       6.58223672      22.78467237      -0.84575526       2.27594362      -1.64921886
O        7.29519972       6.18728459      15.82900851      -1.54235177       1.32519368       1.19255393
O        4.25429773       3.17853276      18.46240652      -1.70944572       3.15839867      -2.09709562
O        8.88708554       3.43756055      12.20436748      -2.21526384       0.47246476      -0.02842026
O        6.96499036       1.28778328       8.10320247       0.89855202      -2.08794831      -0.50535858
O        1.91092639       6.85200341      14.97645830       4.71932826      -2.15438119       1.23028930
O        3.71077136       8.76028881      19.00984359       0.49378931       0.29111554       1.03609468
O        8.50545940       3.97213000      15.31837063       0.31321240      -1.64532361       0.21522298
O        6.32043119       1.66957539      18.97198973       3.53175944      -0.91754602      -1.23116486
O        2.03391759       6.37228850      11.81116028       1.29814352       0.17536373       0.35388551
O        4.60378163       8.40530725      22.23867514      -2.69173550       0.94916969       0.94889671
O        8.00887403       5.64769450      13.42668573      -1.55269131       0.14598070      -4.05164699
O        5.16294303       2.83882066       7.13541626      -2.14722747       0.38293820      -3.06340378
O        3.03025354       4.59969118      13.83357427      -0.25322984       1.15854986      -1.64857688
O        5.90321530       7.40330039      20.16991166      -0.44879558      -0.00941735       1.59005327
O        0.86046983       2.79143926       7.18409971      -0.47606457       0.25885532       0.24072650
O        7.99505245       9.43353471      12.85722059      -0.21585357      -1.29113326       2.15265856
O        9.90889153       7.59806633      20.24849739       0.06978323      -0.23973700      -1.29952089
O        2.71885383       0.58772041      14.25555485       1.32271851      -1.11515488      -0.54926819
80
Lattice="9.77192453 0.01751879 6.90363604 0.24348012 9.76890588 6.90363604 0.01370155 0.0133883 13.86910312" Properties=species:S:1:pos:R:3:forces:R:3 energy=-578.62628996 source_file=vasprun.xml step_index=530 time_fs=99060.0 time_ps=99.06 file_index=49 pbc="T T T"
Na       7.77272530       6.95660741      18.47482986       2.10450858      -0.24035224       0.55249082
Na       6.63784544       1.20963259      13.34595587       0.17710302       0.53295962      -0.30208980
Na       2.77958989       2.21158781       8.94790129       0.38651334       0.11080713       0.11772512
Na       7.65940062       7.48199723      11.36994421       0.10963061      -0.40430377       0.00822168
Na       9.09507193       3.64717374      20.72434396      -0.32716386      -0.16177217       0.06935916
Na       3.06322048       2.87899765      16.02180093      -0.10427576      -0.34871903       0.17155245
Na       2.11910560       6.38833347       7.04645240      -0.18763605      -0.34662556      -0.28107303
Na       4.50021199       9.09270761      13.67345039      -0.21957982      -0.39666497       0.13901155
Al       7.46236027       5.35886368      22.75313589      -2.35169485      -1.14461826       1.76689445
Al       5.09440660       3.10987753      11.37867713       0.51157980      -2.39421617       1.78480867
Al       3.20938838       4.88434397      18.63598428       1.03007527      -1.36361324      -1.45385404
Al       5.94887810       7.09191081      15.96860200       0.34156655       0.33571369      -1.64478675
Al       0.75509899       2.08530579      11.47691182       1.02878454       0.90679320      -0.43485221
Al       8.12771419       9.69223728      22.74968465       1.90972784      -1.40965872      -0.35433626
Al       0.37964720       7.79555768       8.85746180      -0.78203141       0.30617073       0.96725296
Al       2.46386943       0.36672565       4.34679277      -0.14419378       2.72312027       0.04764419
Si       3.00597115       5.87188623      15.38396950       1.23476649      -0.65495127       0.95618334
Si       4.89662994       7.61527384      18.89818425      -0.87629342      -3.75826747      -1.43482397
Si       7.90167089       4.31252342      11.97962661       0.40549564      -1.50552862      -1.14765784
Si       6.12868385       2.60322733       8.41657986      -3.80403696       1.45319784      -1.00871211
Si       1.26211655       7.36369039      11.94092019      -1.88601247      -1.91899234       0.34626172
Si       3.18030634       9.21354163      22.18716106       1.11424889       0.13815666       0.43053883
Si       9.54492257       2.62400328      15.28118726      -0.86556433      -0.57983340      -1.37493771
Si       7.55317577       0.79219184      18.91232227       1.64786046      -0.46274657      -0.24546367
Si       0.92793332       3.01516727       5.61471093      -1.19386667      -1.24539112      -2.18375716
Si       7.67023628       9.70668559      14.90232574       1.90020241      -2.08704239       1.67649454
Si       9.79960441       6.92017380      21.75120540       0.39415545       1.06129364      -1.54106136
Si       3.35424466       0.46945056      12.32685265       1.89912425       2.88778663      -2.01552181
Si       8.42045671       5.49441045      14.60466989      -1.27817256       1.57395238       3.82275679
Si       4.89820635       2.17465625       5.48594923      -1.78176157      -1.62700787       2.91765944
Si       2.53437019       4.50193003      12.66558353      -0.20661142       1.45873127      -2.88727135
Si       5.96293786       8.02936460      21.74929452      -1.05337242      -2.59268880       0.52028023
O        8.88724894       5.54244888      21.98300523       4.87228706       1.68000414      -2.18679261
O        4.64453777       1.51009788      12.24728478       0.12270307       0.18023430      -0.17028972
O        1.70568930       4.36674316       5.61379020       2.41034810       3.41352932      -0.08547761
O        6.28205345       8.74996668      14.95614256       0.94067518      -0.63731619       2.23229201
O        1.16969685       3.60686941      12.58354710      -0.33151317      -1.92147701      -1.01512866
O        6.80077606       9.33049756      21.70477397       1.07815092       2.50712829       0.68628500
O        9.54519683       6.68495333      14.56812350       0.69073072      -1.75740132      -0.27280048
O        4.06672396       0.82344394       5.04000674       0.02595829      -0.13640422       0.45361621
O        3.76277935       6.39815346      19.28922228       0.86689599       1.26736774       0.11114909
O        4.34850714       6.79519302      15.17797402       0.10433193      -0.17563126       0.23684880
O        6.94168333       3.88855240       7.91623509       0.41113354       1.02352865       0.30985226
O        6.65617482       3.32914874      12.15475290      -1.22380567      -0.52246463      -0.18508986
O        1.88965238       8.28538350       8.16144812       0.17864574      -1.29784370      -0.24458621
O        2.21704292       8.63248377      11.96370121       0.60799498       1.47570019       0.43920856
O        9.02718141       1.44162244      18.95651931       0.99647312       1.31409829      -0.01834574
O        8.48886157       1.38329455      15.10258526       0.27415382       0.05516364       0.46309505
O        3.13290435       5.04211114      16.83260310      -0.75530024       0.46651163      -0.62296619
O        5.94102038       7.10336507      17.72632932      -2.29135795       0.77013423      -0.60529220
O        7.85984064       5.21100688      10.63774569      -0.36710964       0.14066437      -0.81651354
O        5.18695519       3.00580037       9.68988058       0.34938365      -0.66482860      -1.43141488
O        0.47071155       7.18840885      10.53761584      -0.66762448       0.64542586      -0.99476586
O        2.72085611       0.48681559       2.60789950       0.19325268       0.24332636       0.30792219
O        0.53324369       2.67570913       9.77037151       1.14743338      -0.56467081       1.10831145
O        7.76434964       9.60256101      24.45118555      -0.90475433       1.01531500       1.41890240
O        9.17763171       8.16098151      22.55649191      -0.23141026       0.87608069       0.38792418
O        2.25415682       1.04897836      11.27300395      -2.03984005       0.71998060       0.79366777
O        1.52228783       1.99025062       4.57146979       1.68450954      -2.76510888      -0.89799187
O        9.20484687       9.23373248      15.60646116      -4.02700179       1.44226016      -0.85049823
O        3.73431449       4.03059103      11.66284082      -1.89808429       1.22648779       1.40095955
O        6.53798920       6.80791516      22.64929228      -0.14531358       0.20160259      -0.64122494
O        7.34014598       5.98266042      15.79529652      -0.45566208       0.79315354      -1.03502220
O        4.45378860       3.50926659      18.70810543      -1.95880883       3.01195542      -0.90555185
O        9.17885459       3.24024099      12.00682350      -1.61961001       1.63400966       0.21019907
O        7.18440333       1.45487936       8.72154153       0.77205374      -2.63781290      -1.09502732
O        1.70387966       6.80731152      15.16047697      -1.94615810      -0.01078627       0.01961430
O        4.12460567       8.91450976      18.43513141      -0.75591214       0.02828895       0.22617209
O        8.63450478       3.97085658      15.14129013       1.25617963      -0.13123107      -0.65042790
O        6.46460459       2.01335178      19.11196462       2.78730624      -1.43220849      -1.00947678
O        2.20249902       6.03523944      12.01979985       0.21591501      -0.84968137       1.42921074
O        4.54640936       8.22485054      22.55002391      -2.17077106       1.50362924      -1.55237855
O        7.74320575       5.40112995      13.17337980       0.08183787       0.80478495      -1.14675393
O        4.83220391       2.21517690       7.24065470       1.22537920      -0.21998543       0.09112826
O        2.87006688       4.63406699      14.24003165       0.74923138       0.18256142       1.59074607
O        5.93122670       7.80823153      20.08627477       0.20883877      -0.35626897       1.93963007
O        0.89132387       2.43718047       7.08272021      -0.52391186      -0.67754459       4.25828580
O        7.88225124       9.52905655      13.26789935      -0.72665959       1.01278089      -1.05786650
O        9.70961885       7.34787950      20.02311863       1.70651652      -0.70221397       0.58136116
O        3.02853361       0.37987480      13.90351320      -0.07080813      -0.98951687       0.80316424
80
Lattice="9.77192453 0.01751879 6.90363604 0.24348012 9.76890588 6.90363604 0.01370155 0.0133883 13.86910312" Properties=species:S:1:pos:R:3:forces:R:3 energy=-577.12722734 source_file=vasprun.xml step_index=715 time_fs=13430.0 time_ps=13.43 file_index=6 pbc="T T T"
Na       8.16689272       5.94809303      17.80400544       0.16508420       0.25053397       0.54162371
Na       6.50075491       1.21009439      13.36454526       0.01925783      -0.10519113       0.17495843
Na       1.71171776       9.13817383      16.60593679      -0.08711665       0.17177157       0.50317330
Na       7.47172199       7.45833660      12.14318128      -0.02943995       0.12624071      -0.15594937
Na       9.17389337       2.58912273      21.63115565       0.26655601      -0.36739877      -0.24165649
Na       3.60851610       2.77108550      16.24713977      -0.27185108      -0.29013467      -0.13915010
Na       2.00794241       6.32275927       7.22100956       0.37251090      -0.37532996      -0.37738983
Na       3.83388763       9.33786025      13.94030827       0.55089605      -0.48973324       0.05732567
Al       7.78657956       5.50983954      22.69872057      -2.81644708      -1.29888960       0.26526833
Al       5.06484717       3.17678277      11.47557945       1.34308186       0.09478713      -1.49835483
Al       3.44493049       4.95491915      18.37415393      -1.25313592      -0.46251075       1.65129112
Al       5.86288862       6.97021948      15.86618098       0.77716369       0.17741643      -0.71009988
Al       0.77665256       2.44309797      11.26117730       0.42361640      -0.66880412       0.07302625
Al       8.22570801       9.63219565      22.85652147       0.22321594       0.43578585      -0.42482771
Al       0.21200090       8.02976859       8.98548041       0.38568829       1.02724713      -0.36153496
Al       2.50254268       0.56826232       4.51526480       1.10981164      -2.32619185      -1.84436596
Si       2.94531271       5.95222963      15.25858032       0.89300206      -0.85331222      -1.42155311
Si       4.70961898       7.66456991      18.93622756       1.33457920       1.28656111      -1.66090656
Si       7.97801062       4.40628816      11.81038821      -2.27759498       0.59221043      -0.89156743
Si       6.02057787       2.86294343       8.30362682      -0.63871519       0.88862957       1.09737785
Si       1.32820228       7.61713822      11.99191955       0.24884283      -2.03476895      -0.69506121
Si       3.18760785       8.93661565      22.21901161      -2.54418871       1.28515397       3.41269381
Si       9.41317162       2.48293837      15.19746130       0.96565993      -2.96278099      -1.98474913
Si       7.90375495       0.87301322      18.84703532       0.00145328       0.51138179       1.52220915
Si       0.90606551       3.04392483       5.27265167      -0.68077315       0.16339227       0.48053569
Si       7.50451470       9.75837415      15.03632063       0.40491722       1.01876819      -2.31255660
Si       9.91986442       7.28827443      21.51633357       1.70171360      -1.72294851      -0.58110490
Si       3.15297447       0.57796758      12.41667236       0.94532400      -0.45628444       1.03770144
Si       8.56585515       5.34726291      14.83972241      -1.23290865       4.06719239      -1.97619222
Si       5.06477987       2.23597260       5.33005977       0.11293938      -1.67404359      -1.33216488
Si       2.78306895       4.77696593      12.42977384      -1.67402111       2.04475132       0.37289134
Si       5.80849750       7.92492525      21.82836951      -0.97067362       3.75298590      -1.50808671
O        9.35549222       5.97447540      22.28261394       0.63862425       0.58521543      -0.51089109
O        4.39527469       1.59608762      12.00725828      -0.38893812      -0.06898435       0.75217771
O        1.89059153       4.27208985       5.23683139       2.49792140       2.18772187       0.96162971
O        6.45284790       8.58157190      15.05865292      -2.01397023      -2.58067031       1.25696281
O        1.65425258       3.93384958      11.57774091       0.04335129      -0.60770029       0.90001377
O        6.59120446       9.25337422      22.45854153      -1.17960611      -0.98208787      -0.87515468
O        9.76254811       6.48854567      15.12154314      -2.02442038      -1.61418576      -0.53782413
O        4.05321521       0.90666537       5.23384588       0.67503440       0.91014637       0.47591882
O        3.91490159       6.38026311      19.39110019      -1.55351746      -1.95021380       0.29026909
O        4.43601703       6.56988347      14.87951065      -0.14959518       0.47421029       0.76499715
O        7.37344040       3.79216877       8.03394718      -0.54801530       1.82846584       0.68628874
O        6.77946787       3.27919148      12.15097656       0.43346321       0.36836777      -0.40619763
O        1.61242460       8.47942508       8.06513188       2.03405172      -0.84483032      -0.39528155
O        2.19841322       8.94921985      12.43245349      -1.01395370      -0.34676635      -0.50820255
O        9.05481904       2.04878237      19.04271779      -0.36205784      -0.13154640      -0.21782656
O        8.08381870       1.50101374      15.28368981       0.85608053       0.51382679      -0.69681335
O        3.00770934       5.35056089      16.75311665      -0.15586429      -0.04593864      -0.38099095
O        5.62626392       7.14330651      17.62509940       0.00349751       0.57038700       0.06620589
O        7.37160490       5.51216378      10.58864382       1.78813237      -1.54026971       1.39812581
O        5.14580450       3.29183923       9.66453021       0.56930619      -0.63259757      -1.26982974
O        0.39308336       7.66450199      10.65726377       0.53874724       0.49880932      -0.13376006
O        2.74510060       0.25017492       2.73680636       0.87874845      -1.30839819       0.42646561
O        0.62560128       2.05110500       9.51027664       0.52048177      -0.11469329       0.43734547
O        8.41295633       9.50879435      24.58475096       0.29637167       0.31026361       1.26254342
O        9.64835832       8.74227257      22.15558099      -1.25433445       0.22364185       0.06922440
O        1.67124077       1.09753333      11.99840159       1.57020206      -0.67318544       0.23968674
O        1.50374860       1.87409679       4.39192758      -1.08127650       0.67915204      -0.50062830
O        8.94725237       9.43593033      15.58768888       0.65121214      -0.53607051       1.15947959
O        4.32676691       4.61477012      12.09193776      -0.03142740      -0.97440489       0.06739318
O        6.67727587       6.70907906      22.00633859       2.57380680      -3.88766372       0.46678273
O        7.20456798       5.59390812      15.72505488      -1.03599675       2.22133466      -0.03697330
O        4.46696596       3.52291536      18.39755655       0.58177490      -0.01705517      -0.95767222
O        9.40783404       3.75033314      11.42968920      -1.83964806      -0.14691545      -0.90184057
O        6.76298955       1.45216646       8.69562871       0.05341675      -1.47380791      -0.34956447
O        1.84644854       7.16197718      14.97485915      -0.31460391       0.25166066       0.11215881
O        3.62650086       8.89717857      18.42004675       0.39852854       0.12369326       1.05979506
O        9.01441815       3.98081324      15.37974456       0.58321909      -0.55974481       1.11591353
O        6.53819512       1.69028454      18.56412543      -2.12847224       1.45943571      -0.17672985
O        2.46034380       6.35483520      11.87421798      -0.95821106       0.60667823       1.22627679
O        4.25653103       7.63564896       8.49779837      -0.96981668       1.29789650       0.02595691
O        8.26039733       5.39786282      13.14301240       0.01776438      -0.04614473       1.27407590
O        5.09046354       2.66378505       6.86947343       1.35650790       0.51040073       3.23917880
O        2.62695490       4.62643250      14.21854885      -0.02359878       0.98171048      -1.30922795
O        5.62280824       8.32809013      20.14583803       0.18787068      -0.62783019       0.26093977
O        0.37972595       2.43319275       6.70345562      -0.63922956      -0.24654982       2.34573102
O        7.51860453       0.10490525       6.43704265       0.54809994       0.10225075      -0.60903355
O        9.75570244       7.07042465      19.81429216       1.17172417       1.20218260       2.81144362
O        3.39661323       0.20106557      14.21648411       0.41439299       2.26321784      -5.43696583
80
Lattice="9.77192453 0.01751879 6.90363604 0.24348012 9.76890588 6.90363604 0.01370155 0.0133883 13.86910312" Properties=species:S:1:pos:R:3:forces:R:3 energy=-576.85838943 source_file=vasprun.xml step_index=350 time_fs=700.0 time_ps=0.7 file_index=0 pbc="T T T"
Na       0.92092488       2.90580381       2.84989070       0.39591667      -0.04635022       0.20501509
Na       7.42136423       7.99039327      19.16855860       0.57003255       0.06178678      -0.34761952
Na       7.22022773       6.94801366      11.53348841      -0.07924417       1.22496381       0.41676329
Na       2.85310236       2.61100484       9.59261892      -0.63444615       0.12940695      -0.26069045
Na       8.66162124       3.47034620      20.63293743      -0.61769270      -0.10738348      -0.11511854
Na       6.01586776       1.46514105      14.70118933       0.03699183       0.78443575      -0.24948381
Na       1.10410646       6.66549341       6.28626578       0.14449987      -0.36789148       0.01404222
Na       3.67504450       8.68533773      14.23240929      -0.21402812       0.09552852      -0.08480540
Al       7.12671254       5.08825806       9.01055439       0.91889177       2.89163644       0.29391195
Al       4.77766482       2.64978824      11.95103545      -2.09193519       0.06179133      -1.57642437
Al       3.05636697       4.67265687      18.44786163      -0.72342469      -1.01717966       2.29052816
Al       5.47877188       6.98275445      16.06794424      -0.09478160       0.79447625      -1.43910277
Al       0.42162089       2.13495929      11.60913521       1.22381953      -2.10571786      -2.59758167
Al       7.81811238       9.23685329      22.90148334       3.02132059      -0.24107037       0.32908534
Al       9.75907089       7.63175044      15.94820526      -4.85412453       0.43456531       2.41129588
Al       2.13931967       0.29561226       4.70158296      -0.62856968       1.65956806       0.31145584
Si       2.61910441       5.54543816      15.45282954       2.61357730       0.90293714       1.17624743
Si       4.56790581       7.37097151      18.95221923      -2.60741647      -1.37232046      -2.18639335
Si       7.50191702       4.10941739      12.03573840       1.65434767      -0.69929348       2.87491115
Si       5.71491987       2.36718414       8.64591501      -2.33103990      -0.04976340      -0.00550509
Si       0.68198151       7.29414204      11.99817914       3.64657433      -0.63142179       2.57071012
Si       2.68147004       9.32537317       8.64083031       0.56654445      -4.42953691      -3.94281557
Si       9.23773786       2.39969111      15.45088633      -0.02242695      -0.62652925      -1.07334935
Si       7.24535641       0.56855595      18.93713097      -0.58453573      -0.74373507       2.99564619
Si       0.56831265       2.88939258       5.72991036      -0.76232382       1.64186968      -1.39792770
Si       7.07303270       9.33571224      14.99121681       2.66773792      -1.38522948      -0.40673798
Si       9.52995235       6.73205840      21.94924868       0.99897488       1.54481471      -1.18718066
Si       3.07590252       0.39453145      12.56549618      -0.31165908      -0.19617854       2.65481474
Si       7.95533367       5.26072849      14.87054042       2.93090987      -0.78960421      -2.81051261
Si       4.50902541       2.08255034       6.03423372      -0.37505376       0.80497974      -3.21317638
Si       2.14516855       4.45472737      12.62224363       2.95523708       1.86123924       0.25016729
Si       5.52151070       7.79736459      21.78268269       0.36040753      -0.52302631       1.87765473
O        8.74496973       5.30839676      21.85514501      -1.65374688       0.02686672       0.98818249
O        4.43205498       1.22706115      13.15609264      -0.67808612       1.30992553      -2.97818500
O        1.28938922       4.29508532       5.26318541       1.32992135      -0.10621931       0.38389040
O        5.66846405       8.66837962      15.34967621      -0.58486752      -1.85824353      -0.50802428
O        0.85148404       3.49634573      12.52807417      -0.76204612       0.65487379       1.11939633
O        6.58397217       9.06600617      21.70255626      -0.24003042      -1.01257620      -0.22683670
O        9.33643619       6.14492219      15.11660046      -0.31578738      -0.10716423       0.01104661
O        3.47855937       0.86461982       5.73601565      -0.48570034      -1.13405480      -0.41932726
O        3.22279771       6.35098445      18.94890131       1.79934940       0.35844028       0.08044416
O        3.78838063       6.76320121      15.55990032      -0.31305166      -1.33866977      -0.38645050
O        6.49996632       3.71273209       8.34338446       0.69346266      -0.83983029      -0.86546108
O        6.08486665       3.51053424      12.51979120       1.67469207      -0.19290828       0.15602274
O        1.36177082       8.30339338       8.47112450       2.49081641       0.38813917       0.62920676
O        1.65292571       8.58523642      12.16281642       1.24605953       0.94942674      -0.96633342
O        8.66269103       1.42026755      19.01235417      -0.08067886       0.30991655      -0.52225625
O        8.39878185       0.94679167      15.27130875      -0.31964756       0.82417295       1.50578179
O        2.75674008       4.59764831      16.77204294      -0.25016547      -0.66839372      -0.83766953
O        5.65878456       7.40589292      17.74050953       0.06732580      -1.43656929       0.87340453
O        7.52848027       5.03235513      10.75739577      -0.44115064      -0.30231273      -3.35971075
O        4.95899286       2.32548763      10.04726024      -0.14650129       0.09144532       3.20231329
O        9.36355323       7.30307297      17.81337269      -0.59807206      -0.09145155      -3.39791320
O        2.40768710       0.53158475       2.93160558       0.31531065       0.82221682       1.75684381
O        0.50916821       2.54115708       9.80058753      -1.07768367      -0.38495852       1.12836665
O        7.11206934       9.42355975      24.52344060       0.88672787       0.64827562       0.41611880
O        9.08189010       7.80707260      23.11506535      -2.16838905       0.92452318      -1.39362993
O        2.00114912       1.14014718      11.60025747      -0.20023402       0.20531632       0.33755055
O        1.04077703       1.69718851       4.83072518       1.17539528      -1.79485428      -1.43749191
O        8.33216874       8.90589463      15.93784616       0.75120231      -1.53702438      -0.85540154
O        3.47277278       3.94873723      11.80995241      -0.50606781      -1.40205828      -0.33883890
O        6.08436636       6.54374892       8.80529078       0.88518758      -0.21719453       0.28506060
O        6.60054418       5.80535070      15.34192411      -2.71598307       1.63165258       1.86761287
O        4.26542948       3.57919453      19.23773427      -0.96325908      -0.08204633      -1.20531239
O        8.78062602       3.07058939      12.17398259      -2.28653639       0.26333585      -1.17345370
O        6.60681841       1.08050893       8.45543698       0.68894821       2.35025027      -0.18009104
O        1.26018711       6.39686957      15.55082475       0.14104511      -0.40156895      -0.55442408
O        3.85260537       8.78114213      18.76947611      -1.14201934       2.45779892       0.57944982
O        8.14853355       3.68289610      15.33909004       0.55046799      -0.89428054       0.33536546
O        5.98248829       1.54723727       5.51029338       0.82826822       0.12959036      -0.39942131
O        1.80706173       6.01620313      12.07720658      -0.79316966      -1.01373228       0.35337786
O        4.15416572       8.31227569      22.42674502      -2.50522443       1.57057512       0.66615302
O        7.90182577       5.26010363      13.14218471      -0.02533427       0.86120108       1.87590420
O        4.39506510       2.40260347       7.57560498       1.01879090      -0.43538365       2.93701066
O        2.86834669       4.49290758      14.21525475      -2.13867838       0.56226774      -1.33464791
O        5.39801805       7.21053840      20.28931491       0.93798622      -0.24344016       0.28522696
O        0.47713270       2.38165508       7.21654236       0.15498861       0.18365733       2.97027926
O        7.57385301       9.25213299      13.36540554      -0.54414699       0.36243530      -1.36412778
O        9.69093836       7.39401348      20.31673100      -2.29169940      -1.13714978       3.92839421
O        2.30122324       0.10696201      14.07559275       0.81618563       1.20439978      -1.71812428
80
Lattice="9.77192453 0.01751879 6.90363604 0.24348012 9.76890588 6.90363604 0.01370155 0.0133883 13.86910312" Properties=species:S:1:pos:R:3:forces:R:3 energy=-576.76018044 source_file=vasprun.xml step_index=335 time_fs=96670.0 time_ps=96.67 file_index=48 pbc="T T T"
Na       7.88511807       8.50614959      18.43486292       0.44481330      -0.71701977      -0.23520426
Na       6.25115758       1.33614329      13.72921557       0.61326377       0.62186929       0.75443120
Na       3.08456960       1.93367595       8.35400872      -0.06275242       0.70016627       0.17892298
Na       6.89094878       7.42739718      11.58605807       0.38806206      -0.16868963      -0.18934311
Na       9.16852828       3.66979888      20.84011137       0.29494730      -0.05980541      -0.72998030
Na       2.95567095       2.47001169      15.47206197       0.04357975       0.34944169       0.43178412
Na       2.35592399       6.52929604       6.91042260      -0.52476664       0.03108492       0.46401483
Na       3.47402946       8.61256249      13.94772218       0.62262010      -0.56250575       0.40138295
Al       7.68342445       5.34485579      22.82830832       1.40557542       0.54051650      -0.05588952
Al       5.10716608       3.04887964      11.51524815      -1.34200856      -0.00280386       0.06963966
Al       3.10292867       4.66274628      18.25990731       2.35036585       1.38937774       1.61181805
Al       5.94847996       7.06059561      15.87658310      -0.00497007      -2.04922596       0.33527916
Al       0.89387913       1.89105510      11.41644460      -0.92622317       1.33546525       0.58804733
Al       8.32518476       9.69760346      22.83226376      -1.80492055       0.32864038       0.89631533
Al       0.29336442       8.15121848       8.76426647      -0.15160661      -1.71175438       1.88392740
Al       2.52567134       0.65689157       4.80523608      -0.46307080      -2.59561745      -3.75150169
Si       3.04387219       5.71329303      15.17434309      -1.82245650      -0.89051154       1.35906416
Si       4.89348844       7.33156972      18.89670626      -2.33119677       0.37538654       5.25813703
Si       7.85893343       4.34067069      12.08373690      -1.38964159       0.22627032       2.37396345
Si       6.15967956       2.72739428       8.37949083      -0.84055050       0.06707543      -4.58476400
Si       1.26119895       7.48954778      11.74445824       0.76232293      -0.43641019       4.76928898
Si       3.33592826       9.22378767      22.47009834       1.84609737       0.41776501       0.61699587
Si       9.60665731       2.57139471      15.30083740      -0.07215470       1.97829325       2.36730862
Si       7.65925602       0.62608312      18.97462852       1.40069026      -0.23033305      -2.42621209
Si       0.68564895       2.95426758       5.40098939       5.36441743      -0.73210271       0.22735542
Si       7.35599094       9.41770288      14.66307696       0.82713911      -0.22894746       2.32649637
Si       0.22620776       7.17227423      14.72724337       0.42327092      -0.88645230      -0.75762645
Si       3.40563100       0.47992030      12.73607982       0.53619747      -0.46833435       0.46967039
Si       8.75958272       5.65902800      14.80774458      -2.89181205       0.68056123      -0.64020879
Si       4.85269353       2.24664775       5.55677872       2.24761633       0.76577888       0.30904542
Si       2.43926048       4.59551803      12.30993588       0.44696629      -0.43637672      -2.03187370
Si       6.12974992       7.88784757      21.68388091      -0.85822753      -3.05270145       0.38166523
O        9.25418557       5.69717938      22.01084623       0.53319659       1.92810712       0.06749751
O        4.60422593       1.50811825      12.43225742       0.86101879       2.10930021      -1.92268602
O        1.73658216       4.30402323       5.35008639      -3.19472615      -2.18866290       1.01116887
O        5.97529553       8.53399876      14.98684836       0.81072871       1.86947163      -0.66901685
O        1.32691438       3.41373661      12.28723672      -1.00742551       0.06682323       0.36090321
O        6.96283190       9.26235967      21.69091192       0.33211750       0.14139136       0.13087184
O        0.17500274       6.68926454       7.74481061       1.22931767       0.88221809       0.41594742
O        3.88694756       0.97892805       5.77502751      -0.99416790      -1.02042973       0.68165227
O        3.71496557       6.25733545      19.17192250      -0.18260543      -1.63654813      -1.77431226
O        4.48501806       6.24063045      15.02820634       3.93186036       2.46868277       0.96693059
O        7.19426294       3.94427228       8.04558670      -0.41217643      -1.36853880       0.42735459
O        6.34756967       3.74076586      12.65232418       1.48644981      -0.84899006      -2.30407638
O        1.85499117       8.67240738       8.32581645       0.30089930      -0.35832611      -0.73409094
O        2.29443026       8.72357444      12.10884737      -0.01561233      -0.08136230       0.45720723
O        9.07075825       1.42005446      18.93102801      -0.24680724       0.34484009       0.31088651
O        8.28602946       1.65087296      15.54146123       0.32920915      -0.11016866      -0.65631426
O        2.81249420       5.02281900      16.65362212      -0.36785824      -0.34376067      -2.64539046
O        5.80630318       7.30143169      17.69542326       2.37834754      -0.14952459      -5.34620480
O        7.87212092       5.07397637      10.67304557      -0.23398089      -0.16094650      -0.06163258
O        5.30999160       2.78999144       9.67723707      -0.48806581      -0.27585858       3.00751863
O        0.32439028       7.76339597      10.60814089      -2.80930058       1.53784755      -5.40041461
O        3.15047316       0.29194135       3.06444587       0.18380877       0.20386888       0.82067430
O        0.87100681       2.33710604       9.69911732       0.18726049      -0.87268633      -1.36500560
O        7.72180391       9.46588613      24.53570811       0.44733394       0.23707077      -1.53493595
O        9.52185106       8.63651727      22.28766829       1.77883036      -2.34530109      -0.20334255
O        1.95635689       0.74440262      12.12731081       0.44952624      -0.20345484      -0.07831924
O        1.24499585       1.73227085       4.39427365       0.05790461       1.52248926       1.44201583
O        8.62362469       9.06457843      15.76223311      -2.62726834       1.33221468      -1.88918781
O        3.69454249       4.07011788      11.39141307       0.00929744       0.38121357       0.67897931
O        6.73321204       6.73466217      22.77759040      -1.39088272       2.70738998      -1.05292507
O        7.54275713       6.31432044      15.68749579      -0.38132792      -0.35079601       0.25312558
O        4.32480051       3.38763751      18.39919455       0.10817928      -0.74336769      -0.41371651
O        8.96430673       2.97486934      11.96705797      -5.82061950       3.35030891      -0.91697581
O        6.84459721       1.27491733       8.01667863      -0.04740643      -0.11064348       0.30937574
O        1.92021366       6.87815961      14.97876023      -1.64311541       1.48434663      -0.14031179
O        4.14720652       8.82916198      19.01655131       0.41822616      -0.88245380       0.32828010
O        9.28831231       4.25719964      15.41013894      -0.08185864      -1.98804113      -0.63003237
O        6.40853603       1.57991060      19.17987552      -2.37673869       2.00931026      -0.16872530
O        1.89882761       6.00756872      11.52835176       1.21820124      -1.17622223       1.60390586
O        4.54279577       8.11783643      22.05944727      -1.32599262       0.09949829       1.30249165
O        8.00465632       5.66392436      13.24656792       1.33926474      -2.79417340      -1.04219382
O        4.83493270       2.92678740       7.03739923       2.03470696      -0.06312269       2.96532321
O        2.91255996       4.70940119      13.88877450      -0.78314004      -0.64982346       0.08278882
O        5.99008102       7.10033602      20.20007390       0.23787871       1.50958991       0.07400881
O        0.56168267       2.34695187       6.95318116       1.44054398      -0.32779213       0.58726413
O        7.81743748       9.16347149      13.09483706      -0.29001415      -0.25874734       1.86565714
O        9.86410281       7.39935751      19.96912746       1.04382845       0.00307829       0.20805847
O        3.53800798       0.58667546      14.44987065      -0.97477156       0.51577015      -2.08546705
80
Lattice="9.77192453 0.01751879 6.90363604 0.24348012 9.76890588 6.90363604 0.01370155 0.0133883 13.86910312" Properties=species:S:1:pos:R:3:forces:R:3 energy=-575.84246665 source_file=vasprun.xml step_index=955 time_fs=11910.0 time_ps=11.91 file_index=5 pbc="T T T"
Na       6.69128689       4.73197036      17.61562009      -0.22995878       0.31079290       0.00751186
Na       7.15102925       1.38908654      13.32990468       0.04707058      -0.33948974       0.18778875
Na       2.82255671       2.31910787       8.56019995       0.49140520      -0.00452048       0.36094919
Na       8.78738736       7.80894167      12.52527025       0.44336567      -1.56017808      -0.65462794
Na       8.71961039       3.74858436      20.65578764       0.38949708      -0.10095627       0.12316359
Na       3.94250253       2.94272530      15.96974527      -0.27941516      -0.47133857       0.14030940
Na       3.11708090       6.59149410       7.93447170       0.37129664      -0.99338814      -0.48589849
Na       4.54829200       7.88224549      12.74925959      -0.33937402       0.27532232       0.15220112
Al       7.37636617       5.65481667      22.75616114      -1.47215589      -2.43699389       2.03379359
Al       5.04304686       2.76579977      11.55588860      -1.21450827      -0.12458209      -2.81519880
Al       3.45166790       4.94118463      18.36264471      -1.16464069      -2.57152705       3.10864538
Al       5.74065417       7.15418087      15.59548444      -2.23952271      -0.35914668       3.54024036
Al       0.81199304       2.45883345      11.38631698       1.40987400      -0.59130257       0.22983049
Al       8.32286857       9.56615649      22.97689471      -0.12711192       1.30074114      -0.42220685
Al       0.25048750       7.81857615       9.01072899      -0.60235318      -0.14136025       0.25697205
Al       2.19924204       0.49029494       4.31312564       0.49409703       1.01915506       1.68346886
Si       2.88299322       5.72127278      15.20016753       6.65081536       1.04494861       1.96658569
Si       4.84647663       7.44914749      18.95394589      -0.81534945       0.09808577      -1.72412589
Si       7.74144480       4.41639663      12.02441398       0.37884750       0.63388626      -1.39809393
Si       5.98409944       2.70395910       8.32121511      -3.76367218      -0.64845983       0.35677285
Si       1.41272721       7.36948589      11.90286800      -0.40105982      -0.88676329       3.79233715
Si       3.04586103       9.40206835      22.08689170      -2.92104466       1.14911341       0.24546489
Si       9.55493916       2.78091402      15.42941364      -0.87889305      -1.34554173      -0.39789384
Si       7.89613506       0.78849260      19.04226195      -2.39300055       3.48990920      -0.23841257
Si       0.85684983       3.01757397       5.64864054      -0.01631135      -0.38388415       0.50801651
Si       7.62168698       9.58585610      15.06093672      -0.95632168       1.91146016      -0.72574629
Si       0.21185785       7.03977559      14.80606112      -1.55687689       0.28180288       2.29767165
Si       3.26187650       0.36612662      12.23902330      -0.21009724       1.83063630       0.75556728
Si       8.19584030       5.48994725      14.60926658      -1.23454797       1.69542742       0.36498285
Si       4.82929645       2.13793727       5.42357234       1.15999229      -0.34052323      -1.58575762
Si       2.58438582       4.58154981      12.48999934      -3.50364923      -0.45741080       0.24344038
Si       5.90844018       8.18569332      21.70247416       0.08832094       3.89566238      -2.69880112
O        8.85725992       5.85729895      22.02841165       2.87205505       0.93719306      -1.77611399
O        4.74336090       1.04790377      11.95005779       0.03506825       0.28019198       1.11899584
O        1.80587587       4.28371112       5.45378263       2.52634609       1.02903314      -1.42822954
O        6.24828909       8.63217636      15.05505857       2.07515071       3.36548125      -1.37849773
O        1.07709368       3.84705194      12.43089485       1.32019218       0.38889721       0.50843164
O        6.84972529       9.48819334      22.00915954       0.21928403      -0.88184081      -0.54308182
O        9.41060448       6.48365060      14.84993496       1.46890510       1.49720053       0.38288149
O        3.86028273       0.93029861       4.86792022       0.56786365       0.88331252       1.13940770
O        4.29592948       5.99963287      19.44119167      -1.25845826       0.56345776       0.20479948
O        4.21684800       6.75196082      14.82910638      -0.57550934      -0.48693025      -0.11751673
O        6.95661928       3.90772289       8.32839535       1.05746003       4.20099931      -0.99371700
O        6.49590411       3.38864713      12.28677306       0.03803479      -0.28274071       0.25710371
O        1.73366271       8.25799747       8.03535323       0.97180640       0.96886346       1.03617353
O        2.19106935       8.72847283      12.01096623       1.47274218       0.85387271       0.38845427
O        9.07257469       1.94934778      18.99890657      -0.64571127      -1.27134481      -0.02242397
O        8.45163732       1.51001055      15.69295116       2.18291782       1.26827608      -0.87343209
O        3.37764830       5.11579562      16.69411974      -1.08304965      -0.25421095      -2.53679790
O        5.70201844       7.30521874      17.59897402      -0.68072687      -0.36169820      -2.10603909
O        7.74752893       5.23416823      10.62708804      -0.50235786       0.02453602      -0.66680239
O        5.14395770       2.61615080       9.71726782      -0.56727771       0.26093719      -0.15025851
O        0.50549498       7.29967394      10.70902593      -2.70351558       0.03985048      -5.62002729
O        2.54793230       0.50448776       2.66860838      -0.07860572      -0.22725606      -2.47575087
O        0.72356684       3.18494916       9.77124634      -0.28810877      -0.78690063       0.28865314
O        7.89965910       9.64653470      24.65559773       0.71057006      -1.09923480       0.73596980
O        9.45524086       8.31433163      22.68292829       0.86812404      -0.93176157      -1.42495557
O        2.23778193       1.24938531      11.32577207      -1.56319993       0.17872922       0.00613361
O        0.97911270       1.68130334       4.75026551       0.77592436      -0.08676425       0.13079592
O        8.75607376       9.13560982      16.13611579       0.09481626      -0.37422889      -1.55694333
O        3.66269209       3.92214837      11.62385500       2.90564462      -2.02947499      -0.98137536
O        6.12328897       6.85422193      22.38531107       1.66311677      -4.46635914       2.69862365
O        6.94138464       6.00676921      15.49519580       0.83349752      -2.15582057       0.68334995
O        4.66391487       3.60453537      18.54117366      -0.31163447      -0.46022181      -1.95638094
O        9.10191548       3.52968295      12.35943184      -2.07727498       0.73909453      -0.41446226
O        7.03816678       1.53980454       8.25085407       1.72649776      -5.26709512      -0.47624441
O        1.74701774       6.71616956      15.40906886      -4.23554510       1.40313814      -0.15468792
O        3.48401090       8.50252926      18.99732427       1.08462335      -0.41622319      -0.45480968
O        8.50256423       3.97757030      15.00973124       0.08242825      -0.83070569       0.35127831
O        6.46801391       1.78258721      19.13638999       0.96713829      -0.93093603      -0.21886689
O        2.38690486       6.07108609      11.91531701       1.13458204       1.13552571       0.26971929
O        4.46698565       8.68117334      22.27296458      -1.02515158      -0.81377446      -0.19238647
O        7.62077580       5.73693013      13.05880779       0.81225155      -1.10124659       0.47588361
O        4.71790419       2.63367920       6.93549749       1.02929203      -0.12060664       4.95018718
O        3.04498324       4.60568760      14.06324220      -0.59765372      -1.05614734       0.69606442
O        5.87581516       7.87636662      20.06743131       1.30346507       1.61735507       2.45567783
O        0.94662211       2.59047258       7.31708300      -0.97125572      -0.13932009      -0.38120675
O        8.20955559       9.57961078      13.38907011      -0.33874725       0.04923025       2.02689368
O        0.35702707       7.15190000      13.21657377       0.55001029       0.55023975      -0.47314310
O        2.80596279       0.66449782      13.88951759       0.58362587      -0.55352134      -0.64809397
80
Lattice="9.77192453 0.01751879 6.90363604 0.24348012 9.76890588 6.90363604 0.01370155 0.0133883 13.86910312" Properties=species:S:1:pos:R:3:forces:R:3 energy=-575.4284618 source_file=vasprun.xml step_index=315 time_fs=8630.0 time_ps=8.63 file_index=4 pbc="T T T"
Na       7.81435826       5.29960071      17.85890623       0.02616338       0.17854687      -0.59844189
Na       6.96303760       1.41810235      13.69198912      -0.00415926       0.44744764      -0.48582129
Na       3.16026511       3.57163867       8.40033915      -0.78711764      -0.14704600      -0.07513779
Na       7.10683074       7.28892386      12.13046671       0.06169882       0.34083359      -0.27350900
Na       8.86105645       4.17983036      20.63027626       0.66359673      -0.44778111       0.13937684
Na       2.43019023       2.50145692      15.75612992       0.22299352       0.28649177      -0.13386921
Na       1.71534497       6.48535333       6.50622971       0.16867855      -0.02852623      -0.35281852
Na       3.79910294       8.82222565      13.69150870       0.26586803      -0.62791269       0.61126684
Al       7.59634859       5.73161881      22.98959693       2.90278919      -4.41547545       0.85256723
Al       4.79450930       2.74523723      11.16762996       2.45568933       0.15973462       0.40485169
Al       3.30808506       4.70027477      18.30549058       1.08655102      -1.19320344       0.57931793
Al       5.97107685       7.22948385      16.04415766      -1.73952916      -1.02082567      -0.50491111
Al       0.83754788       2.13798675      11.66104099       1.55566885       0.00692383      -0.89122160
Al       8.48246717       9.66077886      22.61129175       0.39446054       1.26261589       1.10402469
Al       0.36183194       8.05895182       8.71272553      -2.28658274      -3.24940500       2.33212310
Al       2.33195768       0.44027462       4.56343207       0.61645239       0.15691118      -0.98540364
Si       3.21254125       5.74101424      15.15720282       1.50458168       3.84811306       3.22726851
Si       4.73640603       7.31701202      19.09140036       2.13047892      -1.88164871       1.20548211
Si       7.68344227       4.25739822      12.08359793       1.88464504      -2.54059592      -2.38583887
Si       6.11630184       2.77777402       8.29760432      -0.16536850      -0.12749383       1.83104641
Si       1.22947211       7.35545279      11.70970167       1.47100583      -1.74283478       4.33646870
Si       3.19327981       9.20181324      22.23644154      -1.88966100       1.66111733       1.42141914
Si       9.72584748       2.74416173      15.44783258      -1.05800836      -0.79321217       1.31273504
Si       7.87527878       0.99239170      18.87472556       1.04661739      -2.09219456      -2.06082589
Si       0.97232461       3.08954188       5.67818654      -2.34000487      -0.35598471       3.11179067
Si       7.64579254       9.62397266      14.75213739      -1.66686123      -1.41669165      -1.78991479
Si       0.32146239       7.02552709      14.67281827       2.35167356       3.08664046      -2.39507177
Si       3.36378476       0.36540119      12.45602316      -2.12676224      -1.86073058      -1.78148057
Si       8.28676958       5.55305586      14.68885824      -1.11800532      -3.61331460       4.66491803
Si       4.90516013       2.18345647       5.47306238       1.90480433      -2.73683818       0.46457840
Si       2.60791712       4.61390151      12.59439495      -1.83890602       1.42618427      -4.88055730
Si       5.93373434       8.03956024      21.96329925       1.87107679       3.76500631       1.90753772
O        9.23214521       6.04088676      22.33949513      -2.41685281      -4.76377413       1.02521426
O        4.61113094       1.10125206      11.75326157      -0.31993173       0.24826706       0.62197603
O        1.81580260       4.34651720       5.29640234       1.33347660       1.36622111      -0.33988947
O        6.33218649       8.51230618      14.96712941       2.55352565       2.99474676      -0.31252334
O        1.16590866       3.85012871      12.55892857      -0.23996318      -2.22309115      -0.54161181
O        6.77358479       9.57164896      22.05358057       0.21991178      -2.13643052      -0.97193767
O        9.58466579       6.42796689      14.69664912       1.10367465       2.18654891      -0.42089251
O        3.91831844       0.84098303       5.37989785       0.05580847       0.61257467       0.28353937
O        3.78145842       6.03943366      19.27195684       0.44495091      -0.46248535       0.40416001
O        4.61410461       6.67542729      14.94366363      -2.00607092      -1.08480470       0.99302074
O        7.18915728       4.04466420       8.31624766      -1.02522270       0.27038851       0.11791578
O        6.51422250       3.19445353      11.72389444      -0.58077050      -0.68148458       1.21882308
O        1.92046462       8.04397505       8.25359823       4.92551415       1.78289708      -2.46900913
O        2.25525229       8.56841658      12.01116514      -0.32064322       1.89323151       0.17228517
O        9.15278108       1.86079482      19.42054155      -1.54701810       0.62957161       0.00398466
O        9.00428006       1.38048976      15.09937409      -2.13637444      -1.52854496      -0.75155194
O        3.19736580       4.95050336      16.64611227      -0.70280821       0.92189373      -2.95424505
O        5.68814028       7.26590351      17.81630779       0.86857791      -0.11094069      -1.30573222
O        7.74488977       5.22142899      10.80926703       0.32161854       1.37612603      -0.23997115
O        4.83078185       2.74113393       9.43422868       2.54474352       0.06984817      -1.06576142
O        0.56271741       7.27324091      10.34294569      -2.43845289       0.69299898      -3.10634077
O        2.40573632       0.40345440       2.73978401       0.40746799      -0.28188532      -0.50533290
O        0.83688187       2.54824592       9.89143673       0.11435589       0.55890340       1.71458152
O        8.31923149       0.18725137      17.43794624      -1.21036263       1.04073746       2.57027668
O        9.48048052       8.38747268      22.12617510       0.61110580       1.08558410      -0.11970307
O        1.82499930       0.54041237      11.92617962       0.03496917       2.87512149      -0.61772023
O        1.25033750       1.74913819       4.96165732       1.17050098      -2.28079728      -1.40063654
O        8.96775965       9.28985796      15.63736118      -1.04323106       0.57785835      -0.80873984
O        3.72484749       3.99157222      11.58923853      -0.78192128       0.00786229       0.93091754
O        6.68961041       7.06907553      23.03033203      -2.35773208       2.12589676      -0.88371369
O        7.10442244       5.96984401      15.75065349       1.53853957       0.11281987       0.53061469
O        4.48810520       3.32330386      18.37529152      -1.81428404       2.58728893      -1.07851438
O        9.20528616       3.45847251      12.34683786      -3.92084709       1.36561775      -0.61301493
O        6.92628237       1.36981192       8.06106954       0.27405942       0.81818138       1.35258689
O        1.99781737       6.88621934      14.86525534      -0.34958005      -0.91351223       0.66508525
O        3.72715724       8.45825370      19.22271843      -1.93587140       3.95166577      -0.15359529
O        8.56601000       3.91948732      15.42103697       0.49307378       2.24935999      -0.50816972
O        6.47635431       1.80575929      18.83052066      -0.50461066       0.46765514      -0.07508138
O        2.31117239       6.13013010      11.90821727       0.89025484      -1.84680906       0.85152687
O        4.59579417       8.58668030      22.72278835      -1.06653941      -1.10948133      -0.36675129
O        7.48950139       5.20279906      13.36987174      -0.89696575       0.84165692      -1.14577356
O        5.17172713       2.72486110       7.02103358      -2.11365750       0.66250838      -2.42971800
O        3.03387701       4.58673853      14.11026657       0.86419546      -1.78932396       0.72592691
O        5.67386691       7.48910252      20.50214035       0.21751159      -1.04672765      -1.32683536
O        1.02787068       2.85850470       7.38723901       2.93439469       1.57168983      -2.94810950
O        7.87001649       9.54754703      13.02133175      -0.12429211      -1.24262325       2.25187081
O        9.87852318       7.05094852      19.89198900       0.34623294      -0.00541681      -0.42149416
O        3.21715066       0.56423368      14.04579087       0.04344620      -0.73144374       3.53444114
80
Lattice="9.77192453 0.01751879 6.90363604 0.24348012 9.76890588 6.90363604 0.01370155 0.0133883 13.86910312" Properties=species:S:1:pos:R:3:forces:R:3 energy=-576.6646076 source_file=vasprun.xml step_index=390 time_fs=10780.0 time_ps=10.78 file_index=5 pbc="T T T"
Na       6.06507104       4.51569026      17.50384999       0.40542508      -0.20098655      -0.11167709
Na       6.88956237       1.34875528      13.24991216       0.09631419      -0.16898836       0.07866254
Na       2.69652595       2.93816692       8.48068720       1.46405696       0.03319515      -0.02858516
Na       7.31599790       7.61230493      11.19909815      -0.04031245       0.37522795       0.29333391
Na       9.12950958       4.44655809      20.31444602      -0.49162394      -0.03847174       0.19007845
Na       2.13766447       2.09789830      15.49502727       0.01646102       0.52291226       0.05382647
Na       1.61950028       6.72410777       6.35487399       0.51940898      -0.20687175      -0.12902061
Na       4.02915732       8.86637612      14.30413278      -0.28066672      -0.00743976      -0.49480908
Al       7.97784253       5.45388793      23.21370111      -0.31827970       0.10769337      -4.95054346
Al       5.09502986       2.88458763      11.41507778      -2.50226245      -1.66056314      -0.02666872
Al       3.18068616       4.66819335      18.22936973       0.63529758      -0.47045472       2.56401884
Al       6.00001056       7.24213790      16.11608463       0.55869130       0.20087720      -0.51299606
Al       0.85512930       2.46054082      11.41738886      -0.58673209      -3.01796532       0.37467341
Al       8.45055083       9.68139783      22.56659731      -0.79100210      -0.33812021       1.17741091
Al       0.46763214       7.82381354       8.74227246      -0.36859447       4.13280311       3.06330876
Al       2.39497213       0.48316536       4.61533799       1.53261365       0.17686243       2.64022603
Si       3.05369967       5.81971012      15.35669667       0.13793824      -0.43044128      -1.06852020
Si       4.80516055       7.31282960      19.11490120      -0.21739232      -1.38868304       0.86554322
Si       7.81531114       4.32997398      12.16943309       2.04962069      -0.62096344       2.76424864
Si       6.15285734       2.68654123       8.37292382      -0.64860570       2.30162182       0.97354377
Si       1.27766293       7.52377348      11.84708517       3.39284236       1.04589508      -0.01511557
Si       3.37699720       9.20391064      22.44048373      -1.71953075      -2.79854304      -2.18875664
Si       9.72006001       2.60710393      15.45074411      -0.54503261       0.73536305      -2.70024924
Si       7.62326780       1.05460495      18.63774639       1.01855047       1.85755442      -2.44162976
Si       0.88438849       3.02912698       5.50532858      -1.94475854       0.71674758       3.46311260
Si       7.72364823       9.60690234      14.52749774      -0.81448928       0.40807060       0.96684704
Si       0.51173842       7.13597772      14.81651391      -1.56531407       0.94340738       1.62481801
Si       3.18945491       0.35500212      12.48748262       0.69964547      -0.90882243       1.61179745
Si       8.38871171       5.47839969      14.99829694       2.29007199      -1.09515149      -1.99549636
Si       4.88418162       2.32893238       5.65111362      -2.26064111      -1.48211800       0.53957266
Si       2.57879260       4.76913920      12.33505116      -0.39518190       3.26605155       2.28909938
Si       6.20544696       7.91586859      21.81604221       0.42827475       0.42226189      -1.25295660
O        9.61693731       5.66201302      22.23200339      -0.71051716       1.34933104      -0.02934516
O        4.54438100       1.22136017      12.26579775       0.94988225       1.16133658      -1.49050794
O        1.79680975       4.36059356       5.50991445       0.09616805       0.83854654      -1.83836865
O        6.59087915       8.54251963      14.96780782      -1.72693033      -1.32392314       0.49805598
O        1.17316069       3.95660880      12.24070486      -0.82117736       0.14858832      -0.17698212
O        7.14047654       9.29283348      21.43584858      -1.03714746      -1.91366952       0.55028988
O        9.65706565       6.51362283      14.93477060      -1.26229362      -3.87557731      -2.23299004
O        3.71800583       1.06753799       5.76868561       2.14866820       0.92740618      -0.38925889
O        4.08406391       5.85612157      19.21894489      -1.17253177      -0.45034717      -1.76723292
O        4.40726411       6.58385906      15.62321135       2.84251219       0.94786541      -0.03960465
O        7.16398462       4.02982460       8.49851752       0.15877645      -0.67900319       0.05129793
O        6.54072925       3.41422246      12.17023069      -1.62719112      -0.69931217      -0.11860614
O        2.07577059       8.08390535       8.20415394       2.09409928       0.92386683      -0.05920378
O        2.42866080       8.77004884      12.36267663      -2.59909857      -1.80230337      -0.93555459
O        8.85961740       2.19705202      18.54573104      -0.04604710      -1.00507868       0.57018519
O        8.59388063       1.52187550      15.18014628      -0.48820145      -0.85056158      -0.48682980
O        2.89785079       4.71938486      16.54881766      -1.05064507       0.38936873      -0.45411766
O        5.64184411       7.61589604      17.81827104       1.81804082      -0.20230454      -2.08698903
O        8.17157294       5.29163712      10.97473391       0.04501312       1.24705997       0.52085367
O        5.22396646       2.54534472       9.70774347       0.06152566       0.30010579       0.46954489
O        0.29636419       7.64879882      10.54091061       1.45577940       0.03290328       0.72634635
O        2.55801916       0.15601225       2.97333945       1.09346590       0.81523949      -1.73310696
O        0.96878735       2.12109310       9.69454380       0.69378392       1.45581202       0.22905997
O        7.70936398       9.75377960      24.26296611       0.57790437       1.31417138       0.26769801
O        9.61192603       8.40127917      22.65855221       1.26714958      -1.74445593      -1.53906365
O        1.78386294       0.96166293      12.00164272      -0.10200528       0.84731012      -0.22344712
O        1.27456345       1.75710978       4.73453889       0.32941954      -0.92848779      -2.00929761
O        9.09838663       9.21944967      15.19477551       1.64766676      -0.38933925       0.20937923
O        3.63224255       3.84638079      11.72245161       3.09249080      -1.81492048      -1.87211048
O        6.96713412       6.95517178      22.89890721       0.43176842      -0.75381305       0.04025327
O        7.27124487       5.95893439      15.90395443      -4.26191354       2.02649816       3.70515450
O        4.30639486       3.29346096      18.36400870      -0.58041504       1.11558319      -0.45028482
O        9.00585711       3.11281523      12.17615879      -0.36963133       1.97252203       0.20803899
O        6.82626330       1.29196770       8.04125145       1.09720535      -0.08239260       0.25266482
O        2.14727177       7.15409930      15.00330458      -1.05753157      -0.25749817       1.12349671
O        3.57342595       8.37621033      19.08416718      -0.99730551       3.29874609       0.95092336
O        8.76192884       3.97916209      15.59173561       1.45386507      -0.08552961      -0.06138354
O        6.40513633       2.15406926      18.88765190      -0.36408834      -0.51105180       0.09071062
O        2.60656268       6.33793832      11.69628037      -2.54757640      -0.97148615       0.48978874
O        4.80464844       8.40993839      22.50731501      -0.58990297       0.39896421       0.69362298
O        7.65519586       5.38230503      13.50969523       1.13264940      -1.33503108      -1.53302504
O        4.94489237       2.95483754       7.23032770       0.57634438      -0.31533191      -1.37582723
O        2.91308339       4.91615293      14.00436252      -0.27323391      -0.65526510      -1.11673991
O        5.76796240       7.04612216      20.43504440       0.89781708       1.93121118       1.29303240
O        0.98307976       2.71637494       7.17216454      -1.09646607      -0.01298232       1.35792905
O        7.53535618       0.07980152       6.01112715       0.56242590      -2.27993421       1.04188339
O        0.35098508       7.35380105      13.18364966      -0.94316259      -0.94146047       0.39513612
O        3.20317060       0.43642330      14.21234193      -0.55536613       0.02123695       0.67384127
80
Lattice="9.77192453 0.01751879 6.90363604 0.24348012 9.76890588 6.90363604 0.01370155 0.0133883 13.86910312" Properties=species:S:1:pos:R:3:forces:R:3 energy=-576.19521015 source_file=vasprun.xml step_index=420 time_fs=60840.0 time_ps=60.84 file_index=30 pbc="T T T"
Na       8.05782980       3.81525434      19.89254595      -0.13847211       0.04056423       0.16507092
Na       8.54233067       0.29635638      10.77441282      -0.15526921       0.22411085       0.02115203
Na       1.31041723       6.94899554       6.00178889      -0.49987959      -0.34276410       0.06187680
Na       4.18299354       7.58952098      13.25959859      -0.08040980       0.03491838       0.16118445
Na       0.14363635       3.70547788       2.79349504       0.01863088       0.21767899      -0.13425832
Na       5.41114060       1.67756563      14.51206730       0.09624555      -0.31148842       0.02278840
Na       2.55584058       1.31088858       7.78874044      -0.36277309       0.19939398       0.27422598
Na       3.75307100       5.66088411       9.54787458       0.05145841      -0.75291222       0.49766420
Al       7.35234055       5.13126147       8.79078269      -1.72130816       1.59184196       2.66416716
Al       4.61444414       2.90849364      11.42209203      -1.71594620       1.38098565      -0.67360287
Al       2.67612024       4.43475560      18.27481220       2.04237878       1.76981978       0.10093798
Al       5.59966918       6.87795589      16.05318455      -0.77355571      -1.48852479      -2.43098454
Al       0.22209797       2.01879350      11.39418103       1.92783544       1.01401737       3.36922997
Al       7.82982082       9.38750371      22.58817206      -0.57929586      -1.29062803      -0.18629741
Al       9.63005579       7.87293052      15.81745601      -0.32086890      -0.53605240      -2.50570322
Al       2.01695535       0.23788271       4.51285867      -1.02432731      -1.16331011       0.42001508
Si       2.57304113       5.54222056      15.34085728       1.74275745       3.25162110      -0.99876601
Si       4.27462366       7.37849291      18.84525152      -0.44865260      -1.00072115       0.80521942
Si       7.46866198       4.42402748      11.91691600      -0.48936594      -0.98227172       0.43047942
Si       5.52238656       2.38863100       8.25919911       1.70318580       2.32148770      -1.00427767
Si       0.83431628       7.18820093      11.80929583      -0.59035485       6.29711322       1.99478941
Si       2.61736892       8.92949948       8.36526600       1.43303103       0.24791018       1.08649325
Si       9.03681227       2.34537931      15.39098076      -0.23687517       0.59903612      -3.51852864
Si       7.12919299       0.51715352      18.60833061      -1.28938701      -0.82018069       1.00552532
Si       0.18320695       2.78945898       5.48285684       1.40952384      -0.79290401      -0.18583859
Si       6.96292669       9.29124932      14.58821758      -0.91275624      -2.82791266      -0.90513946
Si       9.80306446       6.99665918      21.80895211      -2.45320501       1.99419127      -3.23325510
Si       2.97739254       0.52444652      12.64506289      -0.71426214       2.05800818      -0.19143856
Si       8.13185531       5.34388103      14.82063835      -0.27211678       1.02030837       0.20788841
Si       4.28050392       1.87192913       5.38166315       3.24447111       2.86159282       0.88988143
Si       1.83588783       4.46766737      12.40667637      -0.90632482      -1.46703812       0.43542395
Si       5.33462618       7.70254293      21.81776787       1.94574133      -0.37022070       1.40898796
O        8.79730681       5.65986952      21.91381367       1.50998036       0.66569241       0.08070745
O        4.30373295       1.46942569      12.44073851       1.19027883       0.85567976      -0.71941741
O        1.25640798       4.07209998       5.25586774      -3.40149152      -0.99090737       1.43855388
O        5.91522206       8.03145052      14.76582262      -0.05904334       1.39755453       0.66329083
O        0.43120515       3.52573046      12.54494197       1.02562308       1.11939862      -1.22990010
O        6.18113837       9.14736366      21.72936538       0.34708022      -1.40128345       0.91038498
O        9.41962535       6.30421450      14.97377735       0.19289852       0.95184065       0.77919429
O        3.26629117       0.72523460       5.66465699      -1.70873401      -1.85228406      -0.15902622
O        3.17941850       6.12880551      18.86788424       0.26242342      -0.07289379      -0.30848562
O        3.98401670       6.32726179      15.41201195       0.77883793      -0.28992133      -0.17969551
O        6.72521493       3.66097315       8.08215144      -0.53142761      -1.89024858       0.19696416
O        5.93969263       3.98687024      11.99117772      -1.99064782      -1.52939056      -0.53895382
O        1.27471166       8.31228392       7.77423298      -0.98921229      -0.87523699       0.92775401
O        2.10897859       8.25992013      12.11502754      -0.55802196       1.16470737      -0.91256857
O        8.48687339       1.45296323      18.82453140      -2.44199061      -0.97614114       0.20639854
O        7.87727520       1.23491406      15.19259597      -0.06296349       1.77908990       0.11074957
O        2.28409662       4.73020037      16.62543113      -1.05165554      -2.60442484       1.02222360
O        5.28748058       7.39183710      17.62282396       0.54601104       0.24601841       0.92066843
O        7.95875007       5.11744619      10.61855847      -0.11746156       1.32842819      -4.14336661
O        4.53522498       2.81469101       9.44063367       0.09949591      -0.49651063       2.98621867
O        9.63817069       7.94678404      17.57308790       0.63406487      -0.79157594      -0.15253475
O        2.32407766       9.71960682       9.72532978       0.38923520       0.04792293       0.16021171
O        0.18055304       2.21918936       9.75167188       1.25075308      -0.27396514      -1.12511094
O        7.28707967       9.26868851      24.25336210       0.98261297       0.78907621       0.35918960
O        9.38570676       8.58561408      22.16686560      -1.40190144      -1.81433895       0.62639833
O        1.73781601       1.48575355      12.08839923       1.11236421      -3.13489124      -0.03761759
O        0.82840092       1.66388834       4.41909568      -0.62709389      -0.89763712       0.56424919
O        8.32805464       8.97760585      15.31299896       2.04437926      -0.12490833       1.67401690
O        3.09098939       3.95325606      11.55719109       1.51715469      -0.87628489      -0.80151740
O        6.08753454       6.43620329       8.83284989      -0.54764691       0.71703654      -1.36875584
O        6.83235164       5.65713638      15.67530216      -0.93333421       0.92093245       1.01696815
O        3.80366189       3.14799350      18.43064872      -0.30403529       0.28603764      -0.63742852
O        8.38180627       3.03552703      11.78669444       2.21104029      -1.53685114       1.26849319
O        6.19332852       0.90104466       8.27317341      -0.67065202       2.21478644       1.33338936
O        1.49545434       6.80615552      15.43559018       0.99413799      -0.62285634       0.63337898
O        3.52722127       8.83368957      18.93255497      -1.26287896      -0.15767139      -0.77207064
O        8.52512614       3.88736255      15.27302681       0.89897300      -3.38662960       0.80839052
O        5.70590134       1.43132191      18.61020674       1.41154404      -0.14701231      -0.54665601
O        1.47133928       5.84235282      11.58351811       1.80088440      -4.27334344      -2.20176356
O        3.83143078       7.67375696       8.73937670      -1.16102914       2.32104572      -1.05342945
O        7.86096195       5.19300178      13.23974902       0.12594206       0.98666210      -0.23509676
O        4.59796454       2.49063841       6.93305749      -0.57540099      -0.49256552      -0.71518117
O        2.46828652       4.85055910      13.88469028      -0.78734084      -0.58859708      -0.20848117
O        5.03537219       7.32529021      20.29699080       0.20402462      -0.85826414      -0.95401967
O        0.26384043       2.05134397       6.98272481      -0.66987235       1.21829223       1.09855106
O        7.02317363       9.30387838      12.98616693       1.18135407       1.13099749      -1.78663274
O        9.85789216       7.04992122      20.11132463      -1.27037594       0.01685041       1.29183715
O        2.90448093       0.32665298      14.29121213       0.51197400      -0.16211869      -0.35121523
80
Lattice="9.77192453 0.01751879 6.90363604 0.24348012 9.76890588 6.90363604 0.01370155 0.0133883 13.86910312" Properties=species:S:1:pos:R:3:forces:R:3 energy=-576.26376649 source_file=vasprun.xml step_index=385 time_fs=10770.0 time_ps=10.77 file_index=5 pbc="T T T"
Na       6.00179816       4.51594620      17.48747022       0.75373098      -0.04531049      -0.41270666
Na       6.84770691       1.32453752      13.21215884       0.20344145      -0.23120588       0.31578460
Na       2.71159661       2.98336485       8.52200446       1.49282577       0.17448388      -0.24841810
Na       7.32511935       7.57323445      11.15464304       0.01073149       0.46784507       0.65543999
Na       9.16393824       4.43732368      20.38311954      -0.52800018      -0.10887387      -0.17265106
Na       2.07989113       2.20193762      15.52908837       0.23775165       0.17836264       0.24856386
Na       1.65699269       6.80478009       6.40521639       0.53380316      -0.36353855      -0.42229030
Na       4.07940529       8.80329293      14.28009932      -0.19658611       0.09253151      -0.46870669
Al       7.96502528       5.45840341      23.18350285      -1.01214804      -0.33191436      -1.77084946
Al       5.06988044       2.85318557      11.40548074      -0.95290638      -1.14194778       1.90102716
Al       3.16868738       4.70341437      18.25180742       0.16529064      -1.65153405       0.04876326
Al       5.92702466       7.27029411      16.12340588       2.48269803       0.16726254      -1.54353829
Al       0.85901890       2.39172325      11.44679794      -0.32374897      -1.45779337      -1.47414839
Al       8.51641517       9.64299240      22.65402018      -1.36653890       1.74057907      -0.25056501
Al       0.46924912       7.86558603       8.72209514      -0.23284574       2.17265667       2.80399836
Al       2.40175534       0.47009178       4.64989329       0.85250551       0.05611237       1.08871319
Si       3.11739979       5.81628858      15.30324367      -2.76117342      -0.79785419       0.89245199
Si       4.81288999       7.24478583      19.07628041       0.36658917       0.71570595       0.22382674
Si       7.83756992       4.31751846      12.27760013      -1.25471401       3.40842553      -1.67176593
Si       6.13434187       2.67923577       8.40663724      -1.67209084       1.51740096       0.91939453
Si       1.30199379       7.54617189      11.85906560      -0.99532727      -3.11577420       0.06873270
Si       3.40472306       9.18327054      22.41190352      -1.01437049      -2.52039137      -0.52123267
Si       9.71512713       2.60811393      15.41596518      -0.62079076      -0.96479548      -2.00961024
Si       7.69650230       1.10974016      18.58231965      -0.89850311      -0.39636685       1.26887341
Si       0.83976450       3.10560161       5.56150172      -0.48260461      -1.45153339      -0.19693172
Si       7.74057899       9.60978219      14.46269532      -2.20896244      -0.82030298       3.17487521
Si       0.46337742       7.03689009      14.87526366      -2.11342300       4.60874296      -0.51944402
Si       3.20732650       0.31247924      12.48238215       1.84138515       0.21253072       1.91365500
Si       8.48667388       5.48855768      14.97665558      -8.14293366      -2.45848764       0.83069672
Si       4.82834895       2.36543435       5.62099707      -0.02432048      -0.29175001       0.08785186
Si       2.59975352       4.76873000      12.36933186      -0.25805960      -0.52351900      -1.56585448
Si       6.19815423       7.93856535      21.74139715       1.36227210       0.15838618       3.11611168
O        9.52779222       5.68457792      22.19757513      -1.25965616      -0.91816131       0.83218513
O        4.61638627       1.22959905      12.26294007      -0.70357199      -0.80472231      -0.87959442
O        1.90523504       4.34617933       5.52101227      -1.86947097       0.29294747      -0.66414775
O        6.49379114       8.45438458      14.87026050       0.65000769       1.34017414      -0.25826612
O        1.11448222       3.96240994      12.16052275       0.89018374       0.35609182       0.47490989
O        7.20860141       9.27808487      21.54297546      -2.16977629      -2.02729744      -0.75700423
O        9.66751959       6.40499563      15.00441625       3.99229333       1.99290584      -1.16018735
O        3.78134878       1.10875831       5.80305223      -0.16953344      -0.59246713      -0.95168480
O        4.03632233       5.85829906      19.13151278       0.15852168      -0.17853806      -0.70649303
O        4.42592468       6.62327267      15.58237794       0.69875881       0.23177222      -0.23840637
O        7.17327371       3.92242934       8.48323021       1.35436024       1.34331575       0.44993907
O        6.40359418       3.61041934      12.19675267       0.37741173      -0.83113490       0.17291905
O        2.12311527       8.12184314       8.19807780       0.27818634      -0.30552505      -0.29654822
O        2.34284182       8.63102882      12.31635845       1.06869090       3.40848931      -0.25658831
O        8.85060177       2.19714866      18.54791453       2.05791229       0.66646232       0.19207707
O        8.60665036       1.47615084      15.04511158       0.45710745      -0.17120223       0.56706060
O        2.75838058       4.67718232      16.58300050       0.04574967       2.30605256      -2.82748826
O        5.68794462       7.64892408      17.78522276       0.27488039      -0.31625516       0.67482277
O        8.24374467       5.39599746      11.02385872      -0.57819619      -0.86459336       0.08848523
O        5.18271430       2.62766506       9.77414643       0.84342423      -0.46187164      -3.00984753
O        0.36497207       7.58645376      10.51164700       1.20154801       0.48986065       0.68598956
O        2.58993498       0.17519458       2.91350436       0.54981674       1.37863608       1.22771295
O        1.07335707       2.08658934       9.59288249      -1.13947446       1.63037794       1.36566802
O        7.62543602       0.05657252      17.39731449      -0.06449091      -0.07698655      -1.04382140
O        9.61199529       8.42086040      22.64579119       2.60773790      -3.92888585      -1.05746758
O        1.85146435       1.01562557      11.95488396       0.39050368      -0.43320613       0.42020911
O        1.23574397       1.76900804       4.74656162       0.27538053       0.28332284      -0.64699442
O        9.12061264       9.24784636      15.23777429       0.25295782      -0.51034114      -0.58978021
O        3.70218721       3.76111246      11.77648152      -1.51426867       1.31013012      -0.13401907
O        6.90696358       6.96041964      22.99238874       0.15956341      -0.47206362      -2.12929992
O        7.09854806       5.96707198      15.89408380       1.73185351      -0.81360369       0.20351887
O        4.27638757       3.31023561      18.19992380       0.78602180      -0.63058298       1.81394866
O        8.93464810       3.17190636      12.18365905       2.18800550      -0.22585501       0.56291285
O        6.82319929       1.27663511       8.12776294       1.04059535      -1.17701278      -0.30950151
O        2.04342027       7.14075569      15.02617610       2.48978194      -1.83211933       1.51630729
O        3.52631138       8.27488488      19.11032315      -0.51796142       3.95151575       0.76592690
O        8.75623389       3.96045658      15.56924445       1.04962678       0.32326718      -0.04666288
O        6.41104706       2.02498455      18.99198374      -2.07306456       1.03455651      -0.16995105
O        2.53935037       6.25246584      11.69002204      -1.85546257       0.25088878       0.21970848
O        4.84203682       8.41077898      22.58649055      -0.56171042       0.46729013      -0.30887636
O        7.69289845       5.49338272      13.44916931       2.02379680      -1.35965504       1.17981415
O        4.93681089       3.02328217       7.23861250       0.38827358      -0.73880701      -1.89408431
O        2.93116781       4.93482589      13.94215548       0.22516574      -0.32751964       1.52962468
O        5.71184573       7.04240958      20.46753517       0.50285710       1.22252172      -0.49142375
O        0.92891551       2.79297437       7.13226273      -0.58275205      -0.11482662       2.91796123
O        7.63877580       0.06193610       5.99210977       0.82410541      -1.11255344      -0.39762044
O        0.26957874       7.34328133      13.23161280       0.26941583      -0.95316822      -0.95253744
O        3.21272052       0.41296446      14.24483437      -0.28957867       0.87844063      -1.98280798
80
Lattice="9.77192453 0.01751879 6.90363604 0.24348012 9.76890588 6.90363604 0.01370155 0.0133883 13.86910312" Properties=species:S:1:pos:R:3:forces:R:3 energy=-576.47927799 source_file=vasprun.xml step_index=960 time_fs=35920.0 time_ps=35.92 file_index=17 pbc="T T T"
Na       8.30953029       0.84250226      10.82226758       0.02909543      -0.14886173      -0.77992824
Na       5.98863915       4.14869601      17.04293761      -0.05696344      -0.22951503      -0.10627588
Na       4.46991843       6.03065577      10.22920076      -0.34515754      -0.00607909      -0.07474532
Na       1.44477776       9.61719279      16.54913086       0.23986308      -0.11230784       0.38905744
Na       5.88570636       1.29872556      14.00535066      -0.15152974      -0.00480924      -0.33368443
Na       8.38588199       4.30318650      20.22230912       0.80561588      -0.34168281      -0.63572018
Na       1.11767174       6.40494401       6.18544129       0.17225862       0.02727348       0.00262400
Na       4.05935733       8.97241306      13.65669729       0.14400237      -0.08041639      -0.07606090
Al       7.33660786       5.25888480       8.81237218       1.98450464      -1.47038682       0.35345726
Al       4.69255501       2.63002796      11.34453066       1.01989212      -0.62147879      -0.10484700
Al       3.00933565       4.49177342      18.20590833       1.17693927      -1.60822993      -1.35257897
Al       5.42739678       7.07553607      15.79668188       0.93586917       0.49002451      -1.40706081
Al       0.44474625       2.29535189      11.36943078      -1.28509190      -1.67817976      -0.01160394
Al       8.15882195       9.39898306      22.58394005       2.28977377       0.50140285       1.43129325
Al       9.71713790       7.63171215      15.62121434       1.40361634       1.89857653       1.34936663
Al       2.15804854       0.21919622       4.40811130       0.52579175       3.00614695       0.39599807
Si       3.03953913       5.60494037      15.24619228      -3.13805950      -1.41358552      -0.52251460
Si       4.17487327       7.26017071      18.66493188       0.25251066       1.18836289       3.39047244
Si       7.35527464       4.13029481      11.88330502       2.90496201      -2.45840159       0.65718594
Si       6.07594225       2.49483613       8.40697236       3.67518428      -0.42302709       1.88333244
Si       1.42201631       7.37276825      11.81095212      -2.69717329      -3.30494419      -1.53205075
Si       2.84563600       8.89549173       8.27712047      -2.09013980      -1.07412424      -1.31724371
Si       9.16182051       2.34710876      15.14899235       2.45631439       0.87311181       0.25934950
Si       7.55115074       0.73724348      18.70494733      -2.94223746       1.70540277       2.44944721
Si       0.47952319       2.61340267       5.44407735      -1.89032567       0.43689190      -2.38644910
Si       7.21286569       9.36636752      14.67272949       0.65335405       2.73271659       0.84686751
Si       9.88118763       7.09885877      21.70388379       3.93039059      -1.37983531      -0.99456376
Si       2.87713950       0.24846290      12.39921458       1.11163288       0.84946446       1.50576877
Si       7.98656592       5.15786855      14.87348973       1.01290723       2.06896443       0.56483436
Si       4.82421106       2.23661636       5.54650193      -2.22083711      -0.52294870      -1.91499413
Si       2.32403563       4.45045145      12.30986787      -2.27457931       3.29912556       3.22295345
Si       5.66769936       7.64425116      21.54560489      -2.53770474       0.36028519       0.23635213
O        8.59565081       6.19054666      21.70707445      -1.26139137      -2.36707414       0.91428767
O        4.22393617       0.99446296      11.80195474       0.03634119       0.09314404       0.18412701
O        1.49616366       3.65975201       4.78879032       1.58696036       2.26598789       0.11688514
O        5.94412450       8.41915746      14.69424040      -0.75740511      -0.98129298       1.22796790
O        0.92953564       3.70153601      12.17045188      -1.43192685       0.84023694       0.19232712
O        6.78430025       8.74973918      21.94231566      -2.41171242       0.09263269      -1.80971553
O        9.51184398       5.96736345      15.16145910      -3.23190859      -1.32915986      -1.55234906
O        3.48399584       1.24271380       5.27360988      -0.12078750       0.12473634       0.20580431
O        3.04669948       6.16623552      18.52677106      -1.05851049      -1.60516383       1.64925813
O        4.00974269       6.76232922      14.81779466       1.73559363       1.08489713      -0.17166586
O        7.42416187       3.51702131       8.14997625      -2.19214475       1.14235725       0.04353204
O        6.09292865       3.22770799      12.24922309      -0.84314407      -0.64493111       0.78291733
O        1.44707920       8.06139970       7.78346779       0.82706660       0.44219301       0.11702105
O        2.47294916       8.49660510      12.19308728       0.58321554       0.62861439       0.29029763
O        8.52479641       1.99780095      18.92733949       1.58873059       0.63604824      -0.47607499
O        8.32068725       1.07632100      14.69433226      -1.46908799      -0.84764011       0.31216398
O        3.69883659       4.65057629      16.46564973      -1.81110378       0.64434614      -0.68336364
O        5.03865828       7.40990947      17.42241400       2.20730217       0.29255722      -2.57931229
O        7.48923100       4.96724638      10.54815982      -0.61037636       1.25277805      -0.49382329
O        5.41919345       2.94965455       9.80504760      -1.11872315       0.18098090      -1.37808539
O        0.44212773       7.52433390      10.44051766       1.08582029       0.37904563       2.00616533
O        2.50821536       9.49269926       9.69231223       0.54324204       1.04401105       0.10643583
O        0.32017224       2.10224304       9.57142057      -0.00190192      -0.30888320       0.84732069
O        8.02129573       9.66062161      24.32523105       0.46827927      -0.90987943      -1.81270234
O        9.65357225       8.42905617      22.52000873      -1.04973876       1.88448903       0.17859143
O        1.52113636       1.01296724      11.97775085      -0.06883599      -0.52126525      -0.76990327
O        0.70655795       1.29719013       4.54656193       0.89421228      -2.42827848       0.59680084
O        8.54245488       9.02255535      15.44820171       2.37042657      -3.30913521       0.88912103
O        3.46171334       3.68555215      11.73817516       3.40521486      -2.37140627      -2.94572365
O        6.09959122       6.35803625      22.36025990      -1.11683283      -1.43091085       0.59153967
O        6.74667460       5.87384247      15.82663584       1.57656282      -1.13855416      -1.70431983
O        4.64793839       3.81606934      18.74364169      -0.76107544      -2.00136860       1.67160703
O        8.63723188       2.91493098      11.77795410       0.04670893       1.20511366       1.19385044
O        6.77676752       1.01636485       8.70298013      -0.92574439      -0.04570181      -0.44150891
O        1.60526588       6.61817050      15.56709068      -0.25248647      -1.74218798      -0.67545719
O        3.10657007       8.45930211      18.82849384      -0.97621171       2.04655645      -0.10548850
O        8.18030377       3.63501143      15.44965576      -0.49871309      -0.28326356       0.18188925
O        5.97590224       1.42112352      18.64817247       1.67039023       0.35416501      -1.44856701
O        2.34013594       5.88690559      11.50375256      -1.00785535       2.38321874       0.49818345
O        4.09673624       7.87241696       8.36785272       2.05216307      -0.94099317       0.43089499
O        7.72836618       4.96334913      13.24686841       0.14324445       1.40260928       1.11910139
O        5.20830222       2.17483101       7.12647793      -1.72770175       0.87135737      -0.97576423
O        2.76572949       4.62791944      13.90143680      -0.66154564       0.80880738       1.21130424
O        5.30274627       7.40906351      19.97095167      -0.39222808      -0.39658613      -0.83495952
O        0.57643010       2.59500993       7.06378297      -1.03795521       0.10935408       0.71748963
O        7.48395027       9.64330983      13.11774910       1.04203983      -0.20172853      -1.24252636
O        0.42140777       7.20249665      13.15624649       0.54188887       0.04491232      -0.36744610
O        3.19311377       0.16147784      14.08025218      -0.70912537       0.98024693      -1.17237176
80
Lattice="9.77192453 0.01751879 6.90363604 0.24348012 9.76890588 6.90363604 0.01370155 0.0133883 13.86910312" Properties=species:S:1:pos:R:3:forces:R:3 energy=-575.6708737 source_file=vasprun.xml step_index=55 time_fs=14110.0 time_ps=14.11 file_index=7 pbc="T T T"
Na       5.77682190       5.29682188      19.95861411       0.43498288      -0.80785620       0.25353434
Na       9.15339500       1.57583969       9.74451336       0.94364799      -0.04807992       0.53626496
Na       1.66892637       8.97009704      17.30055324      -0.30872387      -0.19411767      -0.19655228
Na       7.51906410       7.63933359      11.90956524       0.31923424       0.46744614       0.08257688
Na       9.38488795       4.53771701      20.61949800       0.27870984      -1.16963364      -0.95429777
Na       5.98434537       1.88923189      14.23023992       0.26050224       0.05780746      -0.30019024
Na       1.88842057       6.08947891       6.85762500       0.01394219       0.11700864       0.23147815
Na       4.02314599       8.87491756      13.73378674       0.38840055      -0.24606250       0.78866595
Al       7.33630036       5.52983381       9.02180822       2.56312708      -1.21942885       1.40599016
Al       5.04155743       3.07402978      11.32974404      -2.06028347       1.98480661       2.18163491
Al       3.18269672       4.64963809      18.40981515      -0.90548203       1.66864435      -2.46104278
Al       6.00112237       7.12321137      15.99740744      -1.52252257      -0.35134175      -1.28296265
Al       0.76232639       2.29755620      11.27127040       1.19317585       1.46285349       0.61207113
Al       8.28923408       9.73073597      22.89483322       1.85084411      -0.03778393       1.15655582
Al       9.94051914       7.68620017      15.81177051       0.91448956       0.38005724       0.23512609
Al       2.50971471       0.53245430       4.58261626      -1.39177903       2.04748197      -1.48222401
Si       3.02108694       5.85611055      15.33320339      -1.49430874      -4.65936973       0.65437835
Si       4.71343565       7.54679976      18.92566549       2.99863284       0.40439227      -0.90858482
Si       7.73398271       4.57144157      11.93322360      -0.72456382      -0.73865891      -1.56769190
Si       6.14568857       2.65037876       8.41864959       1.74312795       1.26216259       1.12912059
Si       1.29846121       7.75353429      12.07454019      -1.51697362      -2.27680018      -0.41392865
Si       2.82599084       9.09672765       8.45552812       0.35524326      -1.47248506      -5.59887460
Si       9.56432060       2.39257321      15.03304497      -2.25795851       1.31455209       2.44365912
Si       7.82799103       1.40777990      19.13415738       0.82980206      -3.55009175      -3.44384096
Si       0.68294610       3.15160371       5.32663761       1.47025574      -0.07300375       2.81371118
Si       7.47440352       9.76207416      14.99311155      -0.39326718      -4.50659162      -2.53218211
Si       0.23260789       7.19286484      14.97849962      -2.38939011       0.06658658       1.91841524
Si       3.12273787       0.66306238      12.68926674      -0.82706420       0.26800655      -1.72997426
Si       8.39038393       5.26774168      14.78126017      -2.17850355      -1.87585402       0.66229864
Si       4.96732253       2.26915104       5.53009909       1.24318606      -0.63916030       0.27516351
Si       2.72110493       4.94970143      12.35403368       1.68947906      -2.56400163      -3.35889467
Si       5.76226885       7.81628940      21.81174134       0.19231523       2.14622676      -0.22988014
O        8.88227708       5.90600910      22.09658873       1.80746350       2.15404699      -0.14367434
O        4.35080637       1.67159086      12.32305237       0.68057192       0.57678540       0.30833100
O        1.74343489       4.33889671       5.47975147       0.57677305       1.77932825      -0.47457003
O        6.08028213       8.82861065      15.31762798       1.98467121       0.97719635      -1.39798359
O        1.89242257       3.69238651      11.79698714      -3.10815804      -1.25214369      -0.13708559
O        6.89278829       9.02283775      22.16623207      -2.20396432      -1.07888587      -0.09804190
O        9.69784445       6.06029945      15.06823257       1.92667286       2.65531147       1.13172297
O        3.94691512       1.01050909       5.48120633      -0.04058003      -0.26882648      -1.12004276
O        3.73579700       6.26109039      18.97265608      -0.09729981       0.04449321       0.55837703
O        4.29921143       6.68686262      15.36128527       3.87244683       2.88718940      -0.37592151
O        7.14468611       3.98399889       8.11098572      -1.28263894      -1.17733366       0.77904952
O        6.53867906       3.61319404      12.11852836      -2.25042955      -2.70843756      -0.14489456
O        1.62967778       8.08866946       7.91300444      -0.01470558       0.50033146       1.50451305
O        2.07603494       9.07406234      12.51710740       1.09819347       0.73674006      -0.06270936
O        9.08070272       2.33340115      19.30252446       1.80805647       2.01059833       0.72200921
O        8.58075071       1.15406281      14.78092401      -1.17997045      -1.01592570      -0.03892748
O        3.03400550       4.82217018      16.65000381      -0.52579404       0.34307848      -0.52706515
O        5.88004462       7.44572820      17.67017495      -2.13580019       0.01022546       2.28044924
O        7.64619920       5.70478028      10.84589803      -0.76720375       0.80528445      -3.47272771
O        5.17004141       2.65832188       9.67638286       0.35926216       0.17486108      -0.40017733
O        0.58952061       7.77993639      10.63772316      -0.83103408       0.63866158      -0.68809650
O        2.87162929       9.75804889       9.80733454      -0.39544580       2.02154547       4.91707030
O        0.44662920       2.26914885       9.56443162       1.20371238      -0.44557635       1.43513128
O        8.30847589       0.45347365      17.78134921      -1.53338196      -0.13362962      -0.60471175
O        9.48345998       8.37962077      22.97573490       0.70076063      -0.61162169      -1.45865918
O        1.82335281       0.95134595      11.66491991       0.92259267      -0.76767869       0.99234286
O        1.36528129       2.10652217       4.33711311       0.43762410      -2.97192617      -0.47008205
O        8.81083194       9.03578204      15.52960340       0.19509375      -0.72374042       0.38641255
O        4.15613837       4.71410895      11.66414125       1.61968129      -1.24959812      -0.93329818
O        5.98741014       6.38759711       8.63916974      -1.35720975       0.92174143      -0.00199842
O        7.01988205       5.80462676      15.40856344      -0.71188236       1.72242377       1.22765504
O        4.48848351       3.68618758      18.86762542       0.37984974      -0.35419124       0.35299779
O        9.02467368       3.68932565      11.71669017       2.42295826      -2.84419569      -1.42651285
O        7.31161169       1.42930786       8.69740659      -1.38616327       3.04218779       0.65446277
O        1.76107752       6.91597564      15.53201907      -0.44048096      -0.18529941      -0.51770776
O        3.84330310       8.86871548      19.22434884      -0.34345512       0.28397261      -0.97901030
O        8.55485605       3.72184717      15.20922944      -0.17892665      -0.66977606      -0.31964105
O        6.49306378       2.19721898      18.70227683      -1.54918658       0.06349035       0.21590855
O        2.12652572       6.35898513      11.97588556      -0.15739432       2.25494944      -0.15753276
O        4.23544274       8.28677429      22.12034815       0.76691558      -0.41372685       0.17604731
O        8.10322547       5.30710102      13.20391660       0.83235229       3.49192903       2.89472087
O        5.31927491       2.28301836       7.12321229      -0.57365937      -0.03617702      -0.37514450
O        2.93189414       4.86758050      13.89302835      -0.50635220       1.45987294       5.98811386
O        5.84680313       7.46372608      20.19811708      -0.64735612       0.25866751      -0.41552844
O        0.83696038       2.68801849       7.01020720       0.58315820      -0.04761139      -3.81842601
O        7.55721823       0.18362236       6.35044415      -1.26989386      -0.34108300       2.32927980
O        0.29011763       7.47475079      13.37337579      -0.54414040      -0.02134151       0.19515386
O        2.66519985       0.55815387      14.24253969       0.15095055       0.29412759       0.57004831
80
Lattice="9.77192453 0.01751879 6.90363604 0.24348012 9.76890588 6.90363604 0.01370155 0.0133883 13.86910312" Properties=species:S:1:pos:R:3:forces:R:3 energy=-576.13706288 source_file=vasprun.xml step_index=470 time_fs=32940.0 time_ps=32.94 file_index=16 pbc="T T T"
Na       9.05258006       1.10842803       9.96234952      -0.18135686       0.12971286      -0.19043863
Na       5.99868172       4.02205690      16.97740822       0.02312131       0.12269200      -0.18513813
Na       4.11602136       6.25438499      10.16184495       0.28774132      -0.33629728       0.19767790
Na       0.82714077       8.29037578      17.59419170       0.24890234       0.08913936       0.19125744
Na       5.99800841       1.45625162      14.28636036      -0.05441939       0.41413043      -0.81775382
Na       9.05924410       4.62093585      19.78205442      -0.78851368      -1.22844823      -0.13475487
Na       1.88144962       5.40204820       6.63545061      -0.32421115       0.29491009       0.38783618
Na       3.51233651       9.28840886      14.32937968       0.45234941       0.05318323      -0.33527212
Al       7.16284074       5.44854929      22.50532644      -2.24968055      -2.08830543       0.51589724
Al       4.76033741       2.75043102      11.36387162       2.74964890      -1.65488559      -0.05481942
Al       3.20688286       4.51870468      18.03508882      -0.21824810       2.45382198      -1.23830186
Al       5.54779477       7.22687071      15.48047705      -0.75283323      -0.48051647       0.67875065
Al       0.48331147       2.00483043      11.36810519      -1.46204317       2.44608284       1.38592467
Al       8.31824724       9.34198137      22.56291849      -2.30884745       0.46113456       0.95893349
Al       9.75474581       7.63747994      15.82481220      -2.01621399      -1.76468300       1.90744396
Al       2.11363418       0.13944562       4.51597865       0.04282570       0.77113758       0.26075774
Si       2.90217060       5.63485322      15.12532582      -1.07424145      -0.64202795       1.35628917
Si       4.57609364       7.46501689      18.69265327      -4.44078118      -0.59097740      -2.30011125
Si       7.64419506       4.21146002      11.73391160      -0.71212393       2.29428327      -0.58861895
Si       5.89754429       2.39915087       8.33268640      -0.18148783       1.47251759      -2.80554163
Si       1.16306987       7.08961162      12.00326826       0.39759911       0.73370355      -2.75436133
Si       2.56972290       9.31213595       8.34305393       1.11081793       0.04544027       0.38477391
Si       9.31008245       2.51255300      15.18642022       1.99399068       0.10460987       3.25522495
Si       7.43616583       0.69152433      18.74952187       1.97305278       0.33614390      -0.67447914
Si       0.68638764       2.75793021       5.35278658      -2.11789946       1.90725510      -1.22316925
Si       7.38581337       9.40300587      14.55180106      -2.07374167      -0.63513111      -1.85252877
Si       9.78068460       6.62336623      21.67381590       1.35975033       1.39169258       2.11925483
Si       2.87110020       0.46407709      12.42319164       2.65572336      -1.85630435       0.77582155
Si       8.07970160       5.31439655      14.69428570       1.07540201      -1.35870364      -0.85613800
Si       4.56185474       2.02970416       5.48393221       1.70939563      -2.47686336       2.40822809
Si       2.27837455       4.40191802      12.42133322       4.28820722      -1.00457326      -1.13476982
Si       5.48220354       7.99057466      21.62421174       2.04994100       2.08993962       0.59593124
O        8.70289800       5.52370205      21.80207763      -1.66197534      -1.26955122      -0.13907946
O        4.27588738       1.25730472      12.24068514       0.49224830       0.24464878       0.50546287
O        1.81868162       3.85521345       4.91467834      -2.19993650      -0.62821181       0.98544543
O        5.97686551       8.50603938      14.40584578       0.36789136       1.04337665       1.02361200
O        1.13767680       3.33405245      12.50947195      -2.37270698      -0.10115881      -1.08850892
O        6.70081813       9.16606740      21.72222848      -0.58403788      -1.29568207       0.14557491
O        9.37861322       6.06474193      15.16278149       1.80283991       1.47983255      -0.11633657
O        3.58439331       0.76130773       5.25997521      -1.17411064      -0.35342117      -0.27193633
O        3.53022298       6.04881834      18.91789550       1.21089108       1.07689194      -0.97372839
O        3.76150977       6.95572300      14.87900678       1.91126005       0.80178093       0.23184165
O        6.57419181       3.84147723       7.92065923      -0.19577976      -0.09671670       0.33192345
O        6.33264106       3.42221787      12.31307539      -0.95698884      -1.05619008      -1.20792918
O        1.41271865       8.20293307       8.34448046       2.02844393       0.21983442      -1.68903854
O        1.83134426       8.50376389      12.42595228       0.83964309       0.33979656      -0.65675789
O        8.70533705       1.73733048      19.02305079      -0.78666655       0.24944136      -0.76890011
O        8.55253910       1.11116292      15.02251558      -0.30131279       0.07747607      -0.70902000
O        3.54044416       4.69771865      16.29098025       0.13032202       0.13093042       1.73637237
O        5.49133366       7.53287056      17.31676188      -0.87004532      -0.63774673       0.44469133
O        7.14988446       5.23952943      10.32654125       1.38857025      -2.21489227       4.34977655
O        5.26836401       2.22236121       9.72665633      -1.40466972       0.81762419       3.57951085
O        0.27249600       7.10026003      10.65990655      -0.34285280       1.13626274      -0.33235674
O        2.02606900       0.42709568       2.77595958       0.89292377      -0.95785227      -0.13319315
O        0.46709018       2.41876190       9.74271551      -1.50881763       0.60342395      -4.08144945
O        7.96324396       9.55592034      24.31029776       0.19152623       0.33363304      -0.57432422
O        9.38149713       7.98046744      22.46883371       0.11447218       0.53269106      -0.66696165
O        1.72828242       0.96111308      11.54143902      -1.10517296      -1.15356228      -1.43909564
O        0.83186958       1.29144180       4.78449731      -0.36217527      -0.24538921       0.63748259
O        8.43310257       8.77516112      15.54205329       1.68546419      -0.64606926       1.45638834
O        3.51444389       3.83783860      11.40269678      -1.90015767       1.69712072       0.85979348
O        5.87299427       6.68812605      22.41637189       0.82673983      -1.60603588       0.61084210
O        6.75958116       5.96167120      15.22579873      -2.47605316       0.09281271       1.30926424
O        4.29270342       3.39180665      18.57296847       2.34921135      -1.12097267       0.44328775
O        8.99454855       3.27746000      11.38738977       0.29722265      -0.18944569       0.73835483
O        6.86583374       1.12822986       8.18021724       2.16495273      -0.37803031       0.22388132
O        1.34396950       6.17043526      15.55533490       2.12562194      -0.50948201       0.35300728
O        3.22728204       8.65200021      18.61934475       1.94632312      -0.43595108       1.16866807
O        8.34815185       3.80660337      15.34989516      -1.98969787      -0.42811165       0.55929480
O        6.03419554       1.53680871      18.73848920       0.52091480       0.13792257      -0.48375632
O        2.29067729       5.89883150      11.70614285      -0.61316266       0.72751303       0.58396280
O        4.08488421       8.48899664      22.24332893      -2.02242848       0.95610112       0.82841110
O        8.14490220       5.13644979      13.09965789      -0.34653154      -0.46784390      -2.71470974
O        4.75741009       1.91995586       7.19832854      -1.06283442       1.37261659      -2.12749778
O        2.76832993       4.49251751      13.99880836      -0.11075743       0.61014025      -1.56329409
O        5.25803454       7.57757537      20.10682955       1.12207656       0.23899891      -0.87895918
O        0.43905607       2.87086657       6.97250160       0.90956435      -0.06256643      -0.62868463
O        7.89347958       9.39216150      12.98758449      -0.26878746      -0.40764669       0.98468497
O        0.28940206       6.49222364      13.20025477      -0.31490768       0.70491377      -0.37204442
O        2.44845231       0.58595539      14.04764673       0.12617270      -0.83143857      -0.70065752
80
Lattice="9.77192453 0.01751879 6.90363604 0.24348012 9.76890588 6.90363604 0.01370155 0.0133883 13.86910312" Properties=species:S:1:pos:R:3:forces:R:3 energy=-576.00120574 source_file=vasprun.xml step_index=660 time_fs=23320.0 time_ps=23.32 file_index=11 pbc="T T T"
Na       9.03981774       1.41758559       9.91176092       0.29811153      -0.34732305      -0.06926138
Na       5.20841986       4.23242960      16.63182710      -0.41133524      -0.92520203       0.48475136
Na       6.85436226       7.37855736      11.35260066       0.48569637      -0.09752856       0.00857286
Na       1.83847754       8.73007873      17.08093510      -0.13421647      -0.07762044       0.32209277
Na       8.72876069       4.47411559      19.88138015      -0.50768684      -0.12583708       0.06269389
Na       6.41078345       1.35193184      13.79982830      -0.60831878       0.14416626      -0.57990182
Na       3.10313154       5.90907193       7.65023887      -0.30787953       0.26577275       0.22009484
Na       4.64964023       8.27162239      13.40872141      -0.61265401       0.21897757       0.20251504
Al       7.31051413       5.36745478       9.08865902       0.01220868       0.70433144      -0.18904196
Al       4.67883650       3.01882621      11.52518848      -0.53315920      -1.02410066      -0.26364221
Al       2.82967120       4.75788355      18.56545296       0.54536710       0.63537839       2.19631385
Al       5.61816555       7.15957923      16.34107662      -1.47744919      -1.53559530       0.42679411
Al       0.38580704       2.05632813      11.69609123      -0.98225859       1.62976767      -0.71100682
Al       8.02869896       9.45702279      22.94582861      -0.08489576       1.50737068      -1.35813578
Al       9.74462316       7.72448917      15.94231767       0.72472449       0.37192651       1.11262740
Al       2.25903617       0.59990563       4.71271231      -2.54500866      -0.49164565      -3.38170936
Si       2.65582045       5.46629180      15.70395279      -0.14742617       1.01492627      -2.67607478
Si       4.29745051       7.53008578      19.20899952      -0.61131457      -0.96790752      -0.08975239
Si       7.68835191       4.24150097      12.14924416      -4.09138337       1.77212374      -0.19337645
Si       5.57548544       2.56187994       8.60110483       2.33868330       0.05890758       0.73727493
Si       1.24304634       7.62430968      12.22768977       0.93517906      -0.42914497      -2.17563669
Si       2.65639479       9.21921843       8.63029444       1.41549827       3.19707791       0.50021042
Si       9.13578485       2.32667984      15.40241561      -0.64563032       0.59199287       1.66124992
Si       7.33487341       0.97774603      18.98698031       3.50616475       1.91479025      -2.08588373
Si       0.47768235       2.75404755       5.92876590      -0.95382416      -2.07027056      -5.49423994
Si       7.28904004       9.57167562      14.81647406      -2.35239056       0.01028287       0.49385139
Si       9.70564491       7.05594504      21.89635108      -0.32117469      -1.15942661      -1.35358882
Si       3.00170429       0.62143487      12.59361405      -0.14704193      -0.21255549       3.84778349
Si       7.73771106       5.19120425      15.07036995       1.54357935       1.81694410      -0.22532040
Si       4.68916077       2.55727004       5.50285920       3.66872365       1.05491696       1.83416982
Si       2.21198025       4.57292411      12.66466067       1.23189300       0.51251187      -0.21892881
Si       5.51785336       8.02272168      22.20569073      -1.34525310       0.85620878      -1.38944644
O        8.63910195       5.71700674      21.75143910       0.54737955       1.85168730       1.06689134
O        4.35249933       1.52533498      12.63559342      -0.29118115       1.35882794      -1.87945567
O        1.58435774       3.84895747       5.60807338       0.75806921       1.68777270      -1.07231469
O        6.11522344       8.41916681      15.31155592       0.89874858       1.84524583      -1.74719077
O        0.90073868       3.65723173      12.29199642       0.52553658       0.47476211       0.40582993
O        6.49197269       9.33704197      22.17634912      -1.12396683      -1.67554751      -0.59066500
O        8.94400946       6.22800331      15.45230271       0.79557645       0.13112730      -0.30551755
O        3.71905083       1.38153878       5.07774776       0.25289133       0.45024870      -0.06966414
O        3.01213731       6.46099884      19.18478274       0.39216024      -1.13799399      -0.04521736
O        3.90249102       6.51615250      15.89257048       0.61364260       0.19096970      -0.68313610
O        6.50263060       3.98327672       8.57791655      -1.66144111      -2.55318615      -0.27245326
O        6.25546191       3.49269921      12.05058935      -0.76886842      -0.55589879      -0.15175994
O        1.69268816       7.98379286       8.54950418      -2.17239691      -1.94520575      -1.44110934
O        2.58386397       8.70007880      12.18104526      -1.17671308      -0.59219800       1.34719239
O        8.79051194       1.60169167      19.52063654      -1.93232773      -0.22997816       0.06784834
O        8.12132479       1.09391144      15.04994558       2.04180517       1.11111791      -0.40892751
O        2.66601121       4.44632538      16.91665883      -0.19101700      -0.67499424      -0.47117289
O        5.35292846       7.39401754      18.03413956       0.92702023      -0.05903621      -0.81372310
O        7.79213608       5.12577081      10.76830460       1.13330952       0.48786211       0.81283879
O        4.44502291       2.42368896       9.78024907       1.63680817       0.55049977       0.42644352
O        0.45906053       7.75567220      10.81027727      -0.93701162      -0.08049734      -0.03204176
O        1.95733335       0.59881279       2.82371546       0.60216894      -0.99408783       1.02601836
O        9.65331542       2.11317755      16.92639083       0.37953188       0.42583113      -1.15987189
O        7.93912500       9.74255018      24.58982474      -1.51714926       0.74271962       3.19210905
O        9.28101350       8.32416302      22.80814781       0.81297933      -1.62501111       0.01925089
O        1.57023923       0.92667258      11.92008971       2.26773605      -0.84205914      -0.43084790
O        0.62231726       1.38052282       4.94491478       1.40326807       1.04795360       1.87681353
O        8.69678806       9.18243145      15.41474571       2.02095302      -1.77487176       0.20395163
O        3.52969969       4.30579009      11.75171929      -0.20161353      -1.01122499       0.23187817
O        6.18762247       6.81185338       9.18639676       0.62180956      -0.60514569       0.24011440
O        6.53776503       5.68790420      15.99588133      -0.95946268       0.58140959       0.28960346
O        4.55034904       4.20010101      18.95234934      -1.39248023      -2.40062059       0.16757599
O        8.55384722       2.92385218      12.40875127       3.39700839       0.67851805       0.96015901
O        6.82639156       1.26036511       8.59880171      -1.66176082       2.12106523       0.94192105
O        1.31091487       6.46835331      15.72559323      -0.08680053       0.19496197      -0.35210276
O        3.44372540       8.88066535      19.02118695       0.51163910      -0.61898112      -1.73736133
O        7.97695158       3.62729285      15.42826023       1.45449563      -1.10908671      -0.45885333
O        6.34997059       2.28001650      18.83689367      -1.91613163       0.15827750      -0.84607016
O        2.02216837       6.16161616      12.36678788      -1.14970588       1.16966097       0.15042675
O        4.10945265       8.52788020       9.06378147       1.16459547      -1.15838026      -0.09430129
O        7.36268883       5.36834917      13.44280224       1.32724848      -0.95719837      -0.90175502
O        4.91804653       2.33623256       7.17267090      -1.54027540       0.50895054      -2.22780492
O        2.66712201       4.54005928      14.27832465      -0.36090897       0.54401265       1.13547168
O        5.15235317       7.41214275      20.60022074       0.05949407       0.51841655       2.43511726
O        0.70356929       2.60412076       7.44546107      -2.27828947      -1.15687815       5.20196540
O        6.68032462       0.10319496       6.25929775      -0.88987966      -3.63987914       3.22788591
O        9.87668001       7.68081411      20.32771595       0.54807924      -0.37382580       1.47012419
O        2.83341666       0.32298234      14.24623987      -0.75820557       0.08880019      -0.36692107
80
Lattice="9.77192453 0.01751879 6.90363604 0.24348012 9.76890588 6.90363604 0.01370155 0.0133883 13.86910312" Properties=species:S:1:pos:R:3:forces:R:3 energy=-574.6274946 source_file=vasprun.xml step_index=765 time_fs=67530.0 time_ps=67.53 file_index=33 pbc="T T T"
Na       8.05635161       0.05799288      13.04712493      -0.25678941       0.04814246      -0.08326871
Na       1.45770581       2.94195983      16.41956697       0.00997437      -0.06989866       0.00066372
Na       4.84160673       5.98582427      10.52741944      -0.01354146      -0.04466645      -0.02233597
Na       1.97975434       8.93150055      17.35198253      -0.31266389       0.13875423      -0.04744064
Na       8.62239491       4.07106640      19.77373878      -0.52489711       0.41554321       0.54745481
Na       6.13633289       3.85020133      16.07174184      -0.12168397      -0.60542256       0.42374771
Na       1.97966297       6.66950480       6.99043827      -0.26819003      -0.16096140       0.38912225
Na       4.28988202       8.88534384      14.14915373       0.04100047       0.22687868      -0.15636055
Al       7.34934301       5.22423073       9.01887873      -3.51034731      -0.05804491       2.03411563
Al       5.04828280       3.14259249      11.69317709      -0.22557386       0.22457650       0.16647915
Al       2.98226703       4.88407668      18.61827712       2.52565688      -0.92585159      -0.51575344
Al       5.62985364       7.12568738      16.03479768       2.74077335      -0.27327833      -0.92917891
Al       0.63357163       2.32349978      11.43473311       0.54506038      -0.04712233       0.45792214
Al       7.94390459       9.65599374      23.25573246      -2.47150571       0.30342425       1.37876856
Al       9.87084527       8.16611623      16.36125562      -3.44630564       0.62751822      -0.31671687
Al       2.69072900       0.35063073       4.82498214      -1.23500387       3.30294397       0.92352529
Si       2.64303656       5.95374534      15.60001453       0.94507300       1.76163663      -0.42901815
Si       4.66154004       7.67331162      18.95191216      -1.45428772      -1.47906268      -1.88473799
Si       7.72378446       4.32397759      12.21369808       0.67379880       1.47692113      -1.90600557
Si       5.69678752       2.75964213       8.53743661       1.08661140      -0.47918291      -1.73947575
Si       1.04776059       7.91493507      12.53700637      -1.24918947      -5.46217254      -1.68266101
Si       2.95332675       9.19111014       8.53589507      -1.24603464       1.40718442       1.83742175
Si       9.35893456       2.59196142      15.41883879       0.67286608      -0.92509985       4.18868980
Si       7.44245370       1.15057967      19.21462819       1.25599839       2.55722282       1.28220463
Si       0.69875452       2.89476284       5.69181183       1.25090366      -1.12457726      -2.32548840
Si       7.43855835       9.75451140      15.11809364      -1.99008344      -2.87203586       1.96495911
Si       9.61088960       7.35019306      22.27491014       1.02144091      -3.82855450      -2.17141816
Si       3.12042545       0.79099408      12.81058666      -1.73777086      -0.91253307      -3.95956393
Si       8.29785723       5.63608508      15.00458790      -4.30190499      -2.14840295       0.27402806
Si       4.76076073       2.64721751       5.90750644      -0.95488074      -0.26199693      -2.49419757
Si       2.40051172       4.76816086      12.79479518      -1.33555591       2.72310249      -0.23329166
Si       5.71310263       7.96654222      21.65334555       0.18856544      -0.47346706       0.10799650
O        8.80444972       5.87540943      22.52458610       4.52888257       3.12918783      -1.86481819
O        4.24219267       1.85021002      12.48414671      -0.09304852      -0.25797741       0.54842325
O        1.83661397       4.07350131       5.75360511      -0.58364501      -0.29139361       0.38050186
O        6.41467915       8.42463334      15.15994120      -0.57546897       1.17464012      -0.56754551
O        1.14768065       3.81901255      12.47105894      -0.86791299      -1.71636836      -1.02089112
O        6.56046173       9.31039607      21.97702594       1.48554777      -0.14422596       2.17951321
O        9.40428293       6.64682634      15.42647424       1.06932366       1.14218597       0.50575819
O        4.03746810       1.18224109       5.75915627      -1.76491699      -1.81111036      -1.24099251
O        3.55513987       6.38689752      19.19501610       0.20995803       3.18897739       1.65524013
O        4.09479424       6.72517161      15.47530901      -2.97593020       0.05456792      -1.81534404
O        6.92968151       3.82200880       8.11595338      -0.53120266      -1.01345411      -0.10970674
O        6.64113181       3.20263605      12.51359384      -1.08059577      -1.14578021       0.75703070
O        1.45723557       8.42720655       8.52421485       3.95602204       1.32742344      -1.13699171
O        2.16737397       8.92722156      12.72188797       3.64598754       2.28000236       1.09992322
O        8.64804941       2.19484416      18.62328510       0.42722589      -1.05333489       1.30786884
O        8.29898597       1.35439732      15.76721650       0.65591829       1.80711520      -1.58047451
O        2.62272206       5.13803026      16.93363287      -0.90853010      -1.57046745       1.90343472
O        5.43332569       6.98497119      17.68600259      -0.17365578       1.84962059       2.23776366
O        7.07006899       5.02187876      10.83865753       0.69859033       0.59240283      -0.55468487
O        5.17919895       3.03481533       9.97178089      -1.24561205       0.87436907       2.00536372
O        0.20671329       8.06935379      11.16216193       0.06750372       0.03800258       0.87199580
O        2.99244267       0.16619024       3.15172458      -0.00213998      -1.51880769      -2.77685455
O        0.76564453       2.49550645       9.71580399      -0.76337025       0.24193088      -1.20615428
O        7.19033688       0.04135379      18.14733824      -0.42854840      -1.43731224      -2.78053380
O        9.14642564       8.42289802      23.27421639      -0.52654217       1.57687857       1.26662070
O        1.63921309       0.90905277      11.93926016       0.74430245       1.15305683       0.99860534
O        1.06328762       1.43938119       4.87584094       1.09570552       2.23893666      -0.18130409
O        8.60797626       9.50990357      16.10797255       3.16441408      -1.85094114       1.82324875
O        3.75109046       4.46113052      11.92679686       0.49520247       0.23661817       0.87209145
O        6.12543931       6.55844815      22.42506115      -0.11924065       0.86332961      -0.40284021
O        6.71093695       5.83659527      15.58519329       2.16236646      -0.44655785       0.26268720
O        4.46793682       3.85574994      18.70879208      -1.22518091      -0.26254135      -0.25100712
O        9.27145016       3.74000088      11.81461528      -1.56801101      -0.22507798       0.49609637
O        6.32383235       1.20444737       8.66277396      -2.94178738       3.61075577       0.55048551
O        1.46643905       7.14844960      15.58724710       1.02479104      -0.56871494       0.75225167
O        3.78106824       9.13401297      18.81500094       0.37549931      -1.36881910       0.64815302
O        8.60854003       4.04289182      15.53592872      -0.15883402       0.58515673      -0.45817207
O        6.31785797       2.39451104      19.41170704       1.88085840      -1.38850995       0.30355880
O        1.91294055       6.42187712      12.37837632       0.14640390      -1.05022034       0.84467299
O        4.02858843       8.04024462      21.92866366       0.39602574       0.33984158       0.50888684
O        7.81605653       5.42886375      13.43808738       1.41977631      -0.12841855      -1.13253620
O        4.39244638       3.02707754       7.41331756       2.05315917       0.05549525       2.99294594
O        2.33583318       4.78106631      14.52455887       0.70661072      -0.45166652      -2.24743488
O        5.80036925       8.15492930      19.98698769       0.46431180      -1.45357044       1.56182294
O        0.34225864       2.32153425       7.13549527      -0.57807922      -0.15618329       0.18229274
O        7.73745650       0.44165742       6.85358484       1.40004299       1.19087445      -5.85835913
O        9.72737075       7.89010006      20.66685178      -1.40801634       0.06232817       0.83522315
O        2.78566536       0.70932480      14.38203547      -0.04323491      -1.35290173       1.77358391
80
Lattice="9.77192453 0.01751879 6.90363604 0.24348012 9.76890588 6.90363604 0.01370155 0.0133883 13.86910312" Properties=species:S:1:pos:R:3:forces:R:3 energy=-576.23694047 source_file=vasprun.xml step_index=795 time_fs=47590.0 time_ps=47.59 file_index=23 pbc="T T T"
Na       6.70743747       0.78393863      13.27236874       0.01964736      -0.27689812       0.09179041
Na       4.95067364       2.39843152      16.05206802      -0.20151782       0.17505072       0.16738949
Na       4.17446619       6.19589554      11.08645710       0.83646051       0.03669447      -0.76637961
Na       3.88036492       8.42185743      13.72366582      -0.10659640       0.02375760      -0.00464598
Na       7.59726687       4.23943438      20.01538510       0.44892906       0.13185401      -0.27265386
Na       9.32840923       1.53901254       9.68926917       0.22190533      -0.02308661       0.38660041
Na       1.39545575       7.26181974       6.15020902       0.07266396      -0.78922903      -0.76860553
Na       2.48275891       2.42716321       9.10985065      -0.61340705       0.15926495      -0.23446571
Al       7.00733060       5.45399974       8.87176614       1.54692591       1.07180897       1.57292276
Al       4.94716750       2.70485802      11.27424820      -2.10355417       0.53240313       1.12912527
Al       3.35860069       4.55220002      18.46290869      -1.76375071       1.47230582      -1.76276095
Al       5.46183670       7.06482535      16.02306764      -0.36391360      -0.82664780       2.60272819
Al       0.43955525       2.29433548      11.52475341       0.52078454      -1.16653684       1.81835670
Al       8.24080599       9.46054997      22.85750919      -0.71149396       0.01422849       0.33122410
Al       9.78938603       7.75304739      15.68432699      -0.37148853       1.16393297       1.50332071
Al       2.38305869       0.53205619       4.52612628      -2.27694357       0.09222442       2.26036717
Si       2.70222892       5.46468052      15.25676110       1.32610103      -1.93820479       1.67324579
Si       4.34827691       7.64741467      19.13244740       2.39119694      -2.84125290      -0.62031113
Si       7.64801378       4.30306013      11.78950249      -0.19466792       0.26903026      -0.24815203
Si       5.62691479       2.68366242       8.34109776      -1.81065640       0.44200217      -0.47114925
Si       1.20569035       7.41173820      11.75755810       1.46748084      -1.50719795       4.65696525
Si       2.69032182       9.34341727       8.46941368       2.39747925       1.01280733       2.45699644
Si       9.17225435       2.59042908      15.32686907      -2.58223505       2.26609960       0.16579980
Si       7.75901020       0.43346498      19.11277972      -1.49949001       1.58199311       1.37546910
Si       0.78322540       3.08655567       5.70531647      -0.56613830       2.33808928      -2.79997621
Si       7.19594120       9.58892121      15.13456459      -0.22424385      -2.24811557      -1.48756225
Si       9.73357399       6.90608379      21.58317015      -1.04940119       0.09671859      -0.70833059
Si       3.21180199       0.65017114      12.63735372       0.42411651       0.37964918       1.21247081
Si       8.00270399       5.47950303      14.73889462      -2.42890930      -1.52584217       2.02274174
Si       4.85011002       1.91987676       5.46550882       2.98470842       3.80046998      -0.12762777
Si       2.25413012       4.48523614      12.37884710       2.62743421       0.33184491      -0.45633142
Si       5.36961385       7.93419245      22.24223878       1.03896735       0.82892858       0.68317381
O        8.36682048       5.85447050      21.62964666       1.54223710       1.12552864       0.21336129
O        4.67002227       1.37656509      12.40666202      -0.23097875      -0.65630176      -0.37648023
O        1.92490256       4.23902358       5.56932761      -0.76135508      -1.08742648      -0.12021664
O        5.94781766       8.64615406      15.66680175       0.37252666       3.00778878      -2.33011990
O        0.80334351       3.94496099      12.08487965      -1.30615628      -1.47818543      -0.83602139
O        6.60698839       9.02015496      22.45499060      -1.82578441      -0.37292309      -0.72074991
O        9.25538504       6.44078085      14.70812252       1.48640312       1.54041670      -0.77651651
O        3.87830556       0.75908804       5.36548687      -3.12984543      -3.49511991      -0.32475180
O        3.53698226       6.20855354      19.08194993      -0.07314785       0.92039694       0.83594795
O        4.02571019       6.42946018      15.13568742      -0.00156237       1.24615839      -0.12215451
O        6.42193821       4.06907450       8.06606957      -0.24653924      -1.48509036       0.43610057
O        6.56367146       3.10851458      11.37394103       1.69381068       0.37691039       1.30661913
O        1.47554623       8.51114302       7.92051993      -2.41082326      -1.10927382       0.37358498
O        2.14749624       8.69047985      11.95889916       0.93717972       0.56619131      -0.03187365
O        8.95300144       1.50376094      19.43675665       0.46674455       0.57740498      -0.41453296
O        7.93885598       1.35802446      15.20850598       2.35671566       1.86631207      -0.78001236
O        2.78234394       4.64869374      16.69498869       1.15347933      -0.21820340      -0.13322631
O        5.41193517       7.45148572      17.89534908      -0.68583725       0.24516781      -0.37317227
O        7.40048158       5.39789526      10.62189479       0.92232232      -0.53584840      -0.09220929
O        4.53401681       2.56436536       9.61058324       1.68007133      -0.35287638      -2.52621009
O        0.46108266       7.17036903      10.44801153      -1.42355743       0.33761478      -3.89255201
O        2.17677371       0.55547244       2.88398602      -0.53896906      -0.06866505      -3.55032342
O        0.12398433       2.33703396       9.82229700       1.59743493      -0.93634625       0.36172093
O        8.12274667       9.57987850      24.58749583       1.11813640      -1.17659307      -0.46825456
O        9.38873142       8.41223688      22.11289338       0.18455471      -0.41552423       1.18880439
O        1.98500924       1.36671761      11.97065339      -1.83592143       1.72816955      -1.06798601
O        1.00772826       1.67236333       5.07223839       1.95082999      -2.64501863      -1.15397714
O        8.51879262       9.07151306      15.90891494       1.51593267       0.34576578       0.43430451
O        3.66035392       3.87753500      11.63600917      -1.67610126       1.11243982       0.21710136
O        5.70985951       6.54657016       9.14380260      -1.01167324       0.40613737      -0.28575174
O        6.72769056       5.98742851      15.65257941       1.28886743      -0.45523406      -0.86046790
O        4.45425942       3.20718264      18.32303936       1.15372119      -1.29797612       0.28852474
O        9.07192869       3.46389378      11.79922845       0.60954871       0.51256388       0.55086314
O        6.66562545       1.44313307       8.34110250       0.97794688      -0.93300084       0.62287645
O        1.28095813       6.16177295      15.41271705      -2.75687061       2.08660857      -0.92734688
O        3.26560871       8.90437375      18.96720033       0.97791120      -1.65493411       0.22077390
O        8.49762315       4.14940247      15.58953618      -0.05337168      -2.27087050      -0.73512170
O        6.33422418       1.32016955      18.99797659      -0.30829267       1.41303597      -0.06092631
O        2.27607761       6.10999616      12.18289250      -0.19840779       1.70839865      -2.08330021
O        3.89572746       8.34658917       9.06226373       0.13940275      -0.06999936      -0.38230122
O        7.42464940       5.06477378      13.27528272       0.05875497      -0.81548251      -1.64021439
O        4.70971183       2.60236829       6.95197769       0.15608086      -0.47453336       1.02996644
O        2.64518841       4.49004255      13.91063175       0.59367479      -0.69655795       3.42941998
O        5.25972633       7.72951070      20.64387156      -1.66469706       0.24642968      -2.93100394
O        0.55279709       3.04954091       7.26099158      -1.44064238      -1.94817083       3.88007673
O        7.58532407       9.27510723      13.48592720       0.10307869       0.16579251       0.44032044
O        0.29487590       7.35179162      13.12540077      -0.61075475      -0.82720324      -0.31724463
O        3.21583422       0.47559217      14.30799148      -0.27037962       0.86512386      -0.89179767
80
Lattice="9.77192453 0.01751879 6.90363604 0.24348012 9.76890588 6.90363604 0.01370155 0.0133883 13.86910312" Properties=species:S:1:pos:R:3:forces:R:3 energy=-576.06681468 source_file=vasprun.xml step_index=475 time_fs=94950.0 time_ps=94.95 file_index=47 pbc="T T T"
Na       8.49794824       9.36504867      18.62325564      -0.15989624      -0.16215393       0.33074643
Na       6.09065409       2.79179325      14.63087324       0.32609337      -0.31040903      -0.12289295
Na       3.86672080       0.56570264       8.10492850       0.05581566       0.26095505       0.14387534
Na       8.00552216       7.74272890      11.67077047       0.17157527      -0.22894571      -0.07163308
Na       8.88727725       3.82353490      20.66288254       0.18727597      -0.61735130      -0.80112167
Na       2.53832897       2.56234975      15.52602850      -0.34252585       0.03193829       0.27029445
Na       2.41889645       5.66348447       7.36263645      -0.20693740       0.13588920      -0.25977854
Na       4.08000057       7.67090008      12.98381982       0.18258715      -0.02287841      -0.06101824
Al       7.57296164       5.22051458       9.04795150      -0.94368974       0.95407106      -0.75794204
Al       5.01431434       3.04895222      11.65504417      -0.31562076       2.47232377      -2.60886156
Al       3.30525547       4.94403328      18.39485251      -2.28365466      -2.27133685      -0.37078145
Al       5.81374905       6.98210166      15.73563181       0.69724619      -0.44992366       0.16527535
Al       0.77874273       2.35261405      11.25893097      -0.41850173       1.35040374       0.58343047
Al       8.52636883       9.42104561      22.67999610      -2.18021379      -1.03213411       0.61276194
Al       0.37672383       7.67695391       8.91385729      -0.13948473      -0.65120963      -0.20978229
Al       2.61938151       0.58797136       4.47665273       0.77120326       0.80780258      -0.84306095
Si       2.91363293       5.57839040      15.21606431      -0.31562810      -1.94069315       1.04538738
Si       4.63997901       7.65871822      18.69843907      -1.45445924       0.58894010       5.24753062
Si       7.84935245       4.49591271      12.21041391      -0.45934369      -2.29215992      -2.88204613
Si       6.23666581       2.38446233       8.73549595      -0.48837147       1.04280717       0.93819304
Si       1.12566575       7.53454010      11.99247358       2.71589840       1.38708739       0.22407006
Si       3.12349264       9.35055195      22.18034432       1.10885126      -1.07703053      -2.04432153
Si       9.64646015       2.40985707      15.05830852       2.17741262      -3.27427759       1.42313467
Si       7.71046838       0.99601999      18.69029431       0.43841812       0.82405004       4.62109533
Si       0.86963453       3.10622092       5.40164076       1.54848515      -0.42014893      -2.53002858
Si       7.49557493       9.37605007      14.79768072      -0.94099782       0.62472021      -2.60499679
Si       0.24886787       6.96625937      14.72206635      -3.70396287       0.82707254       1.75928607
Si       3.26847219       0.95062382      12.53130033       1.10813706      -2.57333406       1.69590239
Si       8.55383890       5.29911061      14.91222309      -2.36145195      -0.54137719       3.05435340
Si       4.98202377       2.38240173       5.79999771       1.70688645      -2.88356380      -0.25563281
Si       2.39187534       4.74134952      12.33836878      -3.82482966      -2.84807323      -0.51992557
Si       5.82460360       7.61864224      21.59188190       3.47998747       3.61966534      -0.72020673
O        8.86352131       5.70437304      21.70266313       2.03234829       1.27406693       0.61320426
O        4.66768908       1.80474498      12.72470960      -1.08455727      -0.98079502       1.08030860
O        1.67894818       4.46546065       5.30603489       1.66570146       1.31948056       0.47873503
O        6.11036885       8.48797073      14.85077146      -0.45857822      -0.46124156      -0.35787512
O        0.92553933       3.95348865      11.99371645       1.39064335       1.19269713       0.36206887
O        7.09009793       8.80025902      21.91654462      -1.54742640      -1.56729809      -0.84040342
O        0.17677227       5.93824480       8.41947838       0.78914076       0.61735339      -0.06720239
O        4.09670788       0.98004095       5.56523817      -1.61499886       0.21341516      -0.31059769
O        3.37263636       6.55210888      18.87624577       1.55684485       2.02902123       0.73162023
O        4.36385726       6.27907354      15.02009373      -0.51901445      -0.34048606      -1.03792249
O        7.43862996       3.47038788       8.77731597       0.04039189       0.07486523      -0.89614899
O        6.40097200       3.72967501      12.58238650       1.53849366       0.44885322      -0.68044132
O        1.86400335       8.31260028       8.29214919      -0.11469938      -0.68300260       0.41085866
O        2.24499678       8.78079495      11.94097094       0.12442783       0.48081785       0.59008784
O        9.14154855       1.73399048      18.89139576      -1.16955352      -0.10469774       0.35139904
O        8.81429360       0.93492990      14.78877067       1.25137178       3.15352806       0.33988490
O        2.71092788       4.74212974      16.66747182       1.72295959       0.08941824      -1.46132574
O        5.19845133       7.44774977      17.28339844       1.48497788       0.32545412      -1.76082306
O        7.66556713       5.30783818      10.79852437       0.17749020       0.99394143       0.54218913
O        5.06201177       2.64689685       9.81762152       0.65853258      -0.08514894       2.79627539
O        0.35840313       7.62741414      10.65345947      -1.65014877       0.15063392      -1.83277651
O        3.15866733       0.52259884       2.62492200      -0.91143017       1.20235162       3.52013999
O        0.80639071       2.44614747       9.59485499      -1.99965543      -0.14411309      -5.03682493
O        7.88123038       9.78685378      24.41544640       0.64192439      -1.97262541      -3.30765542
O        9.63285538       8.09958324      22.77146901       0.15476528      -0.45250306      -0.38567175
O        2.24946567       1.58774527      11.52311530       1.40950655      -1.10125213       0.24957627
O        1.52083878       1.98216206       4.38788561       0.16675533      -0.77867842      -0.08151690
O        8.73756940       8.49905212      15.22707944       0.53794135       0.23658829       0.70239877
O        3.69137879       4.30881283      11.65700279       3.09213467      -1.15861889      -1.60963142
O        6.20374658       6.26269511      22.30133740       0.35731173      -1.89785641       1.48601709
O        7.18827225       5.85360533      15.74332098       0.95988025      -0.40587564      -0.65000642
O        4.43121936       3.76563594      19.17004209      -0.77496542       1.62132130      -1.18164013
O        9.13817802       3.41619649      11.86645381      -3.50932838       0.99360575       0.46521937
O        6.86206343       0.88003396       8.87579869       0.96733836      -0.44476672       0.02319674
O        1.75555753       6.72390155      15.29587458       0.38239940      -0.41020416      -1.74807939
O        4.09224502       9.18721451      19.21612670       0.29649863      -1.57910856      -2.19743081
O        8.54739528       3.58246171      15.08588552      -0.88159615       2.30269890      -0.36174346
O        6.44649218       1.94831313      18.92584659      -1.41042761       2.34915281      -0.36740504
O        2.18030290       6.30637156      12.24898146      -0.53531648       2.32470036      -0.34393253
O        4.57324217       8.52928059      22.07213173      -1.94516097      -0.56994515      -0.14921225
O        8.18409134       5.54780097      13.37779038       0.28411204       0.92135771      -1.45026355
O        5.25957824       2.41699574       7.43933873      -0.24382278      -0.09925263      -1.87780586
O        2.53083225       4.45122880      13.90849373       0.97036568       0.92663072       5.03445724
O        5.81660889       7.34245577      19.94946584      -1.41082002       0.26266055      -1.42886686
O        0.92180504       2.44394675       6.83017710      -0.66516310      -0.51726295       3.79655897
O        7.44536144       0.05421215       6.26693125       0.44594263      -0.86062086       0.87454867
O        9.76650490       7.69240387      20.05082989       0.84461301      -1.00489764       2.00457636
O        2.52930904       0.63419137      14.00383584       0.39327525       0.77714362       0.52677885
80
Lattice="9.77192453 0.01751879 6.90363604 0.24348012 9.76890588 6.90363604 0.01370155 0.0133883 13.86910312" Properties=species:S:1:pos:R:3:forces:R:3 energy=-575.28332631 source_file=vasprun.xml step_index=565 time_fs=47130.0 time_ps=47.13 file_index=23 pbc="T T T"
Na       8.07807719       8.94729731      19.38914755      -0.42877877      -0.29225217       0.28637042
Na       4.23075926       2.77880005      15.85202270       0.18888124      -0.29807251      -0.00424427
Na       4.96250253       5.96907907      12.86249289       0.47344934      -0.13080670      -0.34202840
Na       3.34736922       9.10693810      14.14933724       0.29564344      -0.05060602       0.40654682
Na       8.31990488       4.53092383      20.05157854       0.17316202      -0.48533984       0.10196803
Na       8.75426654       1.64968770      10.02695836      -0.02019682       0.22844081      -0.14659903
Na       1.07924965       7.74789750      19.27131954      -0.37283052       0.04920517       0.19225265
Na       2.53475855       3.93291172       9.26284473      -0.05392239      -0.22839702      -0.17061158
Al       7.34160043       5.28315633       9.05974404      -3.28360978       0.24664194       1.33416032
Al       4.59869392       2.66525704      11.51200628       1.68914121       1.91981935      -0.74520868
Al       3.28621103       4.65331938      18.27068287      -0.84973889      -0.23401142       2.79948117
Al       5.58531291       7.31120892      15.87548433       2.02546078      -2.14780733      -3.18613122
Al       0.42877451       2.23467868      11.49376688      -0.20283478       1.62786219       0.59261854
Al       8.14568351       9.30568416      22.71869479      -1.51749378       4.65963308       3.23673746
Al       9.90942210       7.83774025      15.84701698      -2.52799943      -2.00952855      -1.29561386
Al       2.16409472       0.38068981       4.68057092      -1.98979975       0.76411781      -0.75825739
Si       3.01778800       5.51038863      15.29672739      -2.89183025       0.80706278      -0.60949505
Si       4.53787396       7.68251794      18.70276909       0.46934388       2.43401999       1.01014202
Si       7.42407645       4.41212326      12.11999945       0.61116006      -3.91949702      -0.01608658
Si       5.77227281       2.53386188       8.52782636       3.66819822      -0.12585208      -1.52544312
Si       1.13353725       7.37539380      11.97825211       0.94346574       0.23332142       1.87046577
Si       2.63487849       9.07408337       8.45473360       1.80695179      -2.99902849      -0.43262246
Si       9.26362816       2.49411176      15.49784606       0.76112693       0.85300086      -1.67790482
Si       7.54003115       0.70073173      18.70683868      -0.90022663       1.73143425       3.45204271
Si       0.61038192       3.03523181       5.57385630      -0.65883205      -3.09802063       1.47258880
Si       7.24288199       9.54663446      14.84374621       4.26375909       0.39354381      -1.35364182
Si       9.81014675       6.93575442      21.66121378      -0.49142190      -1.73692542       1.94084750
Si       2.73500129       0.45770568      12.76751654      -2.95048328       0.35289099      -1.43693085
Si       7.98940046       5.43033535      15.09762579      -0.25524043      -3.71349310      -2.14407644
Si       4.72328737       2.07566089       5.44115859       0.96630501      -0.78882731       1.86982054
Si       2.37468159       4.63554731      12.50536246       0.46279908      -3.19894382      -0.42246470
Si       5.55370966       7.88432674      21.71530287       3.58339147      -0.67327845      -2.41385453
O        8.75808706       5.69417213      22.13689935       3.22570758       1.61994628      -1.94566497
O        4.01858800       1.35351820      12.46055307       0.28245010       0.03608043       0.13174481
O        1.82639877       4.06032534       5.42123294       1.03131093       1.17024808      -0.95003842
O        6.09260922       8.53893433      14.67212764      -3.44048862      -2.35967651      -0.34413904
O        1.05512376       3.70219485      12.57875163      -0.78475596       0.01861213      -1.03619498
O        6.75374014       8.95576057      21.87783211      -0.94145204       0.37001244      -0.00630034
O        9.38357687       6.17348106      15.19347512       0.61190689       0.82438135      -0.18575101
O        3.54834672       0.93452131       5.53535655      -0.15896705       0.29801152       0.01881401
O        3.94000810       6.22125568      18.68837131      -0.56073168      -1.19736353      -0.02377038
O        4.19161107       6.53973856      14.95876525       1.66046418       0.91100707       1.18255971
O        7.10952733       3.62116362       8.39509951      -2.16675882      -0.22897577       0.75691434
O        6.16395391       3.37253177      12.13520694      -1.04665354      -1.06799198      -0.04141395
O        1.63754241       7.83152003       8.00925261      -0.38436752       1.63294042       0.46351482
O        1.70185587       8.83521368      12.54502405       0.43741625      -1.55761787      -0.33696005
O        8.54848798       1.96025884      18.72945326      -0.50388376       1.37091983       0.26832461
O        8.33123344       1.22646345      15.56874852       0.19542398      -1.46454224      -0.68499969
O        2.85226441       4.58349043      16.63996886       0.36139217       0.68297842      -2.75077304
O        5.01679016       8.15314755      17.14398284      -1.29603447       0.83023560       5.03084041
O        7.30300266       5.30741161      10.87462465       0.03985261       1.96410940      -4.51326258
O        4.75155612       2.48269728       9.71237195      -1.31243564       0.53812320       1.82084502
O        0.39897914       7.50337006      10.59890309       0.15660089      -0.06289883       0.46272728
O        2.45559369       9.65332475       9.89516581      -0.05096114       0.51500818       1.76827894
O        0.54028373       2.76716977       9.83816342       0.20330812       0.14992899      -0.75137368
O        8.20754679       9.46442020      24.52187257      -0.47563135      -2.29414927      -1.06881044
O        9.29478399       8.23171325      22.50016285       4.68502128      -4.00700107      -2.33660206
O        1.32348394       0.87113999      11.89847970       2.91187294      -1.39332179       1.56794468
O        0.81797313       1.57199377       4.68776796       0.17074681       1.44859907       0.17105399
O        8.34760366       8.80936894      15.83953799       1.99020482       0.23912337       0.05214167
O        3.50953215       4.09488011      11.43298346      -0.51330470      -0.48201217       0.42933183
O        5.95676318       6.45199527      22.28473508       0.91006877      -1.63002751       0.79639129
O        6.90030272       6.03374216      16.07702810      -2.25909520       1.08159014       0.19511411
O        4.49745940       3.42390551      18.44283490      -0.08188604      -0.43888712      -0.03958948
O        8.85491654       3.48292279      12.02701730      -0.26409496       0.65390198      -0.10002166
O        6.67864635       1.13426364       8.70083720      -0.53614814       1.42703618       1.07110036
O        1.64164159       6.50457512      15.12047892      -0.75978096      -0.09668211      -0.08844475
O        3.11158890       8.64948925      19.16356842       2.36309879      -0.72526806      -0.20321371
O        8.08393459       3.62933468      15.33694252       0.10711494       4.00183177      -0.31278726
O        5.92662913       1.26578281      18.54602627       1.45865562      -0.26165129       0.38491230
O        2.37992008       6.18401887      12.11215351      -2.10292866       3.23399849      -0.54664195
O        4.18171917       8.42513377      22.16854535      -2.90109728       1.05668082       0.86975165
O        7.33672970       5.40253785      13.32500286       0.77315564       1.90303554       5.21524452
O        4.99190020       2.44656687       7.11632837      -0.63374239      -0.01412409      -2.39971486
O        3.12712760       4.52516569      13.97084012       0.08794647      -0.44348074       1.06090664
O        5.77993564       7.94992331      19.95238492      -2.74048829      -0.89781032      -2.10499014
O        0.54478551       2.45021806       7.19800227      -0.63555051       1.02624178       0.04830462
O        7.74464487       0.17644762       6.49785539      -0.97357646      -0.45243855      -1.01365570
O        9.66496203       6.99304217      19.97796859       0.46517734       0.18848983       0.42367978
O        2.32555601       0.52221169      14.39864974       0.41982099       1.70807013      -2.29360833
80
Lattice="9.77192453 0.01751879 6.90363604 0.24348012 9.76890588 6.90363604 0.01370155 0.0133883 13.86910312" Properties=species:S:1:pos:R:3:forces:R:3 energy=-576.18710265 source_file=vasprun.xml step_index=595 time_fs=49190.0 time_ps=49.19 file_index=24 pbc="T T T"
Na       8.56895526       1.34137327      10.47595336      -0.08137475       0.32487147      -0.01433765
Na       4.47360694       2.88361886      15.70019733      -0.14256791       0.19000805       0.13846680
Na       2.57050400       6.05384268       7.37133277       0.08473046       0.39291294      -0.38496884
Na       4.43417244       8.62488150      13.54255688      -0.16079532      -0.54384573       0.35040444
Na       8.60858690       3.97526118      20.91222400       0.06212136      -1.58328936      -1.19755887
Na       8.01311996       7.76710492      18.90817856      -0.91060144       0.08357115      -0.16718002
Na       0.62495526       8.35059554      18.47457114      -0.10327113       0.32695108      -0.31402193
Na       2.63619447       3.38124390       9.50241154       0.10916552      -0.29043138      -0.05583238
Al       7.01197790       5.43555089       9.08156674       1.61482609      -1.38109245       0.35845683
Al       4.95919807       2.88952403      11.58134393      -0.14845369      -1.94800931       0.05383996
Al       3.28465696       4.76912411      18.40696931      -0.33086003      -1.60791646       0.13863414
Al       5.59390708       7.22999002      16.06540555      -0.50589269       1.00099534       0.41623582
Al       0.59172469       2.35080307      11.62735572      -2.92945552      -2.72074034       0.57175791
Al       8.06823008       9.69953968      22.88816768       0.35737999      -2.80643831       1.90425948
Al       9.72391923       7.74537758      15.90110381       0.68973802       1.34805650       2.12175147
Al       2.14510028       0.41352199       4.66582452      -0.07392745      -1.61479174       1.48720678
Si       2.75542486       5.89150379      15.51130486       0.97147820       1.00556550      -0.98157802
Si       4.84518202       7.72092891      19.00538871      -3.72998090      -0.61865116      -1.67132853
Si       7.50214672       4.37713590      11.98764716       1.84486297      -0.04294456       3.42100992
Si       5.75580684       2.56082195       8.51939969       0.46426276      -0.83458724       0.16521321
Si       1.06718827       7.22937637      11.93830654       2.41141831      -0.55444021       5.80391419
Si       2.73592632       9.10436815       8.51490543       1.35002617      -0.99637124      -0.37820077
Si       9.28761021       2.79507353      15.45093456       0.80878548      -3.11056740      -0.64966439
Si       7.58585505       0.65360728      19.12583490       3.63955381       1.92129398       2.21065257
Si       0.77662921       3.17256645       5.61657586       0.18045851       2.94649554       0.56965201
Si       7.50700015       9.47522269      15.07831109      -1.05397020       1.25419674      -1.26093306
Si       9.54811093       6.86498244      21.76810915       0.96909233       1.58800153       0.91175564
Si       2.87231377       0.54580124      12.58294956       3.02776002       0.25736521      -0.58823631
Si       7.80628357       5.43211911      14.81866896      -0.24906513      -1.06562464       0.92765979
Si       4.66392096       1.82862512       5.61222932      -0.33318292       2.52697733      -0.14842943
Si       2.53443122       4.57275128      12.70181195      -0.72742251       0.29060543      -0.60634525
Si       5.59814576       7.85145198      21.91715236      -3.01686770      -1.93763259      -1.12465243
O        8.55643346       5.62112138      22.07504885       0.74389820       1.18220026       0.84374697
O        4.31718779       1.36125149      12.28403554      -1.56095060       0.61916131       0.15815169
O        1.68275429       4.60190643       5.40671092       0.55651969      -1.19053117       0.60583970
O        6.23406951       8.50257058      15.07753365      -0.04236556       0.28427676      -0.65722098
O        1.26935028       3.47061213      12.69364558       1.23664405       2.05324525       1.09179856
O        6.44496030       8.93275167      22.63833843       1.02917024       2.10243004       0.89904949
O        9.08887698       6.46046794      15.06358289      -1.25892065      -2.59931916      -0.68290317
O        3.52506275       0.69602137       5.65394753       1.13952629      -0.42282177       0.18934119
O        4.16513811       6.12285093      19.09651551       0.58479451       2.04444540       0.07026295
O        3.97908533       6.97387716      15.51181646      -0.80267844       0.18237927       0.16306877
O        6.69359823       3.86793456       8.43198265       0.30930657      -2.24268002      -0.68916978
O        6.53569281       3.18077876      12.36713567      -2.01713194      -1.32773781      -1.14975261
O        1.45312842       8.16731436       8.26622428      -0.75368519      -0.27813443      -0.75525580
O        1.79131128       8.61759087      12.25713738       0.37682641       1.07133136       0.38428396
O        8.61288713       1.98166683      19.36559851       1.11544306       0.31275020      -1.04111732
O        8.52513088       1.30673586      15.30427366       0.94138802       1.00761519       0.04407774
O        2.70922957       4.89305745      16.73443211       1.02285176      -0.98764800       1.17494628
O        5.80144427       7.88923414      17.69783517      -0.20059062      -0.65695119       0.36658220
O        7.20659304       5.25916178      10.77388087      -0.48447154       1.47608253      -2.26275547
O        4.76098091       2.75028322       9.78063027       0.35702856      -0.26357645       0.59486512
O        9.90511087       7.32234196      17.68941666      -3.68633187       0.29760786      -6.23689536
O        2.64879995       9.73170105       9.98730023       0.61954581       0.36511425      -2.30195565
O        0.42020042       2.84152808       9.96591319      -0.52523402       0.76168432      -1.71576162
O        8.34091700       9.57196108      24.82541905       0.11321392      -0.93582298      -3.40878253
O        8.96425973       8.21320934      22.46733469       0.55665199      -0.27857459      -0.66775948
O        1.54912947       0.78207364      11.59551933      -0.00090581       1.52597170       1.64323023
O        1.45269695       1.95590290       4.79919862      -2.55796374       0.97134331      -0.21015974
O        8.73910553       9.22951394      16.06642071       0.82905580      -1.16056676       0.87592007
O        3.70284218       4.02634137      11.77943559      -0.09342368       0.37613598      -0.25013280
O        5.74046730       6.21591635       8.37980721      -1.08017664       3.41197888      -0.98592701
O        6.49332151       5.88615148      15.63126680       1.16113922      -1.67251028       0.33485308
O        4.25063796       3.13720412      18.48642987       0.12137673      -0.12531266       0.47808753
O        9.01109946       3.70669523      12.05681494       1.57751719      -1.63992509      -0.55890098
O        6.71424325       1.15031533       8.78764184      -0.40977628       1.87055946      -0.46853773
O        1.36253078       6.73133303      15.48489058      -1.49496318      -0.33500054      -0.95825768
O        3.46441173       8.81570235      18.97793987       1.48279950      -3.54205596      -0.29361146
O        7.91341244       3.64488939      15.27805627       1.18478388       4.07913033      -0.41534551
O        6.08955107       1.15816949       5.15601053      -2.33040640       0.51781173      -0.15121320
O        2.12804951       5.98853034      11.93393437      -0.41579487      -0.18867812       0.21116534
O        3.88123465       7.87260537       8.34253101       1.30222352       1.04722533       0.01137799
O        7.49976474       5.43642102      13.25057559       0.07907981       0.15611789      -0.30974528
O        4.80530605       2.36022875       7.19094890       0.32353631      -0.13958759      -0.34064670
O        3.15177058       4.96630415      14.16011363      -1.01807423      -0.41692781       0.54626796
O        5.76564748       8.14721397      20.22347692       1.17724747      -0.50504375       2.54557645
O        0.81314784       2.84653117       7.27397101      -2.12268511       0.44502880       1.39400926
O        8.12676856       9.51873053      13.54295648      -0.84688392       0.03831548       0.27008633
O        9.64167921       6.89084778      20.10843630       1.16915775       0.23413086      -0.25097844
O        2.92978985       0.42579401      14.28455034      -1.49082746       0.68043394      -0.11053110
80
Lattice="9.77192453 0.01751879 6.90363604 0.24348012 9.76890588 6.90363604 0.01370155 0.0133883 13.86910312" Properties=species:S:1:pos:R:3:forces:R:3 energy=-576.11846945 source_file=vasprun.xml step_index=175 time_fs=78350.0 time_ps=78.35 file_index=39 pbc="T T T"
Na       8.59419274       4.02115769      20.77349046      -0.33286780       0.14990305       0.11279292
Na       8.71261011       1.87773610      10.10270905      -0.53938709      -0.21949366      -0.12385591
Na       5.82921822       4.11314706      17.47442916       0.22452769       0.21255161      -0.03849809
Na       2.93976650       9.67203501      16.70963138      -0.19224775       0.15981090       0.27832623
Na       3.00039760       2.43873297      16.58398500      -0.33368345       0.02154330      -0.09155434
Na       6.22482686       1.22625124      13.52793002      -0.03539167       0.11092475       0.05988000
Na       3.84936252       7.68842135      11.92615274       0.71586654      -0.81561072       0.07189187
Na       0.97480863       6.22717361       6.88530638       0.65139185       0.09652235      -0.61385596
Al       6.89228942       5.20484195       9.39215307       0.91437362       0.42611326      -2.47781518
Al       4.39304884       2.91731888      11.58449421      -0.56550102       1.21375122       1.30172292
Al       2.59588880       4.78770937      18.83267070       1.48433259       2.21962489      -1.15097248
Al       5.40365016       6.86114151      16.14556656      -2.86551407      -0.10109608       1.42727565
Al       0.15969287       2.18909784      11.75231777       0.31609656      -0.22351020      -1.06054232
Al       7.85693665       9.47607286      23.03536020      -0.53130176      -0.29403358       0.76287627
Al       9.67450841       7.66904224      16.03461805      -1.76636002      -1.13626303       0.12983987
Al       1.96896539       0.31477856       4.81395700      -1.79758174       1.03773569      -1.13284229
Si       2.61240456       5.61187725      15.57327497      -0.77739089       0.08385704       1.46003159
Si       4.11630403       7.41688834      19.27357497      -0.19243614      -1.41863122       0.03450536
Si       7.25319714       4.28446435      12.19443480      -2.80757048      -1.37376876      -1.53231723
Si       5.40484742       2.55734713       8.68095542       1.58227257      -2.90804044       3.31354490
Si       0.78865282       7.34045031      12.24725600      -0.02543064       0.79918445       1.88040560
Si       2.51563309       8.96998943       8.65515687       1.24938396      -1.17196978      -2.39458919
Si       8.87582315       2.33428447      15.52041789       3.61512747      -2.69552323      -1.53266548
Si       7.11132874       1.07336547      19.07547958       0.40676220      -1.77805990       3.73916105
Si       0.31245917       2.87094074       5.76017330      -2.32767167      -2.32018873       2.46639064
Si       7.03970497       9.39505441      15.08458969      -0.62053062       0.09045062      -0.94550493
Si       9.46814417       7.01483119      22.00409153      -0.31306993      -3.73060106       0.71334396
Si       2.65710821       0.53202701      12.88279767       1.26816983       0.22557333      -0.97196018
Si       7.78434103       5.25123579      14.90460420      -0.54463360      -1.82236873       2.51956866
Si       4.35275968       2.32742633       5.65924745       1.06493165      -1.74571117       0.25046338
Si       2.06036783       4.57130735      12.73538377      -1.27780268      -1.34927681       0.95284988
Si       5.30613248       7.66536955      22.03004584       3.44416684      -1.87145238       1.09563055
O        8.27857781       5.83537198      22.30410113       1.77131041      -0.14878010      -0.58925415
O        3.92081895       1.57275907      12.67664749      -0.01118111      -0.63573840      -0.06170641
O        1.12790716       4.21105230       5.60255910      -0.67545237       0.81518053       0.61621300
O        5.94677918       8.23133423      15.44276177       0.81498609       3.37181827      -0.86019690
O        0.59649548       3.72495850      12.49412797       2.12267992       0.67786532       0.65422322
O        6.32231894       8.77739042      22.65736718      -1.31380251       0.27753120      -1.43915119
O        9.20748744       6.01416704      15.14721533      -1.32361116       0.78162175       1.38057012
O        3.46333368       1.03338654       5.04707787       2.76829279       1.72910422       2.30404885
O        3.00803675       6.25234829      19.83220717       0.81368055      -0.11976836      -1.64041236
O        3.98879364       6.36759897      15.22710223      -1.19079978       0.67471125       0.15859066
O        6.70852705       3.48204616       8.84228657       0.23901036       2.11568484       0.12204507
O        5.97374165       3.24322711      12.32154049      -0.41089906       0.04367223      -0.67573251
O        1.30811276       8.01395585       8.20765702      -0.43166676       0.02022816       0.65476264
O        1.89318138       8.59999138      12.49838008      -0.99403060      -0.66862091       0.32892867
O        8.37800962       1.99033878      19.48206121       0.90880356       0.36497800       0.04315014
O        7.96385053       1.05504797      15.04553570      -0.32379226      -0.26181315       0.98570458
O        2.62839987       4.90503496      17.08622922      -0.15833155      -0.12284496      -1.70298082
O        4.82649078       6.92065595      17.87114678      -0.06542620       0.49943009       0.04559504
O        7.06521197       5.36291184      11.03279193       1.02815399      -0.85854892       1.07478458
O        4.25576167       2.54158928       9.89730982       1.47711354      -0.36194687      -1.60762240
O        9.79433046       7.52065704      17.80396352      -0.79311093       0.53922868      -2.64079388
O        2.14984774       0.06231453       3.06887651      -0.04803178      -0.27217200       0.81683413
O        9.72765933       2.32926299      16.88335490      -0.44204541      -0.44688235       0.68306734
O        7.31608008       0.19727411      17.81695819       0.49732805      -0.72214997      -1.95271086
O        9.07458509       8.28019673      22.79230783       0.17667123       2.18955904       0.91994181
O        1.48783461       0.98841060      11.90093087      -1.67741571       0.93064452      -0.08827320
O        0.88253774       1.74891699       4.69894094      -0.85778046      -0.05996212       0.30151235
O        8.48221272       8.81444420      15.51317665       0.32996333       0.64174425       0.96730507
O        3.30884684       4.36665590      11.80310120       1.75618596      -2.35671981      -0.58949580
O        5.65343274       6.27196311       9.01653480      -1.90089924       1.37401425      -1.73955328
O        6.39019583       5.59308109      15.72921259       3.12957180      -1.94225664       0.61402945
O        3.87034385       3.62843504      18.70569777       0.65971584      -0.75546702       1.20623173
O        8.37615385       3.12349106      12.28322453       4.02956361      -0.92364919      -0.53605262
O        6.41562956       1.11170987       8.80552564      -0.87034284       0.03046712       0.84629575
O        1.20066963       6.49922503      15.77174545      -0.42665965       0.38354814      -1.88029899
O        3.17360781       8.79847132      19.10657596       1.31574794      -0.55186841       0.01180128
O        7.93626527       3.53971775      15.33808589      -2.05192693       5.02379327      -0.54330088
O        5.91018249       2.18137899      18.92206768      -0.87828059       0.08761304      -0.19162145
O        1.74026937       6.06694574      12.26803480       0.37998720       1.04985211       0.17157878
O        3.76135367       7.85570779       8.43143931      -3.22398532       2.36837423       1.61644305
O        7.29060469       5.25964041      13.39930206       0.81711253       1.80321126       1.81302697
O        4.66869861       2.51610632       7.30433899      -2.26019718      -0.09253233      -3.56332027
O        2.53156146       4.45589489      14.38131888      -1.36387525      -0.22012761      -0.78798120
O        5.36602947       7.58526531      20.35726722      -0.21966598       0.29447577       0.06388406
O        0.34593600       2.23999738       7.37469415      -0.59216084       1.44836697      -1.71990737
O        7.09337463       9.71918387      13.48077516      -0.33510273       1.29195653      -2.45879502
O        9.44916079       7.09575678      20.35081329       0.75385591       0.73314628       0.07736900
O        2.42678819       0.42396931      14.48547309      -0.01227495       0.09330084       0.30494111
80
Lattice="9.77192453 0.01751879 6.90363604 0.24348012 9.76890588 6.90363604 0.01370155 0.0133883 13.86910312" Properties=species:S:1:pos:R:3:forces:R:3 energy=-576.43873526 source_file=vasprun.xml step_index=600 time_fs=49200.0 time_ps=49.2 file_index=24 pbc="T T T"
Na       8.64482603       1.33883583      10.32662180       0.15865570       0.58282255       0.38837701
Na       4.50135393       2.92921035      15.64049651      -0.10798295       0.06299499       0.01178411
Na       2.52448508       6.03510984       7.36344303      -0.00547966       0.46078935      -0.39116368
Na       4.39214238       8.54368203      13.54188895      -0.17468675      -0.27464807       0.16812489
Na       8.54942104       3.88672792      20.77245362      -0.06700756      -0.56459148      -0.38306883
Na       7.99812132       7.83911383      18.85670322      -0.90351863      -0.01347610       0.03954692
Na       0.62778739       8.30826770      18.43992341       0.02901679       0.33801116      -0.26628838
Na       2.65063686       3.44657011       9.50746064      -0.29819837      -0.27604154      -0.03771059
Al       6.98547148       5.42893873       9.09209827       1.08359792      -0.95159946      -1.46881121
Al       4.97429848       2.84258271      11.59150881       1.45379001      -3.11479434       0.64482098
Al       3.24408615       4.64535270      18.42481214       1.13873821       0.56293790       0.36068082
Al       5.56351047       7.29631444      16.02105041       0.14945187      -1.01864547       2.71190958
Al       0.54463923       2.37318546      11.65109089      -1.86064154      -2.00778552       1.95855126
Al       8.04637431       9.57134146      22.92509193       2.18354476      -0.06808867       1.55403717
Al       9.73464001       7.75108442      15.92265235       0.54064441       0.45342132      -2.32129495
Al       2.18362918       0.37173757       4.65155028      -1.33898310       1.88969650       0.08521056
Si       2.79902225       5.89089957      15.54482292      -1.23167239       0.67130924      -1.43453729
Si       4.70596541       7.66538527      18.97641827      -0.11689488       1.51117153       0.44329766
Si       7.57923512       4.36744816      12.04967538      -1.47675105      -2.51578886       0.74829645
Si       5.71745425       2.57983516       8.53819762      -1.42951630      -2.82877606      -0.20456594
Si       1.03197254       7.31340969      11.92552048      -0.42771174      -3.03495923       1.69816075
Si       2.82153536       9.10003972       8.50796978      -1.94097840       0.30931758      -2.22211345
Si       9.25407264       2.70455625      15.53574382      -0.64321908      -0.63117451      -1.87710399
Si       7.67970972       0.65732701      19.13550839       1.48134426       1.01993155       0.62997653
Si       0.73026443       3.23977629       5.63397160       2.83167869      -0.06979923       2.37426830
Si       7.52781139       9.52699287      15.07412827      -0.85039138      -0.78464803      -0.66308912
Si       9.55155108       6.88999692      21.78317465       1.17286489      -0.44055122       1.01700886
Si       2.89732580       0.58324103      12.51398918       0.42535868      -1.46733378       1.32153440
Si       7.75267459       5.49677599      14.87538794       1.45395644      -4.22823190      -2.51782718
Si       4.74220347       1.79564527       5.60756148      -2.27470718       3.29572690      -0.83916476
Si       2.59117944       4.50368032      12.70242365      -0.72596404       3.32500334      -1.84247698
Si       5.56557282       7.91643738      21.85194628      -1.13323610       1.03962552       1.32011070
O        8.61539181       5.57309417      22.06211905      -0.53345515       1.04505694       0.91750290
O        4.33192377       1.22998745      12.27455632       0.44661951       2.73319949      -1.16488891
O        1.73147987       4.52134846       5.37233293      -0.68893389       0.36782773       1.74676148
O        6.32385640       8.42754736      15.08541901       0.84663768       2.32186471      -1.76635327
O        1.40222975       3.44576370      12.72917576      -1.29425039      -0.14488972       0.00991003
O        6.50184529       9.01010729      22.63202917      -2.90790809      -0.56833682      -0.76841978
O        8.99699558       6.41607827      15.07119550       1.99302346       1.36813141       0.61881651
O        3.54349777       0.71309277       5.62221562       1.53303146      -0.88437456       0.29567277
O        4.11264726       6.18002448      19.07845069      -1.07203832      -1.48964519      -0.16295381
O        3.93122597       7.09356344      15.52277965      -1.08852120      -0.82450577      -0.18965422
O        6.68298351       3.77474268       8.50878008       2.04429483       1.60917230      -0.92160191
O        6.53367817       3.03643841      12.45294718       0.41070821       1.71146853      -2.01247580
O        1.53083017       8.05917692       8.25146270      -0.97938317       0.57497661      -0.37351646
O        1.73757604       8.68385063      12.20299830       0.42932362       1.28971909       0.42787398
O        8.52937852       2.06158366      19.25330963       2.06132008       0.57580308       0.02468008
O        8.53076377       1.20942372      15.37921974       0.87345249       2.22267526       0.19846313
O        2.71061285       4.87706632      16.79000522       1.24605588       0.04393133      -1.00377225
O        5.70053362       7.95252774      17.73950532       0.18262804      -0.99621657      -1.52877345
O        7.12556525       5.20683265      10.76357004       0.34868371      -0.13617525       0.29354031
O        4.72314413       2.80879993       9.81999566       0.61449662      -0.95312986      -0.82609735
O        9.83732741       7.30203207      17.51587452       0.55038276      -0.64514111       3.32094965
O        2.34473453       0.05832048       2.97923054       0.47455294       0.90645247       0.43504024
O        0.40694968       2.83780085      10.05357321      -0.80658278       1.04463431      -3.38190663
O        8.40277388       9.61687260      24.76948141      -0.05958745      -1.03505140      -1.59517307
O        9.03962183       8.27520090      22.34206428      -0.08750268      -0.14606564       0.38533042
O        1.47781331       0.84899034      11.63652666       1.30812792       0.30596684       1.61671555
O        1.37595736       2.03221735       4.82669670      -0.62807786      -2.50676847      -1.00596177
O        8.74492516       9.22576931      16.09886091       0.15995952      -0.40912653      -0.14517660
O        3.82591632       3.99132210      11.86258683      -1.48070571       1.60107743      -0.18596182
O        5.80540459       6.40571193      22.20182134       0.92505175      -1.62180360       1.02064512
O        6.51653889       5.86354687      15.70060674      -3.03094069       0.60207772       1.72290938
O        4.18559710       3.17935661      18.57393070       1.70688772      -1.97344164       0.29235154
O        9.05841130       3.64917463      12.13388973      -2.66219458       0.24745671      -2.12710328
O        6.70243289       1.16173391       8.77138637      -0.75641617       1.81207051      -0.45416400
O        1.31081429       6.67437360      15.50063389       1.07120789      -0.83872652      -0.03671139
O        3.44770615       8.77951488      19.03525120      -0.30441141      -1.98599181      -0.18692853
O        7.93185549       3.76892010      15.30923496       2.11739764       1.02307083       0.23096200
O        6.13530491       1.13022079       5.18805216      -1.09452533      -0.10036196      -0.40551304
O        2.12366752       6.07357233      11.97120831       0.08596425      -1.60775918       0.15005412
O        3.86342647       7.87404738       8.44878653       3.41545911       0.60986326      -0.72984341
O        7.63408760       5.44657982      13.19099332      -0.62179170       1.52307570       2.85912062
O        4.82684035       2.39901627       7.11748739       0.94744462       0.12266143       2.17810872
O        3.13731578       4.94413843      14.11281817       0.07920475       1.03930332       4.00270956
O        5.75490804       8.01988745      20.24632319      -0.38147772       0.29427565      -0.82804437
O        0.68658362       2.86601521       7.30234215      -1.15543538       0.39420558       1.59415703
O        8.12731540       9.46039307      13.52474018      -0.31906560       0.84854814       0.09937833
O        9.76587675       6.96176363      20.19320324       0.19334224       0.55552432      -3.47542663
O        2.90893762       0.57490034      14.28997655      -1.25657268      -1.14447442      -0.13199865
80
Lattice="9.77192453 0.01751879 6.90363604 0.24348012 9.76890588 6.90363604 0.01370155 0.0133883 13.86910312" Properties=species:S:1:pos:R:3:forces:R:3 energy=-574.72806057 source_file=vasprun.xml step_index=65 time_fs=50130.0 time_ps=50.13 file_index=25 pbc="T T T"
Na       1.63607307       2.26984457       2.96001049       0.22101896       0.13016299       0.15433641
Na       6.96828183       4.79614633      18.44249399      -0.22656385      -0.04106501      -0.50177395
Na       9.72855093       6.54849835      12.04098653      -0.32188019      -0.51473812       0.26884589
Na       4.40079910       7.71164845      13.15758467       0.08297399       0.21885060       0.23304935
Na       9.00168590       3.26401564      20.84186245      -0.19691538      -0.18850835       0.07237559
Na       6.80842504       0.65581927      12.55648043      -0.09601430       0.23387178       0.31085996
Na       1.31209172       9.31950701      16.47966569       0.65538019       0.68638677       0.32894711
Na       2.40300520       5.47019610       9.02588244      -0.12543658       0.17581586       0.11160600
Al       7.49121399       5.38651655       9.34467665      -0.75096112      -2.30320899       0.38818086
Al       4.63424017       2.64363737      11.45482371      -2.48544410       0.45053609      -0.36023102
Al       2.89139186       4.61219833      18.51466263      -2.99116919       2.13560164      -1.26299954
Al       5.84371880       6.85969770      16.23566587      -2.76343789       1.72527347      -1.75461917
Al       0.70530205       1.98487203      11.55225338      -3.06275191       2.15793351       0.73111551
Al       7.88934603       9.61185926      22.62858428       2.01725768       1.64526042       1.74824268
Al       9.43973582       7.92987362      16.10449688       0.71126676      -1.05429174      -1.31253455
Al       2.29143248       0.03784250       4.89167534      -0.11700012       2.43035390      -0.19406073
Si       2.85531141       5.80027987      15.39768673       0.59562757       1.20734356       2.43149188
Si       4.62367471       7.09433287      19.29442919      -3.89120331       0.72629719      -0.65491088
Si       7.41648309       3.91204031      12.20952021       2.56400178       0.45829244      -0.77599879
Si       5.76504038       2.71466972       8.47945928      -0.57104204      -2.88723561      -2.12999529
Si       0.97713047       7.11519028      12.07752977      -0.25964144       3.88602237      -1.85268847
Si       2.63269948       8.88130050       8.64959813      -0.93652511      -0.35784652      -1.78489029
Si       9.36678648       2.67967444      15.53013696      -1.53291479      -2.72424994       1.79940335
Si       7.42888690       0.80805070      18.92878982      -2.56592378      -0.19413613      -1.36025770
Si       0.43018429       2.76587322       5.83531720       1.62975645      -2.42421647      -3.66134952
Si       7.32656658       9.49671979      14.80951421      -0.94191694       0.55628528      -0.19262112
Si       9.90083115       7.13118861      21.98458169      -0.42838300      -1.05400541      -1.04544124
Si       3.03980147       0.23998598      12.75231859      -0.48503652       2.92854149      -0.35991532
Si       8.00648955       5.25987458      14.95509719      -2.02140950       0.96216458       3.83733378
Si       4.59844623       2.20827966       5.58715014      -0.63539870      -2.06906486       3.45732703
Si       2.22627023       4.56348441      12.54294030       0.08474170       0.12593783      -0.57591574
Si       5.65772014       7.57412202      21.98448092       0.33099847      -0.52205173       0.24373367
O        9.05325265       5.96641436      22.80608776       1.46934982       1.23888082      -1.93427475
O        4.34332134       1.21091167      12.42401535      -0.33497904      -0.80644808      -0.02199323
O        1.12777092       3.95630643       4.97572016       1.28223921       1.62896594       0.26392202
O        6.43354794       8.32005002      15.46102532      -0.92839897      -0.64183540      -0.31614533
O        1.08665631       3.46985731      12.45147641      -3.38621143      -1.14949306       1.19641242
O        6.61890183       8.90522901      21.69629984      -1.11665409      -0.65043084       0.15636800
O        8.77653159       6.59223590      14.78390694       2.01038207       3.68469629       1.06582292
O        3.89237865       0.75327035       5.43577907      -1.84713815      -1.78200480      -0.53912286
O        3.36389873       6.03770350      19.47708572      -0.11754928      -1.02752034      -1.05432521
O        4.27589102       6.52473799      15.11366646       1.04207251       0.46711297       1.34203341
O        6.69226971       4.02635830       8.42371016       1.71039409       0.08138375      -0.53679107
O        5.99734194       3.29858703      12.14078869       0.71806479      -0.43825584       0.98543203
O        1.35209939       7.72478498       8.61447650       2.37034239       1.42517226      -0.78638167
O        2.15695906       8.23894116      12.37579793       0.36347298      -0.00110942       0.30011684
O        8.67598584       1.70110541      19.06606475       4.41130714       2.81375277       0.85613685
O        8.11755529       1.57411842      15.33870096       0.52623580       0.15529011      -0.62619549
O        2.72390420       4.76638707      16.64287505       0.19707798       0.24485003       1.07145627
O        5.39297013       7.03754094      17.90557761       0.69321131      -0.30557195      -0.07712838
O        7.85045237       4.81986234      10.93232809      -0.17007751      -0.02429134       1.11144279
O        4.86691494       2.60964941       9.75436840      -0.67848226      -0.20990658       1.56507179
O        9.65614469       7.53002198      17.83364591      -0.46807305       0.05308005      -0.41489732
O        2.29383460       9.68460328      10.00315770       1.35217821       0.60210246       0.11695649
O        0.48841085       2.11724848       9.87367052       0.04320501       0.36363313      -1.16773597
O        7.85193021       9.74661951      24.45774279      -0.81105953      -0.87647919      -1.61873856
O        9.39831483       8.65166372      22.14514144      -1.04091765       0.48044972       1.05470725
O        1.74148022       0.74297065      11.77781318       2.71350793      -3.04155119       1.30916607
O        1.09796685       1.35009177       5.17064567      -0.43026686       0.79011734       0.73244495
O        8.69709393       9.43237247      15.57992449       2.84286813      -1.01555631       1.09363829
O        3.28393644       3.77136121      11.71127751       2.82641760      -0.14736056      -0.73071740
O        6.27431633       6.52643786       9.25799555      -2.36392075       3.26024438      -1.31939885
O        6.73979613       5.46171611      16.09624736       1.94914623      -1.56344652      -0.83788957
O        3.84127591       3.29602514      18.59647025       1.91925486      -1.23030500      -0.24959111
O        8.62489543       2.73799593      12.36594145      -1.89891757       0.01647809      -0.25453134
O        6.57300029       1.19452577       8.29695741      -0.94001136       3.11799845       0.44454914
O        1.66658707       6.98579905      15.60134107       0.61159885       0.64681669       0.85176002
O        3.64897196       8.53592197      19.24554216       1.76795050      -2.93972670      -0.00333315
O        8.92848795       4.21727941      15.71845519       0.41739225      -1.02835562       1.55712890
O        6.13252474       1.91514311      19.10647969       2.59611740       0.13349348      -1.45797033
O        1.83043417       5.88699320      11.62343553       1.30242957      -2.71385024      -1.02869937
O        4.03136241       7.97225456       8.37183909       0.42973559      -0.04471845       0.86708033
O        7.58821605       4.82179928      13.54035237      -1.25788460      -0.80797567      -2.42470529
O        4.60852149       2.59279722       7.26742538       0.38440640       0.85898491      -1.76460584
O        2.43036136       5.14135237      14.04711124      -0.59086114      -2.00720571      -2.53661767
O        5.61708856       6.71352503      20.50845039       0.73568486       1.21226724       1.35619784
O        0.59107080       2.84190444       7.39639613       1.57929738      -0.17358636       0.20836988
O        7.46939893       9.51394440      13.15296798      -0.38864695      -1.80373282       1.47996077
O        0.24143350       6.91012004      13.43065833      -2.25697274      -1.28902772       2.89736261
O        2.61841865       0.41765316      14.35309941      -0.75062790      -2.07445212       1.46342582
80
Lattice="9.77192453 0.01751879 6.90363604 0.24348012 9.76890588 6.90363604 0.01370155 0.0133883 13.86910312" Properties=species:S:1:pos:R:3:forces:R:3 energy=-576.03850849 source_file=vasprun.xml step_index=720 time_fs=11440.0 time_ps=11.44 file_index=5 pbc="T T T"
Na       5.85731843       3.91904870      16.89527725       0.21097119       0.24827306       0.10878651
Na       7.12311500       1.46227868      13.57635713      -0.16595782      -0.01071841      -0.11719449
Na       3.22276816       2.10916644       8.63163895      -0.93167588       0.08299439       0.11398978
Na       7.61179162       7.33951353      11.18052249       0.15067762       0.71746311       0.40836533
Na       8.93941658       3.83096376      20.56774617      -0.13880390       0.18504421      -0.30125311
Na       2.04026631       2.22047645      15.01861224       0.35085519       0.13523059       0.28594093
Na       1.83990630       5.95731813       7.24795608       0.69812975      -0.11589688      -0.70889050
Na       3.89472343       8.50481141      13.71289450      -0.06744329      -0.31119114      -0.30974731
Al       7.88659574       5.53198534      22.76219047      -0.68557702      -1.41085964      -1.25667805
Al       4.84886333       2.91594711      11.73683031       2.49529358       0.82585352      -2.11243027
Al       3.12120557       4.83001287      18.52187392      -0.91884928       0.55711661       0.34093553
Al       5.90870814       7.21788367      15.87033113      -0.85854702      -0.30229308       0.71463705
Al       0.87100160       2.43658211      11.36681285      -1.56152708       1.55866585       0.65654769
Al       8.51790723       9.72956087      22.87779130      -0.43367197      -0.96108040       0.51077585
Al       0.41040748       7.69151869       8.94984241      -0.76444698       1.62075641      -0.04194339
Al       2.72374981       0.54257092       4.33110812      -1.67675242       0.41621568       1.37577165
Si       3.12936333       5.83541735      15.37709987      -0.98415941      -1.48307963      -1.50895887
Si       4.54694421       7.51161439      18.73776363       0.19216551       0.40630626       4.21077511
Si       7.76506045       4.33663485      11.93931302      -1.81225929       1.01679877      -1.15857808
Si       6.09582087       2.76583329       8.59114305      -0.36265010       0.18312677      -1.70951929
Si       1.30793640       7.52752927      11.88564540       1.76200901       0.78302886       4.23001448
Si       3.39420910       9.04542729      22.30181670      -1.83809920      -2.18713385       1.73563189
Si       9.75422068       2.77213070      15.29265320      -3.50973711      -1.66469511       0.50901191
Si       7.73559494       0.92394164      18.81399644       0.97740422       1.42188111       3.02300779
Si       0.85301537       2.94594431       5.43896532      -0.39222667       0.04371214       0.51481948
Si       7.68677288       9.70174632      14.89075245       0.23858896      -0.87107292      -0.30091523
Si       0.39921192       7.24995532      14.93829389       0.50872562       0.45449751      -0.68848879
Si       3.37553437       0.53804010      12.55544388       0.41116431       4.08711022      -0.48661356
Si       8.25435319       5.66359644      14.76696378       0.87679521      -3.52883091      -3.37071801
Si       4.93767911       2.31218561       5.73188642      -0.73838899      -1.17578180      -1.56286915
Si       2.44282048       4.81934355      12.64524267       0.08623152      -1.06506393       2.54730803
Si       6.18115772       8.13616247      21.54518335       0.59075254      -2.18619888       3.26696739
O        9.52308586       5.78258411      22.17508259       0.01869542      -0.28931815      -0.81951551
O        4.75386378       1.58349491      12.79292030      -2.74604338      -2.81187592      -0.45353096
O        1.80682940       4.18726366       5.69161545       1.09298856       2.07654276      -0.87636891
O        6.35653926       8.69486878      15.10057520       0.47695592       0.94169162      -0.15141298
O        1.04105437       4.12602309      12.21140636      -0.51131092      -1.22187013      -0.25441660
O        7.15173875       9.44022604      21.78779595      -0.95459742      -0.65553416      -0.69148313
O        9.50747445       6.61671927      14.49571143       1.51620235       0.89727271       2.50871189
O        4.04717172       0.93649870       5.44454707      -0.05885993       0.28067860       0.19312664
O        3.34083910       6.44405296      19.19607918       1.40196825       1.03380126      -0.54101518
O        4.60771982       6.37333827      14.96357097      -0.11405631       0.95521701       0.48102814
O        7.01475671       4.03697049       8.24920597       1.03662013      -0.07463405      -0.36674408
O        6.59301671       3.14993442      12.20264671       0.94641262       2.25842958      -0.72743371
O        2.19550023       7.83641219       8.57793754      -1.03447763       0.76419699      -0.11266189
O        2.36336191       8.77959452      11.90799018      -0.14297198       0.71173224      -1.11386760
O        8.98830535       1.95496098      18.68376353       0.80075962       0.86939772       0.89003713
O        8.58064982       1.57077140      15.54205230       1.45293463       1.26432084      -1.00921620
O        3.01861008       5.20144505      16.82533204       0.37966761      -0.89984611       0.93939718
O        5.62183059       7.14535145      17.63516857      -0.46646547       0.01739312      -1.34575159
O        7.57671146       5.27970985      10.52457738       0.31269854      -1.64523088       3.43537763
O        4.97897595       2.81594620       9.72604332      -0.19664085      -0.25504343       3.40124603
O        0.27006689       7.17580879      10.72652013       0.63992750       0.17412899      -1.60776892
O        2.95164973       0.39630646       2.64691061      -0.10037198       1.11537839      -0.33993722
O        0.92226944       2.71106207       9.66736964       1.66592366       0.43848528      -0.41954923
O        8.19265620       9.62132422      24.62552347      -1.28725094      -1.61099478      -2.20236137
O        9.51152027       8.31646784      22.91244831       1.27108241      -0.68084669      -1.15788419
O        2.08078399       1.38530731      11.88177227       2.45303316      -1.49037070       1.31100290
O        1.40594049       1.84761596       4.42895349       0.71795528      -0.90269761      -0.21477641
O        9.06934431       9.16109455      15.56107518       0.37424907      -0.77247577       0.48478339
O        3.69201052       4.07087671      12.08027050       0.90142272      -0.34629668      -1.43121364
O        6.98121317       6.78068336      22.15548258      -1.63603942       3.31032945      -0.80576501
O        7.11757926       6.01099392      15.78190606       0.28148086      -0.48895050       0.44967664
O        4.25836278       3.58471514      18.83992354       2.01093136      -0.51516860      -1.02999343
O        9.16512278       3.56569089      11.91896660       0.65145392      -1.06904706      -0.13334390
O        7.09190341       1.44836278       8.53734754      -0.45064160      -0.01140578       0.03183074
O        2.04184651       7.01336259      15.09899791       0.08435987       0.87565804       0.80399895
O        3.93125043       9.06455711      18.58177155       0.72554055      -2.81411311      -2.26881826
O        8.66242066       4.00989976      15.24381270       0.26940335       2.57705208      -0.89357701
O        6.44107987       1.94260949      18.92053497      -1.01762233       0.94247761       0.00702670
O        2.65215257       6.39452964      12.44671945      -2.85016334       1.69365504      -1.64079330
O        4.77007245       8.32156825      22.46098663       2.53639164      -0.46436116       0.69597455
O        7.82404030       5.59623000      13.02904923      -0.50224234      -0.77676965       2.06721898
O        4.86489162       2.68769570       7.29933896       1.99204027      -0.51762412       0.91374672
O        2.66928029       4.51966420      14.36547421      -0.21417889       0.91807505      -0.45261401
O        5.47223032       7.63454639      20.24665495      -1.03730165      -0.01993807      -4.50003663
O        0.81511739       2.45407390       7.03595099      -0.18993101      -0.70196321       0.22702476
O        7.72510836       0.01678354       6.35314060      -0.40208416       0.40819474       0.06952263
O        0.44744144       7.94369892      13.37390615      -0.33066921      -1.84000887      -0.41365882
O        3.07315344       0.03386993      14.01482916      -1.48618956       0.85554890       0.16071426
80
Lattice="9.77192453 0.01751879 6.90363604 0.24348012 9.76890588 6.90363604 0.01370155 0.0133883 13.86910312" Properties=species:S:1:pos:R:3:forces:R:3 energy=-576.46280724 source_file=vasprun.xml step_index=520 time_fs=95040.0 time_ps=95.04 file_index=47 pbc="T T T"
Na       8.30493460       9.29006853      18.62916361      -0.44620566      -0.10658940       0.11334560
Na       6.75062054       1.90628073      14.21242741      -0.76604110       0.42250137      -0.17666093
Na       2.82366352       1.45349001       8.53847596       0.76801506      -0.09666286      -0.48270227
Na       8.13249508       7.66331933      11.45112713       0.35627847       0.55822526      -0.00563390
Na       8.99113596       3.60601070      20.26485883      -0.31707292       0.49928355       0.11028439
Na       2.88969235       2.41638276      15.55426296      -0.17927118      -0.42619185       0.15759924
Na       1.78157856       5.48205908       7.53119621       0.11669368       0.34505873      -0.22722663
Na       4.56879632       8.67901287      12.91196994       0.13382950      -0.36296477       0.31563454
Al       7.52321221       5.36517459       9.03431569       1.41745757       0.74515596      -0.12649346
Al       5.20127327       3.00211703      11.63181729      -1.40897410       1.72990072      -1.29181049
Al       3.19451835       4.86325831      18.29890531      -0.16235476      -0.91861316      -1.79737527
Al       5.83093323       6.98204540      15.53659834       0.12459204       0.03113694       0.08619500
Al       0.95323470       2.31174611      11.34398082      -0.18849757      -0.71070747      -1.36922547
Al       8.11656496       9.36127745      22.55715908       1.22960765      -0.03342705       1.13646269
Al       0.27872263       7.75675932       9.36352014      -0.79249142       2.64696315      -0.46725989
Al       2.35715428       0.62020554       4.62953503       2.36985541       0.00478610      -0.61107714
Si       3.08737774       5.57373928      15.06524658      -0.98081259       1.20060813       6.86203971
Si       4.87171850       7.50727090      18.59025291      -1.75588984       2.25933121      -0.74064790
Si       7.86243351       4.55267289      12.09513828      -0.24728620      -0.84222420      -1.94784453
Si       6.22545729       2.44386499       8.58982191      -2.83225063       1.51780346      -1.51679959
Si       1.26510887       7.81224185      12.38552739       0.36348094      -0.58927149      -1.30117701
Si       3.05450388       8.91504905       8.57035956       1.09125779       2.71877426       0.46005465
Si       9.60792923       2.28680967      15.31451662       3.26734474       1.78186082      -1.33194995
Si       7.61580223       0.99172722      18.62585525       2.45612351      -0.09893533      -1.95607817
Si       0.70559387       3.01891102       5.31229682       0.74510685      -0.46102660      -0.19288755
Si       7.57630980       9.32077668      14.50506674       1.90887242       2.08206504      -1.53954511
Si       0.27818920       6.93751193      15.20623379      -0.31400448       2.71005114      -1.56884502
Si       3.36730255       0.65420485      12.70539434      -0.80531676      -2.70895429      -0.12916160
Si       8.47351451       5.36839402      14.95076956      -0.93371059      -0.91867143       2.12065851
Si       4.86678891       2.41843748       5.78612460       1.43518724      -1.68185619       1.36275632
Si       2.60026620       4.82469772      12.16094430      -3.20360776       0.28861180       2.01386065
Si       5.78094800       7.72178052      21.52754446       0.61306987      -1.86232654       0.57991839
O        9.09829369       5.73260264      21.94713887      -2.72579209      -2.49730909       0.75751365
O        4.50801682       1.73561334      12.50245048       1.05888565       0.49079595       1.63225375
O        1.54713728       4.48063715       5.30120834       1.19012294      -1.13656932       0.17785016
O        6.33876071       8.35793882      14.44876901      -1.90065358      -1.58005397       0.17138660
O        1.09621617       3.97338398      11.85378583       2.84269968       1.05552838       0.31022267
O        6.76633830       8.97783310      21.53338389       1.34325189       1.77900296      -0.83868526
O        9.70401632       6.22520901      15.72461268      -1.63730967      -3.09824822      -1.60057435
O        3.92346338       1.10030580       5.55965080      -0.77190156       0.06212231      -0.78904829
O        3.58028523       6.55077517      18.52365029      -0.45437771      -1.22742433      -0.27114805
O        4.25850182       6.63713253      14.78930190       0.57863920       0.16501424       0.22411012
O        7.00466679       3.84989713       8.37739295       0.84497029      -1.41825037      -0.06496098
O        6.43873192       3.78228138      12.54912623       2.61730229       0.34072232      -0.12544264
O        1.68411097       8.12208659       8.40902356       0.67149613      -0.77836334       0.47757936
O        2.31169063       9.04482625      12.57696423      -0.06387184      -0.88015386       0.58540204
O        9.06373358       1.97624597      18.43651527      -3.59137468      -1.77209150       0.97910535
O        8.57683413       1.15012331      15.16138705      -2.09817948      -2.08376125      -0.49146622
O        3.18025975       4.41899348      16.36512629       0.57608494       2.01352729       0.57680840
O        5.82780347       7.45367751      17.23617590      -0.68670933       0.52272826       1.40016838
O        7.88774089       5.61739964      10.84323732      -1.38180113      -1.12118280      -1.21474752
O        5.52226256       2.40383682      10.02403870       0.12997168      -0.21346772       0.95003968
O        0.33806250       8.29105673      11.09579532      -0.05286338      -0.88554414      -1.49307056
O        2.85107699       0.23971427       2.96311080       0.02517122      -1.65141423      -0.98010005
O        1.03934235       2.08946065       9.51963815      -0.36505586       0.41821877      -0.23244163
O        7.25465839       0.04358639      17.21449723      -0.03904733       1.59366525       3.14533780
O        9.44059091       8.24277577      22.92733131      -0.29935977      -0.62515346       0.18300459
O        1.95343245       1.20600936      12.19807842      -0.04688304       0.38045584      -0.56932365
O        1.26178019       1.85500359       4.26140206      -0.91852911       1.96224471       1.05844837
O        8.80238788       8.69043108      15.28230445       0.53405714       0.01947768       1.37436360
O        4.01603894       4.41123588      11.60092091      -0.02880066      -0.74870454      -0.98544386
O        6.38125263       6.54257089      22.44068508       0.19368751       0.15401753       0.10726781
O        6.92298117       5.59692861      15.51586086       1.93306279       0.18739517      -0.95518207
O        4.46691452       3.69571468      18.81584994      -0.94366046       1.35180747      -0.19689534
O        9.01494746       3.44226048      11.59301080      -1.18563224      -0.25722083       1.19957086
O        6.88993510       1.04839181       8.17349184       0.97512725      -0.63675889       0.11387047
O        1.70494860       6.41737899      15.67934939       1.94923599       0.27973943      -0.83428156
O        4.17685876       9.10257565      18.82613186       0.97887902      -1.67656069      -0.93975573
O        8.90289466       3.74784175      15.38953848      -0.71670425       1.59115121      -0.85606078
O        6.55221988       2.01668365      19.24493407      -2.69285217       1.28447492       0.26800473
O        2.12474774       6.42746806      11.96478580       0.22151196       0.15047899       0.09676743
O        4.44275042       8.08473731      22.29783160      -1.76526026      -0.42569390       1.13243393
O        8.42047454       5.50524556      13.26320420       0.92562209       0.54197930       2.76980657
O        4.78942679       2.57280900       7.50922368       1.64224994      -0.15174805      -0.57828840
O        2.72391519       4.69155750      13.88820075      -1.15924028      -2.68624964      -5.07725454
O        5.55236231       7.17355696      20.01911839       0.96918900       0.01215658      -0.24277586
O        0.63283442       2.18218804       6.81326563      -0.08826101       1.53825897       0.31980129
O        8.05155738       9.61718848      12.83825753      -0.21202959      -0.96454816       1.50841430
O        9.96964490       7.68346968      20.48055475       0.63072211      -0.77636554       1.35472865
O        3.05390510       0.14202801      14.23610693      -0.06240931       1.66725415      -0.10915539
80
Lattice="9.77192453 0.01751879 6.90363604 0.24348012 9.76890588 6.90363604 0.01370155 0.0133883 13.86910312" Properties=species:S:1:pos:R:3:forces:R:3 energy=-576.88145207 source_file=vasprun.xml step_index=930 time_fs=33860.0 time_ps=33.86 file_index=16 pbc="T T T"
Na       8.94023423       1.30033009       9.76972411       0.09966584       0.12723981       0.29019557
Na       5.32552795       3.15156869      16.34739514       0.28197452       0.16697481       0.10576833
Na       4.17392450       5.84559902      10.52972173       0.35504549       0.72589788      -0.78018555
Na       0.81578627       8.96586164      17.41906850      -0.02042690      -0.17258513      -0.20743852
Na       6.25951360       0.84265202      12.97017107       0.18431230       0.01373253       0.40933239
Na       9.06118837       4.44254846      20.04322618      -0.20665341      -0.43399827      -0.07106812
Na       1.40114571       5.78044739       6.76120648       0.04441225       0.12974612      -0.00857920
Na       4.38236970       8.86458982      13.84546102      -0.38045871      -0.23750316      -0.31689719
Al       7.35804336       5.18069047       8.95905312      -0.40797359      -0.82391099      -1.17618835
Al       4.64148544       2.80891917      11.20398012       0.86434281       1.18133143       0.29577535
Al       3.03839362       4.64919981      18.09702818      -0.65611646      -1.47792213       3.64981864
Al       5.71144459       6.89976420      15.91203842      -0.95372212      -2.35800258      -1.69861929
Al       0.49220427       2.08555412      11.16208508      -0.62912106      -0.45621416       2.84611894
Al       8.06100375       9.54493775      22.51663128      -0.88629050       2.85543538       0.95258242
Al       9.78055596       7.58845862      15.98611949      -0.06936387       2.65285226      -1.30266893
Al       2.35248111       0.32623015       4.36152756       0.69442549       1.66778012       0.64364975
Si       2.65232852       5.71722739      15.26477504       2.52839234       3.55056482      -5.35826897
Si       4.22945739       7.20170949      18.69822888      -1.68450168       2.71514786       1.56935776
Si       7.46864911       4.01922231      11.86627825      -0.90303849      -0.28329416       2.25510298
Si       5.79170530       2.51450700       8.34283118       0.58667184       1.32966280       0.61564399
Si       1.08866185       7.45178957      11.90564547       1.14823569      -1.59432688       0.85269600
Si       2.90154519       9.16932608      22.21204704       0.33594315      -3.23393904       0.21065274
Si       9.53830362       2.44897595      15.30164018      -2.25235644      -1.75534446      -1.49844673
Si       7.61487606       0.95291270      18.81977340       2.21835083       0.35301432      -1.83728463
Si       0.61841998       2.77909143       5.40166372      -2.52399305       0.27161993       1.02407179
Si       7.34170477       9.46690778      14.86881012       0.39739530      -2.78142229      -3.61545608
Si       9.78614203       6.94935855      21.73518478      -0.75412232      -1.14075139      -0.85825285
Si       2.90622544       0.37895268      12.21215097      -4.08646642      -0.81399561       3.22963603
Si       8.20477410       5.10822969      14.94248711       1.61197176       0.36266080      -2.29138505
Si       4.82895728       2.15024453       5.39139853      -0.35965087      -0.28501609      -0.65157892
Si       2.22238073       4.50850184      12.26021757      -1.93543970       1.99872876      -1.18013704
Si       5.56442479       7.66043703      21.66396832      -0.67939717      -1.18752383       0.15308518
O        8.92624157       5.58965699      22.10900937       0.54309504       0.78095118      -0.09707315
O        3.88937877       1.52694299      11.97424556       1.84135999       0.41287681      -0.34084270
O        1.44195837       4.05782048       4.91828306       0.91095249       0.40133215      -0.23413856
O        6.30797259       8.18771718      14.99221757       0.57374094       2.35263620      -0.55718673
O        0.94726975       3.68868402      11.59180856       1.90700831       0.92880042       1.29822758
O        6.64579954       8.96161779      21.61485731      -1.28611558      -1.15253030       0.17016404
O        9.25179620       6.38930562      14.85943443       0.11423103      -1.04476565       0.42095328
O        3.86177111       0.88364461       5.28894883      -2.12588496      -1.23751678      -0.68748473
O        3.14668072       6.08076077      19.10608872      -0.95590318       0.31452046      -0.49083303
O        4.23393974       6.70214861      14.84579616      -3.21086076      -2.19075080       0.90683069
O        7.09684257       3.52842565       8.32988902      -0.40145037      -0.86928498      -0.57121995
O        6.16721720       2.90804505      12.07254711       1.54424539       1.44774828      -0.53841954
O        1.59063528       8.06097108       8.40799193       0.94927957       1.25354228      -0.08882907
O        2.31097103       8.57953830      12.05080490      -1.41616085      -1.11537784       0.42090632
O        8.76630803       2.12828972      19.10726037      -0.82408752      -0.82664654      -1.13605858
O        8.06135301       1.51466423      14.92144724       1.99147513      -0.14827604       0.72220920
O        3.00202266       4.81921188      16.45915314       0.03977639      -1.48999452      -0.46435745
O        5.05053579       6.69146629      17.49272209       1.52567616       0.08103228      -1.35387998
O        7.23859326       5.06453814      10.64329681       0.35325687      -0.68691666       2.33542263
O        4.78766705       3.08543045       9.52254050       0.47798225      -1.25304402      -1.14245477
O        9.77047502       7.78225172      17.70249291      -0.39693749       0.07598268      -0.60350754
O        2.81815808       0.41619237       2.65721949      -1.12494348       0.62874323       0.61138408
O        0.66950813       1.69385989       9.50790822      -0.20948879      -0.29582420      -0.40988608
O        8.03969271       0.10962707      17.39919381      -0.48384839       0.10428813       0.80114673
O        9.07546301       8.25103443      22.25183664       1.33831063       0.00749144       0.62582645
O        1.30599316       0.77435752      12.06263884       0.98756739       0.06255037      -1.08966201
O        0.85589605       1.38790576       4.66355949       1.79379920      -1.53112462      -0.86372407
O        8.65031228       9.04912791      15.62582912       1.94466838      -0.15330320       0.83151145
O        3.69035539       4.12627668      11.77781186      -0.44912561       0.69877001       0.36104604
O        5.92983953       6.10122768       8.55728742      -0.27642908       3.52196031      -1.71648701
O        6.87604225       5.52917997      15.64032064      -2.24521370       0.20021364       1.80543212
O        4.32163603       3.48890927      18.50117028      -0.19880742       0.43668536      -0.86599458
O        8.72025981       2.99535498      11.87331917       2.14743217      -0.85031610      -0.84584812
O        6.44738813       0.96976428       8.62426229      -1.37664551       2.82750466       0.81073250
O        1.54082540       6.96124560      15.43680170       0.72789838      -1.20473119       0.68945381
O        3.42283188       8.85761953      18.24826584       1.63570127      -4.65600122      -0.54176819
O        9.10136035       3.93720224      15.80936973      -1.48535027       0.85625529      -0.81839918
O        6.21965453       1.68994862      18.48323394      -1.12543372       1.21022059      -0.12932158
O        1.91280621       6.04317036      11.51598281       0.74710355      -0.31100611       0.57325932
O        4.19966518       8.08137872       8.66294134       0.32686177      -0.07377439      -0.73408094
O        7.85479072       4.84509523      13.29344926      -0.23203977      -0.32636193       0.76981425
O        4.88911272       2.42242385       6.97767931       1.14118524       0.30799572       1.20298964
O        2.07020681       4.77715947      13.88821681       0.79631736       0.57035944       1.67027181
O        5.10076277       7.37244468      20.02936593       1.53259765       1.11568041       2.16386924
O        0.72536781       2.66175000       7.09533244      -0.03727532       0.10284684      -1.89049701
O        7.67595433       9.75863604      13.12233574      -0.96780316      -1.26523997       3.45106512
O        9.87860597       6.93691761      20.09441025       0.87249595       0.76966398      -0.35868003
O        2.98535217       0.03227654      13.85956791       0.12324688       0.16212112      -0.33171616
80
Lattice="9.77192453 0.01751879 6.90363604 0.24348012 9.76890588 6.90363604 0.01370155 0.0133883 13.86910312" Properties=species:S:1:pos:R:3:forces:R:3 energy=-577.34109599 source_file=vasprun.xml step_index=300 time_fs=48600.0 time_ps=48.6 file_index=24 pbc="T T T"
Na       7.11968630       1.51563272      13.30670238      -0.20988643      -0.60842189       0.04563909
Na       2.83909606       2.62123184      16.73708090      -0.05992142      -0.38267506      -0.84275039
Na       2.14069230       5.98566156       7.09227699      -0.41156465      -0.02219653       0.44754377
Na       4.59514457       8.14744767      13.15718453       0.12840440       0.30678060       0.17992886
Na       8.53893932       3.34376894      21.12543758       0.16334424       0.07685342       0.02367127
Na       8.00381821       6.99433849      18.48042141      -0.49564027      -0.00315001       0.17168212
Na       0.77991712       8.91915797      18.11299057      -0.31973108      -0.47366299      -0.11367507
Na       2.71369797       1.93451064       9.23606225       0.11023967       0.26541759       0.18956392
Al       7.46965144       5.48406608       9.26387742      -0.62301321       0.35830346      -1.51464313
Al       4.73916806       2.79134427      11.55868005       0.96702023      -1.00946192      -0.58794658
Al       3.00197729       4.76521736      18.45948295      -0.28687656      -0.91543862      -1.51079984
Al       5.74673814       7.21846104      16.10750928      -1.49617008      -0.46469954       0.77603861
Al       0.29901331       2.27110756      11.60469447       1.28190373       0.72580225       0.24671560
Al       8.27307820       9.66971622      22.86034103      -0.81756159      -1.23687605      -2.53853451
Al       9.90489314       7.75556338      15.65558762       0.87218759       2.28994099       1.65305418
Al       2.43782485       0.43997118       4.68524553       0.10581059       0.93870812       1.52789416
Si       2.87624337       5.81929838      15.23650283       0.03425071      -5.71958095       0.84396890
Si       4.50931561       7.50921426      19.12470530       3.06868380      -1.56665330      -0.43268596
Si       7.83990079       4.18029233      12.08109564      -1.49595207      -1.02768234      -2.61750946
Si       5.74652886       2.74877886       8.50252694       0.56196571      -4.56467553       4.37107696
Si       1.10002815       7.68564464      11.99058610       0.14245967      -2.68516598       0.17323268
Si       2.96468857       9.08080241       8.43258414      -0.17033729       1.09579181      -0.24209666
Si       9.38346842       2.70850690      15.44365456      -3.65989117      -0.64476226       0.63435675
Si       7.35419614       0.99766587      18.99004576       2.40296304      -2.39328190       0.99596291
Si       0.66969392       3.13951087       5.66751023       0.49388382      -1.08116081      -2.16175469
Si       7.42731657       9.61881560      14.81528549       0.05018618       0.75493232      -0.53786258
Si       9.78412119       7.06338562      21.74027733      -0.71385807       0.49662332      -1.39841932
Si       2.93109468       0.46592019      12.58023563       0.31611715       3.48918201       1.12099273
Si       7.98275650       5.31443711      15.12935812       2.57730317       3.22158521      -2.94892036
Si       4.72823605       2.24129209       5.72835101       0.78599576      -0.28862831       1.04386139
Si       2.21766281       4.63585590      12.30632034      -0.51397351       0.24986263       0.34765663
Si       5.98842640       7.97054665      21.88008940      -1.07100902      -0.46554288       0.94757278
O        8.70800708       5.80956695      21.77168596       0.49840252       0.14419313       0.75084740
O        4.32462806       1.15949326      12.21208229       0.92079565       2.51394156      -0.15637713
O        1.41821297       4.60969737       5.50453163       0.20516753      -1.31485263      -0.67548526
O        6.23400442       8.61769455      15.22985304      -0.76539765      -0.47137506       0.46877229
O        0.69773828       3.90116847      12.08828339       1.41385206       0.72770503       1.44902986
O        6.92482889       9.24906366      21.70668171       1.68688940       0.55401200       0.65472773
O        9.41323949       6.30197526      15.04468704      -2.43660255      -3.28396043      -0.06679168
O        4.00504678       0.84240105       5.54496466      -0.98835405      -2.09915204      -0.55377247
O        3.55835247       6.18733716      19.18924134       0.57150365       1.09963415       0.57655633
O        4.23183082       6.54481451      15.34865930       2.77268184       2.53062995      -0.48559991
O        6.59235107       4.01648956       8.64502561       2.18243475       3.03770194      -0.54070801
O        6.42324252       3.24631284      11.97017198       0.32124839       1.20699573       0.76413349
O        1.72973012       7.97982710       7.93969378       1.86803091       1.52206640       1.65397288
O        2.13264948       8.81115345      12.48913358       0.70847653       0.37008938      -0.54810459
O        8.85372173       1.59108615      19.57167598      -1.47875608       0.10866398      -1.59609301
O        8.50012746       1.36124339      15.15841081       0.71456819       0.55262775      -0.41659379
O        2.75486677       4.89235226      16.67141226      -0.01195274       0.09437439      -0.11758519
O        5.56529556       7.48886052      17.85613780      -0.58135803       0.03942861      -0.17873111
O        8.22611589       5.08494457      10.73444227      -0.62792012      -0.29309458       1.78444076
O        4.83614937       2.43710718       9.84810850       0.54513010      -0.00096876      -1.40068117
O        0.22823125       7.68981734      10.63206088      -0.22006883       0.79918423      -1.29098358
O        2.48976807       0.12350389       3.00596403       0.17532819      -0.86535465      -2.34378242
O        0.45385037       2.49984470       9.85233228       0.88108206      -0.60188297       0.89615573
O        7.56021183       0.26848736      17.52227117      -0.22450787       0.90891484       2.77981862
O        9.39254886       8.25155923      22.78126695       0.13108491       0.77032470       0.63178710
O        1.60451100       1.09857731      11.81365761       1.08594152      -1.46897035       0.05888918
O        1.51700569       1.95669842       4.88726406       0.11388706       0.13405859       0.48525049
O        8.90150713       9.09531614      15.17540166      -0.12723133       0.08296273       0.43550013
O        3.35968200       3.81280323      11.47490972      -1.15800870       1.12574708       0.68863045
O        6.40726761       6.90396221      23.07396477       0.12706086       0.23586810      -1.15096174
O        6.86246864       5.88670584      16.10066096      -0.04555199       0.81028440      -0.43483489
O        4.06605378       3.27105370      18.61879672      -1.60873522       3.11983621      -0.79581387
O        8.93344131       2.87863084      11.87524216       0.34592962       1.81996664       1.88684897
O        6.96963944       1.41390818       8.45060327      -1.14950554       1.06687748      -0.80625249
O        1.58659421       6.67530719      15.13498340      -2.67406750       1.95093566      -0.36074554
O        3.55495007       8.78644573      19.03557632      -1.48930388      -2.82937592      -0.82050765
O        8.21071069       3.89469248      15.68848410       1.94219907      -3.79328923       0.99738894
O        6.33337743       2.22421468      19.08511985      -1.02813723       0.60574225       0.43019769
O        2.02151943       6.21230902      11.74883454      -0.40251084       0.60712294       1.23056896
O        4.52930732       8.58477410      22.25042934      -2.28560061      -0.15566572       1.34329455
O        7.85111359       5.07344964      13.43270816      -0.47960306       0.13750854       0.83363810
O        4.62234366       2.58559377       7.40610239      -0.92980011       0.03024805      -3.80644730
O        2.83292649       4.68794540      13.91119229      -0.66767604       1.06106365       0.25445035
O        5.61307325       7.42353804      20.38978100      -0.38699480      -0.79351596      -1.31241475
O        0.50267485       2.96797843       7.26857799       1.53407980       0.29628021      -0.27882713
O        7.20091385       9.55435218      13.15654530       0.15269765       1.18717835      -1.30376318
O        9.71401321       7.71212676      20.12255585       0.34359732      -1.42439725       0.85271764
O        2.79399014       0.53563632      14.20676960      -1.20580187      -0.54829968       1.22469525
80
Lattice="9.77192453 0.01751879 6.90363604 0.24348012 9.76890588 6.90363604 0.01370155 0.0133883 13.86910312" Properties=species:S:1:pos:R:3:forces:R:3 energy=-575.18169819 source_file=vasprun.xml step_index=660 time_fs=63320.0 time_ps=63.32 file_index=31 pbc="T T T"
Na       9.07701004       3.20496703      20.99297906      -0.72397043       0.13449804      -0.18922231
Na       7.64738905       6.19646737      19.42786423      -0.11303826       0.33909133      -0.13321717
Na       7.75947232       7.42237173      11.50300390       0.28940545       0.60220208      -0.00230225
Na       4.24976955       7.72945288      12.92818735      -0.53186340       0.41511319       0.39062645
Na       7.03647886       1.30728169      10.97766258       0.27279430      -0.33673857      -0.01377810
Na       2.56371504       2.33022427      15.48361752       0.56421586      -0.05203223       0.20549233
Na       2.26961995       1.88901317       8.35064889       2.12246112      -0.38637958       0.24108996
Na       2.15681321       6.10399407       9.23371327      -0.13139616      -0.14278795      -0.08873125
Al       7.23264958       5.33738854       8.94229628      -1.73359305       0.70638352      -2.18005423
Al       4.58988585       2.85892069      11.25838139      -1.02827425       0.95122480       4.99086544
Al       2.86134021       4.62496073      18.32372023      -0.10209675      -0.32851465       1.67491487
Al       5.25609000       6.90754929      15.84147625       1.12163996       0.63150126      -1.43282379
Al       0.46647485       2.27623540      11.36098867      -1.65116917      -1.78142132      -0.71356831
Al       7.76070970       9.51457276      22.76766975      -2.38712027      -1.81874749       0.36437115
Al       9.33033449       7.76409732      16.08216211       0.47966112       2.61810637      -1.46438874
Al       2.15760507       0.24470216       4.50392399       1.43460625      -0.78155112       0.43973837
Si       2.45548885       5.50904131      15.31018810       1.00844233       2.34432075      -2.73487985
Si       4.50365272       7.36987362      18.91243479      -2.97463903       1.90304193      -4.16444598
Si       7.59063357       4.36767751      11.94697758      -0.80352481      -0.19874291      -0.79611074
Si       5.59186097       2.64853870       8.32438676      -0.37005716      -2.44888362      -0.59888967
Si       0.67554087       7.60650736      12.13030819       2.60622690      -2.00978696       0.62159372
Si       2.66873185       8.97780022       8.32147052      -1.22165842      -2.09381592       4.49674579
Si       9.24766889       2.41404059      15.35455211       2.30140114       0.89479673       0.21483273
Si       7.16460646       0.94216214      18.83153097       0.72373492      -0.48372416       0.26347118
Si       0.45607104       2.60970499       5.52321315       1.44771941       2.31724804       1.09049586
Si       6.77868678       9.40061040      14.63799263       2.03460781       0.67975819       5.00864998
Si       9.61091963       7.01694438      21.97680685      -0.56608173       1.38355995      -1.87288962
Si       2.89909523       0.44798305      12.57136932       2.82283138      -0.48032489      -2.57952247
Si       8.02295061       5.39775661      14.83299501       2.65535840      -0.15472321       0.68237160
Si       4.47803609       2.02183630       5.66165123      -1.17361064       2.18033684      -0.75815270
Si       1.82945009       4.49133357      12.39865582       3.73133440       3.55660993      -1.71514024
Si       5.42632534       7.82396633      21.62216123       0.72043494       2.42196094      -0.05272853
O        8.55847671       5.75106358      21.63747510       1.31655032      -0.79365004       0.66585036
O        4.26437155       1.40237475      12.36845674       0.12572985       0.29176756      -0.96309290
O        1.49701730       3.88288699       5.36677969      -1.30776754      -0.37581453      -0.43728424
O        5.40983293       8.55934200      14.84546381       0.42740160      -1.53186762       0.25144475
O        0.48943152       3.76523285      12.20948895      -2.73340884      -1.68839244       0.21220084
O        6.22478226       9.19958990      21.75290890       2.00527820       1.05922744       1.79622524
O        9.27985170       6.41531083      15.11004036      -0.96852541      -2.29662152      -0.91527569
O        3.60378956       0.62789485       5.54485517       0.50307656       0.96063404      -0.55153305
O        3.54077658       6.13381638      18.97902381      -1.27395453      -2.17754586       0.02540469
O        3.84898002       6.26257435      14.98738866       0.98070290       0.01513452       0.28466139
O        6.76500003       3.70051106       8.20368004       1.55434560       2.37822008       0.09215597
O        6.21088542       3.56177083      11.99442039      -1.94985581      -1.16049433      -0.97208561
O        1.21405301       8.14770006       8.57934207       2.95817336       1.78262448      -0.42686277
O        2.02881911       8.45037378      12.15133989       0.75525952       1.21057013      -0.26434732
O        8.51557511       1.82731593      18.74523252       1.57659919      -0.50803485       0.38771918
O        8.29713530       1.12545445      15.31825269       0.53668639       1.54989997      -0.49457498
O        2.42155264       4.63623820      16.59129390      -0.24364077      -1.56646815       1.64608250
O        5.36365240       7.26254904      17.50258549      -0.23534345       0.26333728       1.16035900
O        7.59271348       5.39018340      10.60692896       0.63877181      -1.04242811       1.55820404
O        4.73107110       2.86863017       9.62380652      -0.49732745      -0.01399874       0.02970176
O        9.58655743       7.69185354      17.74735335      -2.30545187       0.53194265      -0.13940773
O        2.82985313       0.09547572       2.88031213      -1.00534560      -0.65874101      -2.27573162
O        0.67543683       2.32210966       9.62881845      -1.85421966       0.21049941       0.27055658
O        6.88223957       0.06139643      17.51989747       0.33619301      -0.61589824      -0.32672141
O        8.73191768       7.89856972      23.02491196       0.16537029       1.51021605      -0.18826873
O        1.74933873       1.30427367      11.92698793      -1.41020301      -0.12531411      -0.25904915
O        0.80069478       1.28258154       4.70695236      -0.41211763       0.06894677      -0.74772536
O        8.16240639       8.97258632      15.61347346      -2.22750335       0.22793149      -1.20781909
O        3.14313498       3.93791265      11.51699608      -1.23378949       0.93858521       0.64253922
O        5.99413527       6.66965696      22.45621713       2.21006263      -4.20064036       2.14959570
O        6.70764064       5.89188651      15.49117680      -2.46422884       0.76569367       1.15224007
O        3.98448445       3.36879271      18.71043534       0.73385392      -1.64762029      -0.50975456
O        8.70650718       3.15569107      11.91902503       0.79179295      -0.54631000       0.27744595
O        6.36675203       1.17406233       8.50992432      -0.20810260      -0.39528250      -1.01043739
O        1.48778128       6.89986178      15.38475254      -2.06808009      -1.88879380      -0.04426049
O        3.35384588       8.69066086      18.81502646       1.06545610       0.34460728       0.74134992
O        8.70435001       4.00528032      15.47300142      -0.82929395      -1.95793981      -0.94758563
O        6.13202865       2.11464861      19.26199609      -1.22252811      -0.85712491       0.05898293
O        1.30365606       6.06186298      11.94008649       1.40677959      -1.70925214       0.64399552
O        3.84608280       7.83245396      21.87155026      -2.79927170       0.66797632       1.17284282
O        7.74317354       5.35879278      13.22570430       0.37365655      -0.00698496      -1.11448294
O        4.34849980       2.48600344       7.25902177       0.44069054      -0.08375256      -0.23832600
O        2.25774670       4.46578939      13.96525284      -0.46147768       0.41532883       2.57917430
O        5.54565232       7.65021844      20.03362382       2.03268151      -1.15169573      -0.51951707
O        0.64656193       2.19236203       7.18909132      -3.24483207       1.00195595      -1.84847045
O        7.20769188       9.48459167      13.11396721       0.81760213       0.85688439      -2.63793046
O        9.62259058       7.75150082      20.40036308      -1.11509440      -0.36021651       1.93692246
O        2.52574468       0.28406640      14.13369456      -0.45360488       1.71125956       0.10289504
80
Lattice="9.77192453 0.01751879 6.90363604 0.24348012 9.76890588 6.90363604 0.01370155 0.0133883 13.86910312" Properties=species:S:1:pos:R:3:forces:R:3 energy=-573.80658423 source_file=vasprun.xml step_index=200 time_fs=70400.0 time_ps=70.4 file_index=35 pbc="T T T"
Na       8.29469677       4.90577531      19.52016580      -0.26661049      -0.11886527       0.40438828
Na       9.31287608       1.29674376       9.72286772      -0.56458726      -0.06725995      -0.01494062
Na       1.35547704       4.47296587       9.10877635       0.18766597       0.63229270       0.27724686
Na       4.47205377       8.89182327      13.40846388       0.02550408      -1.16556809       0.54670898
Na       4.75807245       0.98910326      16.38504441       0.20584191       0.48649039       0.67606722
Na       6.45537048       1.10968685      13.72187574       0.22224146       0.70204718      -1.18137606
Na       1.51876166       8.78864621      16.94208869       0.28295434      -0.02378481       0.36279659
Na       9.70138648       5.81862500      12.43251610      -0.57858951       1.14925792       0.36957376
Al       6.94023633       5.47955620       8.99678341       1.57277102      -1.84595710       0.50793718
Al       4.35157534       2.62328148      11.50973841       2.34906751       1.53567405       1.29695447
Al       2.52535313       4.59207303      18.60009481       6.37190297      -0.37848025      -2.14081441
Al       5.17956207       7.13103283      16.23273465       2.82451908      -1.37654033      -0.91560034
Al       0.25896750       2.32174897      11.68565430      -0.75428663      -1.49707118       1.48085354
Al       7.88034789       9.41347291      22.91726483       3.04120263       0.29034117      -0.77098611
Al       9.67120975       7.72542592      15.94786328      -1.88419392      -0.76031414      -0.33867012
Al       2.06795096       0.50640056       4.56552730       1.90310227      -1.72555199       1.62552437
Si       2.66692935       5.61930051      15.49003506      -1.94078378       1.00900126       1.82406374
Si       3.98412817       7.36589538      19.23075956      -0.59161972      -4.45683471       1.17130129
Si       7.29316668       3.86412510      12.03104429      -1.65796661       4.01062793      -1.00023885
Si       5.75710603       2.54670765       8.73724674       2.90993492       1.98393210      -3.67096400
Si       1.04067956       7.45253972      11.94146207       1.89677781      -2.60380734       1.22640770
Si       2.61790196       9.39922385       8.56289997       0.91536879      -2.12167047       1.22750163
Si       9.17337838       2.51857024      15.58046439      -5.43404481      -3.36472293       0.64183297
Si       7.22943282       0.88384461      18.93421541       0.37856174       0.68310178       2.63248610
Si       0.23234846       2.73485011       5.69027640      -1.10702105       1.77097030      -0.50661674
Si       7.10291877       9.63062671      15.08323325       1.09711615      -5.14870950       0.75273493
Si       9.53687075       7.05454047      21.86513060       5.79028972      -0.43393852      -0.13496065
Si       2.63531969       0.40084716      12.56061001      -0.82095222      -2.18043257      -0.29070912
Si       7.73523567       5.21683888      14.99280788       1.68593679       1.39766319       0.33268565
Si       4.49134967       2.07325340       5.87639775      -1.87419147       2.73813260      -0.95210162
Si       1.96626266       4.56935895      12.62194265       0.39433229      -1.14190233      -1.10394302
Si       5.33499079       7.99225899      22.06787267       0.60196626      -0.17045659       1.37690792
O        8.49427942       5.94275681      22.02075839      -2.95028111      -1.70483883      -0.41620805
O        3.99511528       1.04052324      11.96799103      -0.67545355      -1.68803725       0.92095093
O        1.01868161       4.03387343       5.05812328      -3.40991385      -1.76925201       1.82689274
O        5.96823273       8.51109890      15.60009049       0.13912145       2.69618904      -2.00345928
O        0.51991547       3.85448972      12.54091118      -0.85751863      -1.71867447      -0.42583481
O        6.47123097       9.21997036      21.87699032      -1.46691984      -0.76436232       0.29466984
O        9.16984088       6.14800681      15.11582129       0.67846496       0.38060937      -0.52275448
O        3.39870087       0.87170259       5.69217163      -0.58702712       0.68710320      -0.49661865
O        3.02802523       5.99149771      19.39390849       0.04143424       1.98276872       0.36766849
O        3.82978224       6.79518769      15.20530343      -1.09025303      -1.20422429       0.23127576
O        6.68329764       3.92759182       8.14384198      -1.97981353      -1.71010577       1.00991116
O        6.11172439       2.91047212      12.43614531      -4.05166235      -0.91645431      -0.61579629
O        1.45324949       8.33722520       8.65574756      -0.16460711       0.17375914      -0.86735822
O        2.23571369       8.54369024      12.04854329      -0.64322722       0.46615959      -0.65732154
O        8.37657227       1.99955477      19.08766172      -0.10312435       0.51192097       0.32181912
O        8.08637583       1.20856966      15.22545714       1.12574118       1.29247646       0.55373114
O        2.81971347       4.65947093      16.83916573       0.07069971       0.94854036      -1.66812107
O        4.86153775       7.27529892      17.89346467       0.13284192       0.42943351       1.45646634
O        7.25013459       4.76704434      10.60412368       0.36328495      -0.85801352       2.57954295
O        4.77870992       2.78557615       9.89459892      -1.09703529       0.67752326       0.98156090
O        9.78211636       7.55226425      17.68134073      -1.15999101       0.16674679      -0.94600940
O        2.52610516       0.65627355       2.88360017      -1.52164458       1.65760156       1.02771308
O        0.18239210       2.05881796       9.98265652       1.58806157       1.38576024      -1.18126290
O        7.81647132       9.76032223      24.57801822      -0.95617447      -1.15430380       0.29195504
O        9.49513046       8.33009966      22.79597889      -3.79718310       3.05874433       0.10569332
O        1.19152728       0.78946643      11.97409066       0.34104585       1.27253342      -0.03519015
O        0.72031505       1.43081127       5.03322329       0.57413454      -2.24022324      -1.24998305
O        8.48604791       8.98340479      15.72649377       0.37355716       0.83842873      -0.55904144
O        3.05419540       3.65268520      11.87301982      -0.00536993      -0.42797063      -0.11697421
O        6.15592349       7.00446591       9.19358810      -0.75638928      -0.22028233      -0.31932034
O        6.68594945       5.94002950      15.90771295      -2.54616314       0.50682438       0.44180962
O        3.98510816       3.53078121      19.03387326      -0.25774427      -2.28004652       1.41048403
O        8.46245474       2.78368676      12.01590382       2.05354156      -0.20315461       0.11374079
O        6.73051163       1.21260312       8.94253698      -0.12779693       3.63231182       1.76788043
O        1.19463076       6.45816707      15.80202973       0.78895593      -0.32367557      -1.06985208
O        2.81295235       8.45034143      19.15486465      -0.04554490       3.52212366       0.03366945
O        8.28039340       3.86812833      15.82769502      -0.06100921      -0.29745496      -0.28948669
O        5.73276944       1.54679059      18.82564315       0.89607344      -0.14911975      -1.17682240
O        1.76459301       5.79643387      11.65612029      -0.63997385       4.65363039      -0.76945391
O        4.00094696       8.55645031       8.98033099       0.96505836       0.14482572      -0.67748203
O        7.39064158       5.04833479      13.33876930       1.17887217      -1.14219577      -0.05232587
O        4.83975694       2.06493037       7.48209103      -0.59738082      -0.13840195      -1.42840130
O        2.39009109       4.79625780      14.10695496       0.94026824       0.23629787       2.10987045
O        4.76474523       7.27125987      20.76828151       0.06348934       0.50471914      -2.90979853
O        0.13622090       2.73383079       7.30838666       2.64713047       0.86310096      -1.44505152
O        7.07023436       0.08214882       6.58744025      -0.35360705      -0.23903358      -1.69937011
O        0.23278656       7.31630184      13.37090245      -0.73515217      -0.19101052       0.74762868
O        2.59366960       0.49089861      14.19793237       0.47004502       0.85722304      -0.68272813
80
Lattice="9.77192453 0.01751879 6.90363604 0.24348012 9.76890588 6.90363604 0.01370155 0.0133883 13.86910312" Properties=species:S:1:pos:R:3:forces:R:3 energy=-575.54857817 source_file=vasprun.xml step_index=365 time_fs=16730.0 time_ps=16.73 file_index=8 pbc="T T T"
Na       7.80332849       7.28605333      19.09593651      -0.19800977       0.18371492      -0.08691597
Na       8.71774642       3.53869591      20.37359683      -0.16919904       1.25828351       1.16588772
Na       1.90174804       8.38824038      17.56045086      -0.23488380      -0.00895315      -0.46753567
Na       7.77260270       7.71976484      12.13924927      -0.15795007      -0.48417367      -0.37120034
Na       2.60563085       2.82871039      15.69797863      -0.13951260      -1.15221638      -0.32848344
Na       6.30790593       1.74010268      13.88715800       0.45506927      -0.02771870       0.15002958
Na       3.24061486       3.96393559       8.29556764      -0.62920362       0.02961123      -0.07094202
Na       4.07471824       8.66548978      13.64866090       0.06497730       0.05824835       0.02504503
Al       7.63044487       5.46153205      22.81133700       0.80608260       0.62741755      -0.39260768
Al       4.80960121       3.11461870      11.32174690       0.16842931      -0.01781962      -0.59926679
Al       3.25042869       4.86481648      18.50968955      -1.75335686       0.48122466      -0.01579514
Al       5.89588039       7.02473804      16.10712656      -0.49010833       2.10609023      -2.04623683
Al       0.51010241       2.38064626      11.54725634       1.30281232      -1.56791651      -2.39911573
Al       8.06969316       9.55275857      22.89002506       1.11827634      -0.34202869      -0.01321284
Al       9.76747334       7.72910606      15.93841004       1.54775658       0.39467835      -2.05652372
Al       2.45033729       0.76338398       4.43119643      -1.95475027      -1.14858778       0.80976946
Si       3.01838157       5.68302659      15.48141788       0.14555472       2.51373299      -2.66195428
Si       4.78593505       7.81023744      18.85671734       2.48770473      -5.27849504      -1.53062701
Si       7.72430235       4.40066400      11.93066305      -0.08804739       1.78502795      -1.81450697
Si       5.98326695       2.76325160       8.38180535      -1.77245966      -0.49977186       1.40104480
Si       0.99048622       7.56581302      11.87205798       1.59294657       0.85461727       0.02598352
Si       2.87368503       9.17033548       8.52697300       1.45816484       2.33834484      -0.10991845
Si       9.53992575       2.54362256      15.37847218      -6.89637576      -0.15951087       0.09997098
Si       7.49873998       0.98143351      18.84614728      -2.61704771      -0.95894874      -1.77595070
Si       0.80952565       3.22809364       5.88023095      -0.00071113      -1.03082618      -2.11084204
Si       7.38253197       9.64813865      14.95835259      -5.19371711      -0.98741583      -1.61945036
Si       0.26586381       7.15120913      14.84430286      -1.42868345       2.58865633       1.01371558
Si       2.96068905       0.70012705      12.42767919       0.83086284      -0.52435512      -0.81830100
Si       8.27320119       5.51985464      14.77694480       1.19292994      -3.51651485      -0.97399047
Si       4.86214805       2.24171696       5.53694596      -1.20243803      -0.56368754      -3.18584475
Si       2.36197471       4.79593413      12.44028673       0.81543361      -3.13899030       1.06048354
Si       5.72034870       8.03224576      21.91789716       2.60590777      -0.19958574      -2.34422968
O        9.14851048       5.81511044      21.89496514      -0.17467979      -0.20558026       0.15555088
O        4.18036933       1.82293519      12.36350771      -0.49986706      -1.05214701       0.24867904
O        1.73092406       4.53279030       5.95563120       2.18308006       1.31306173      -1.31317756
O        5.94015480       8.60412055      15.07902463       3.24389858       0.62949950       0.13794640
O        1.06823385       3.59730403      12.58477719       1.89902096       2.75077236       0.30091696
O        6.71519692       9.33219539      21.83686829      -1.07879075       0.05201601      -0.23787079
O        9.74153284       6.31229608      14.89510836      -2.41225779      -0.52057754      -0.04958592
O        3.94423447       0.88510234       5.24416822       0.77330198       0.75122633       1.52094022
O        3.78265867       6.55459583      18.53720274      -1.09764133      -1.13034180       0.62159926
O        4.41236143       6.52408817      15.42513349      -1.65073741      -1.01007522      -0.02146763
O        7.12453772       3.89535175       8.27657420       0.14793584      -0.32464307      -1.24139457
O        6.47674815       3.38068513      11.74866087       0.11898636       0.30220888       1.21785000
O        1.69960950       8.13222491       8.58799291      -0.67243325       0.24332630       0.52480981
O        1.87794645       8.88546140      11.97531515       1.73290235       2.29944547      -1.30368931
O        8.74935090       1.93128277      19.05100850       0.18939099      -0.71260226       0.83380215
O        8.39790315       1.26647654      15.43287635       2.21174312       3.23944649      -1.26803782
O        2.84532761       4.64751130      16.66726102      -0.48417391       0.61610821       2.07340405
O        5.91116263       7.64308154      17.66052923       0.23971911       0.86136976       2.59664569
O        7.89552501       5.49162842      10.62810005      -0.16505387      -1.71856191       1.65639307
O        4.94876749       3.19447618       9.57164421      -0.00021830      -0.51185138      -0.85599918
O        9.65480358       7.48362517      17.60641346      -0.09453253      -0.53069888       1.34040710
O        2.92019836       0.60876609       2.76328362      -1.72912793      -0.35830453      -1.75839585
O        0.19309690       2.86672719       9.91947153       2.13288916       0.47143717       2.20373307
O        7.67486983       9.60935492      24.58588504       1.01319876      -0.14554445      -0.06441330
O        9.53609646       8.60490047      22.64179320       1.10385124      -3.77233724      -0.91491053
O        1.64493625       0.95022342      11.44416867       0.78260015       0.24134300       1.14550354
O        1.48303381       2.21975583       4.75423101      -0.29919872      -0.46869932       0.19464090
O        8.76791680       9.13337074      15.53194870      -0.17844063      -0.00450528      -0.45542247
O        3.55382869       4.26830503      11.40374428      -2.28921006       1.52486767       1.55116204
O        6.68100056       6.84948985      22.45182101      -1.60220468       0.12176412       0.26771622
O        7.21387779       5.99754117      15.87128603       0.47531685       0.30846930      -0.31826245
O        4.41261203       3.64586394      18.68119843      -0.05499626      -0.55703552       0.85907200
O        8.99293409       3.51970992      12.28764371       2.77381075      -1.69466265       0.46495637
O        6.55699786       1.29671810       8.77061603       1.88852460      -1.20978939      -1.02572866
O        1.83873776       6.94927473      15.21289131       1.38860360      -1.10537273       1.46503431
O        3.88216181       9.01114698      18.69899973      -3.33180460       5.53863113       0.12976876
O        8.28501181       3.81281378      15.12131595       2.04484414       0.77334025      -1.14981745
O        6.21677278       1.96490781      18.53634895       1.15071126       0.52332637       0.81077272
O        2.01113613       6.28920357      12.06344285      -0.58486331       0.39957738      -1.13230660
O        4.36903379       8.44362214      22.65295369      -1.12079247      -0.82893905      -0.91047373
O        7.77703032       5.54549222      13.08476619      -0.53033173       1.48276447       3.17006044
O        4.88192619       2.47754761       7.12103459       1.45628557       0.92248889       1.78109625
O        2.88255731       4.83182303      14.05597761      -0.12911114      -0.68478890      -0.39200669
O        5.64263906       7.62564205      20.20789600      -0.34421057       0.45253460       2.15889461
O        0.94260006       2.49616437       7.39341686       0.22594170       0.22568889      -1.17961745
O        7.18914811       9.75112039      13.06200197       1.54375913      -0.05787043       4.72996729
O        0.20994999       7.58128685      13.25407869      -2.31054299      -0.42502690       1.71555896
O        2.51663969       0.32313525      13.95379928       0.43399441      -0.62931084       1.76510118
80
Lattice="9.77192453 0.01751879 6.90363604 0.24348012 9.76890588 6.90363604 0.01370155 0.0133883 13.86910312" Properties=species:S:1:pos:R:3:forces:R:3 energy=-575.13492537 source_file=vasprun.xml step_index=740 time_fs=33480.0 time_ps=33.48 file_index=16 pbc="T T T"
Na       9.36285651       0.69966672      10.17654381       0.03441711       0.13812995       0.16511683
Na       6.64718754       4.08706303      17.71162244      -0.23263429       0.09275253      -0.56557841
Na       3.71795913       5.88296356       9.51080237      -0.28668796      -0.25481628       0.40731474
Na       1.51097688       9.00993134      16.52292994       0.94155825       0.37684264       0.60738781
Na       6.14736467       1.18770880      13.98098772      -0.13330044       0.65269279      -0.59086488
Na       8.77945572       3.88748597      20.32973316       0.37756744      -0.37389375       0.05515144
Na       0.49819963       5.71614583       5.30784639       0.17954335       0.48812012       0.45274906
Na       4.72161224       8.32187560      13.24496939      -0.20685298       0.15254297      -0.30669173
Al       7.09232318       5.19652224       8.62147415      -3.37131877      -0.90132488       1.85082962
Al       5.04165021       2.85228926      11.17139293      -2.98232691      -0.50502474       1.19302419
Al       3.08242405       4.47971200      18.37838356       0.27165386       1.31678830       0.13903894
Al       5.50073468       7.10324470      15.94482926      -0.23617493       0.97014443       0.39050670
Al       0.60774054       2.28531541      11.26901432      -0.00734705      -4.56007543      -1.48563412
Al       7.97756244       9.45813046      23.07916232       0.21291059       0.31588752      -1.21201074
Al       9.87031345       7.64441845      15.57494980      -1.41653759      -1.03076943       0.79304248
Al       2.37789376       0.26862691       4.23094388      -1.20306391      -1.64481996       1.84210265
Si       2.60507835       5.61785120      15.42157163       3.43965025      -2.65683969       1.81240800
Si       4.32805947       7.31609046      18.87448658      -2.89689454       0.72044827      -1.18835191
Si       7.78390223       3.97533884      11.66700579      -0.19101986      -1.44512253       0.85459102
Si       5.87252703       2.62588373       8.15010882       0.75618370      -0.91251407      -0.29397088
Si       1.31224262       7.18160516      11.84888711       0.98088577       2.59490361      -1.83254914
Si       2.62080733       9.16947350       8.22653712      -1.82133817       1.83316432      -1.77179811
Si       9.09251471       2.52087720      15.44346185      -2.67664430       1.59075211      -0.77135004
Si       7.59068280       0.72316419      18.90511151      -0.61684534      -0.88446818       2.08602183
Si       0.65002285       2.69295635       5.67182088      -0.91564387      -3.60193877      -2.00958571
Si       7.36483805       9.54607127      15.05373011      -3.71467967       1.60582443      -4.25929885
Si       9.71893828       7.05491106      21.75954644      -0.93142568       1.65741451       1.31665631
Si       2.94572410       0.38854272      12.28513454       2.02431080       1.85605281      -3.73147392
Si       7.88977845       5.28300472      14.55135417      -0.22392544       1.69375198       3.71825202
Si       4.81565465       2.01062852       5.24465214       2.85995804       0.96536455       3.45619081
Si       2.28061657       4.30389144      12.54386743       1.48780403       2.28899829      -0.77953311
Si       5.43766006       7.90789958      21.72334291       1.00882241      -0.62462534       2.89066615
O        8.34402460       6.14278405      22.01022555       4.80202124       2.38916812      -2.19443938
O        4.28252681       1.42375930      12.32329257       0.23538009       0.04407439      -1.29977785
O        1.84105283       3.71336648       5.55702074       0.76800937       1.14406509       0.48622226
O        6.04584495       8.60616537      15.03522448      -1.14160893      -1.07033336       1.56798629
O        0.89175577       3.54636696      12.26972570       0.33073568       1.13805280       1.65882873
O        6.63033874       9.05075389      21.98940873      -1.58841503      -1.44007772      -0.09927317
O        9.28568951       6.09603396      14.81767514       0.35258889       1.43858714      -0.26570327
O        3.90805058       0.81726647       4.70944072       1.41545554       0.86023510       0.34295014
O        2.99771830       6.27372403      18.97326140       1.57992364      -0.93454488      -0.26895265
O        3.90711936       6.61732691      15.37646765      -1.45152617       0.21575305      -1.02427228
O        6.89440595       3.77244399       7.51320246      -0.33021289       0.57674528       1.17102676
O        6.55025527       2.95784527      12.03642650       0.59042253      -0.49377673      -0.25833056
O        1.50214300       8.08066742       7.81426371      -0.21929966      -0.05617463       0.42358365
O        2.79475283       8.20920244      11.77366331      -2.79829116       0.33035190       0.02597073
O        8.93883769       1.56182310      18.89703343       1.13444043       0.94125206      -0.56745721
O        7.91307291       1.43588653      15.69800531       0.20187842      -1.24885393       0.69356507
O        2.89822620       4.50271659      16.63567352      -0.27440397       0.66632016       0.21181690
O        5.38955955       7.00556437      17.74303111       1.32593414      -1.03613704      -1.73028356
O        7.45856874       4.60463559      10.28267202      -0.61164025       1.82840442      -2.16322769
O        4.99798049       3.28567558       9.34337954       0.04480099      -0.45921590       1.67487487
O        0.41775953       7.59697398      10.43634139       1.06290336      -0.67704665       2.36809150
O        2.00660611       0.46323934       2.55828385       0.12392641      -1.23408987      -1.39280251
O        0.54818203       2.59476412       9.55456395      -0.55376504       0.36827472      -0.42716669
O        7.60634301       9.25942995      24.78382197       0.54313552       0.13147441      -1.30071877
O        9.45201523       8.66937980      22.34680931      -0.37493398      -2.31433344       0.46803226
O        1.78658607       0.90841424      11.21417123      -0.03713864       0.52485752       0.73991941
O        1.08305374       1.13101026       5.14878983       0.11944888       1.14920612      -0.67146028
O        8.62822895       8.97002211      15.67852345       3.25831017      -1.41720206       1.76221346
O        3.65682747       3.97382977      11.74149591       0.48804508      -0.76467134       0.29328691
O        5.66765560       6.40103208       8.53766051       1.03852035      -0.17013081       0.12658980
O        6.59301364       6.04053083      15.22700099       1.52813992      -1.61411951      -1.09696014
O        4.54225307       3.62558931      18.88075824      -0.14141132      -0.80793558      -0.74455430
O        9.34929947       3.39416799      11.42453360      -0.68502005      -0.51944998       1.27179260
O        6.64381196       1.26114912       8.65804821       1.94861490       0.24538915       2.35514810
O        1.22635379       6.31172709      15.74850333      -3.53483961       2.91784755      -0.29608068
O        3.67625349       8.77934208      18.41641379      -0.64992415      -0.38633981       0.38386432
O        7.98657887       3.97255991      15.51469122       1.78786606      -2.84637524       0.34217096
O        6.48836457       1.94929315      18.70518162      -1.65497841      -0.13901840      -0.87699143
O        1.97423619       5.70871573      11.63572345      -0.63730875       0.53512937       0.86791349
O        3.92099283       8.27419832       8.47406695       1.72179301       0.26883018       0.92076773
O        7.84045506       4.90664216      13.02043160       0.27793290       0.31715627      -2.30537812
O        5.16655350       1.79686829       6.99147135      -3.34772952       0.35691282      -3.96525786
O        2.21894252       4.63760597      14.17237682       0.70837024      -0.13791478      -1.92291793
O        5.09621908       7.69546642      20.21746635       0.76424358      -0.29997222      -1.14662788
O        9.52198252       2.24364937      13.86435621       0.58014565       1.50838665       0.72540000
O        7.64756667       9.70956438      13.39727210       0.10085500       0.50840604      -0.08074408
O        0.41791802       7.42609338      13.32921851       0.92244496      -1.34210645      -1.80723449
O        2.40572856       0.33426706      13.74719110      -0.21751342      -0.91060080       3.76665077
80
Lattice="9.77192453 0.01751879 6.90363604 0.24348012 9.76890588 6.90363604 0.01370155 0.0133883 13.86910312" Properties=species:S:1:pos:R:3:forces:R:3 energy=-575.90801092 source_file=vasprun.xml step_index=765 time_fs=63530.0 time_ps=63.53 file_index=31 pbc="T T T"
Na       8.74197747       3.71901101      20.92844366       0.33657684      -0.48941028      -0.65652662
Na       7.35092962       7.64019150      19.18682479      -0.36870764      -0.03432766       0.05117821
Na       9.62474644       6.91182443      24.55997795      -0.11054137       0.13723984       0.50992904
Na       4.40609732       8.93366173      13.40278289      -0.50617894      -0.53891198      -0.30380216
Na       8.49740386       1.00313351      10.07786098       0.20430405       0.19507474       0.10260489
Na       4.45906577       2.39920454      16.68202984      -0.11297508      -0.06299067      -0.49484311
Na       2.21400181       1.01482761       9.23127464       0.16040585       0.37143684       0.25727676
Na       1.21158817       6.18963840       6.78170496       0.53555211      -0.34587663      -0.05547964
Al       7.28409259       5.25952600       8.98896837      -4.64109455      -0.56670576       4.21944138
Al       4.50417515       3.15351881      11.31958444      -0.58080082      -3.00135759      -0.29921642
Al       2.55733427       4.53143336      18.17910253       0.37836578       0.66368829       1.25648236
Al       5.24062501       6.92886447      15.99688816       2.74290131      -1.12006969       0.36245774
Al       0.34439677       2.10017748      11.51675170      -2.03722368      -3.15794674      -0.77702802
Al       7.75644411       9.41608046      22.86827278      -1.37397791       0.30137595      -0.82507788
Al       9.55302452       7.79117113      15.94990026       0.69610962      -0.78297495      -0.18194416
Al       2.08524679       0.49387096       4.49021329      -2.55573000       0.34626831       2.70031293
Si       2.52479234       5.38374535      15.12835950       0.84665968       0.97442969       1.98208923
Si       4.25149406       7.21529816      19.04782218       2.04193310      -3.45901680       0.38565562
Si       7.41556584       4.46255473      11.86447817       3.61803403       0.36180318       2.73232262
Si       5.88871812       2.49290584       8.57191946      -0.61048274       0.99029430      -0.40247816
Si       0.57323370       7.63922150      12.03431565       4.07448442      -0.93431861       0.71641468
Si       2.84492026       9.06033597       8.64641747      -1.82301887       2.57328326      -0.91711384
Si       9.06022769       2.35506468      15.33708472      -1.15545985      -2.36481849       0.82542272
Si       6.85632865       0.83768279      18.77484598      -0.97610667      -0.60493892      -0.01503761
Si       0.12928011       2.73185249       5.43357999       3.67404925      -0.32046554       0.47056288
Si       6.91690385       9.40645131      14.78827536       4.09701027       1.79205574      -2.55209182
Si       9.50508486       7.06249269      21.80094942      -0.45856266       3.37738204       0.37003688
Si       3.02768782       0.42734769      12.67340029      -3.25268529       3.78481595       0.33297591
Si       8.01249098       5.29469835      14.99490748       0.22887556      -0.26436074      -2.77122167
Si       4.37047536       2.34946293       5.77236850      -1.48202896      -0.67133388      -1.32986002
Si       1.84422719       4.59688226      12.17947082      -1.80256367       1.28660129      -0.17063309
Si       5.38848629       7.41409993      21.86758706      -0.10893081      -0.28140528       1.94843513
O        8.45750298       5.86714003      21.95543415       2.66148072       1.47143188      -3.32678824
O        4.06307406       1.52794731      12.13119476       0.44343172       0.63847346       0.34720953
O        1.11279630       4.10898159       5.21638368      -0.90952221      -0.88933391       0.43970370
O        5.79486161       8.51244707      15.37266108      -2.32550784      -1.06203852       0.90292104
O        0.55555021       3.56386201      12.27483358      -0.05279634       2.16423750       0.99750749
O        6.48455616       8.58024220      21.88164315       0.90881951       0.93343254       0.10824243
O        9.43459016       6.11009689      15.15103464      -0.72500892       1.79232238       2.08782702
O        3.15575598       1.09032062       5.77722639       1.88635920       1.66115841       0.42442391
O        2.97375732       6.14025868      19.03321382      -0.08324228       1.26696007      -0.49823127
O        3.88476177       6.39441438      15.14418456      -3.03250402      -0.90520165      -0.42992520
O        7.14915281       3.55401632       8.60705406      -0.90059997       0.37114642       0.23058994
O        6.00766572       3.77510201      11.89725849      -1.40958390       0.28780307      -0.19857551
O        1.41042472       8.30481158       8.62843784      -0.81860498      -0.21123812       0.37865880
O        1.73577401       8.77004208      12.18777953       0.38710182      -0.51920970      -0.28476683
O        8.26823781       1.43239214      19.20721513       2.07703969       1.54643867      -0.83793599
O        7.76588874       1.26114228      15.36607877       1.91971177       0.97075578      -0.25941745
O        2.52944990       4.32638413      16.44111071       0.11209840       1.42170958      -1.67336392
O        5.25086427       6.78474128      17.76279744      -1.11070395       1.72193573       0.49255080
O        7.88346336       5.49743379      10.70499058      -0.69883416      -0.64816114      -0.89892432
O        4.72050127       2.40262439       9.65920868       0.35829428       0.78520613       1.54681893
O        9.31387833       7.95165810      17.82372438      -2.58573038       0.57503954      -4.24851814
O        2.73711629       0.41009241       2.97175698       1.39429552      -1.19941337      -2.04623114
O        0.31593788       2.08848644       9.74008432      -0.85889086       0.40326324      -1.06369383
O        7.01919095       9.56490813      24.42853811       0.26662281       0.46662335       1.06125424
O        9.23900765       8.47035446      22.82827485       1.03285723      -3.48223607      -1.06639254
O        1.48703135       0.83527336      11.80333636       2.80261554      -1.64719547       1.17255513
O        0.54348972       1.51453102       4.37939998       1.45639758      -0.10186330       0.92074090
O        8.50670407       8.86561672      15.04791732      -2.32060202       0.44931238       0.21429912
O        2.95921585       3.92004953      11.31204177       0.85662799       0.58652275      -0.98619702
O        5.77222432       6.16332867       8.95176150       0.58584963      -0.82739936       0.04229208
O        6.60397793       5.83471174      15.50230934      -0.27891792       0.69665155       0.94767597
O        3.88638981       3.57525177      18.66906510      -0.19796560      -0.46154143       1.00505589
O        8.50486925       3.09528315      11.77190419      -4.35619594       1.76648152      -0.71497819
O        6.83953304       1.18403609       8.50000969      -0.30886103      -1.87191077       0.28410750
O        1.06711822       6.23206180      15.28358644       1.82509044       0.49528861       0.46469405
O        3.91109709       8.75649911      19.34383431      -0.13944627      -1.58024346      -1.12835390
O        8.31304280       3.75898155      15.42928394      -0.39879956       0.99367087       0.50838624
O        5.56069057       1.94532527      18.58317071       2.27030281      -1.43464992       0.00163002
O        1.26710748       6.11751209      11.62946827       0.05080662      -0.34270695       1.58802807
O        3.84553593       7.81665618       8.59257293       1.93816972      -0.10492665      -0.98262086
O        7.96309325       5.30290979      13.28505270      -1.04929496      -1.13373774      -1.11949844
O        4.91641152       2.69259175       7.25891106       0.00468203      -0.12341079      -1.20586710
O        2.40354559       4.67937461      13.70834951       0.29306616      -0.13100045       0.18328523
O        5.42233065       6.84747295      20.34208843      -2.26340129       0.31131026      -2.62475578
O        0.19122481       2.19649179       7.04343854      -0.06158388       0.60658754      -0.70750144
O        6.45025201       9.77975092      13.14782286       0.70654767      -1.24564350       2.10076746
O        9.42787161       7.75110028      20.29468160      -0.02539494      -1.33305840       0.97291723
O        2.59405500       0.45113228      14.31691471       1.03241471      -1.23829708      -0.59793526
80
Lattice="9.77192453 0.01751879 6.90363604 0.24348012 9.76890588 6.90363604 0.01370155 0.0133883 13.86910312" Properties=species:S:1:pos:R:3:forces:R:3 energy=-573.8183863 source_file=vasprun.xml step_index=990 time_fs=57980.0 time_ps=57.98 file_index=28 pbc="T T T"
Na       7.28272489       8.38953965      18.87358065       0.04585096      -0.27411833      -0.13577617
Na       8.29413917       3.12417038      20.45594864       0.09698825       0.13335814      -0.00924863
Na       9.26704653       7.50082792      13.06295629       0.12911720      -0.37087895      -0.06212004
Na       3.55523213       7.90076908      13.69474006      -0.06472035       0.26516744      -0.09514269
Na       2.48061132       2.43053123      15.70607028      -0.16745684      -1.49873950      -0.38094522
Na       5.61117198       1.65044170      14.43609205       0.34131988      -0.16356398      -0.38789521
Na       2.54439605       2.01240757       7.82186234       0.06426741       0.14711232       0.04583016
Na       4.82351417       6.25703746      10.50276878      -0.52588716      -0.00565793       0.26280420
Al       7.20658635       5.12994691       8.97124937      -1.56008723       0.78399057       0.74965124
Al       4.40909753       2.56101622      11.16780325       2.83858166      -0.27730011       2.18419575
Al       3.00712061       4.50140706      18.36419736      -1.46190938      -2.17021684      -0.39084494
Al       5.30222148       6.80535404      15.88292579       0.97946167      -2.02936636       0.73515130
Al       0.34218683       1.80835825      11.39860764      -0.17846240       0.65193877       2.02596589
Al       7.99329680       9.17810618      22.81686324      -3.37245881      -0.13330556       1.23336657
Al       9.70171712       7.44425973      16.03314257      -3.32338175       1.27070263      -0.92743443
Al       1.93240530       0.40936301       4.58635534       1.05546518      -0.84126185       3.14532551
Si       2.54758972       5.22813164      15.24557528       1.14645151       0.04400740       2.06393499
Si       4.25774594       7.32196584      18.87782703      -0.53736083      -0.13260326       2.71194269
Si       7.21928873       4.28094512      12.01530906       0.74804609      -2.72860868      -0.63545317
Si       5.65630201       2.43301141       8.24677919      -0.46585678       0.08028768      -2.00224096
Si       0.87260930       7.19698471      11.97709180       1.02787948       0.33693336      -0.47657293
Si       2.67563081       9.02677489       8.72435114      -0.04048884      -2.86902842      -3.50199917
Si       8.83501635       2.18696537      15.33368916      -3.70720015       0.51096678      -2.53899458
Si       7.46666034       0.07622024      18.97786020      -2.09835189       5.46284707      -0.02148376
Si       0.39580479       2.90586903       5.54516639      -2.43958869       2.20709816      -1.21239113
Si       6.97440812       9.11194248      14.83791286       0.08191969       0.93898340       0.62976469
Si       9.84526681       6.77833400      21.79898325      -2.30363388       2.50620734      -1.59545237
Si       2.85627298       0.23602316      12.73260371      -0.01987123       1.98267934       1.42434359
Si       7.82788507       5.05579370      14.88673843       0.64345607       5.40186859       0.61887259
Si       4.45950700       1.86652305       5.47002871       4.41916036       1.38884794      -3.24457739
Si       2.03062114       4.31884535      12.34066175      -0.68407603       0.71535728       1.15837831
Si       5.41121510       7.57764801      21.79621645       0.46058333       1.86235460      -2.73323974
O        8.73611333       5.54533851      22.08836749       2.12082936       0.82731073      -0.01395393
O        4.09959506       1.23827422      12.34417812       0.01315525      -0.67274468       0.09937313
O        1.46424092       4.14423164       5.40009373      -0.00535465      -1.56673996       0.68937136
O        5.54269516       8.26555157      15.02085139       1.08286615       1.43286945      -0.77930401
O        0.69047052       3.45086353      12.19941664      -0.62574832      -0.85364025      -1.07991129
O        6.18356003       8.86960093      22.27359891       3.92633470       1.07649778       0.70255091
O        9.15773886       6.26512208      14.99039814      -1.75352650      -4.55221817      -1.72627945
O        3.33406196       0.86274340       5.91031038      -2.94970770      -1.82834067      -0.93438905
O        3.46149589       5.91776582      19.14512108       1.36442209       1.74159924      -0.52745925
O        3.97503203       5.89587843      15.08182502       2.41629726       1.02549727       0.32784288
O        6.74701850       3.58704351       8.38004281       0.61631603      -0.30722960      -0.46991968
O        6.11846397       3.01758624      11.98729598      -0.86223722       0.78965925       0.27957890
O        1.13831092       8.39145065       8.61273160       4.61629484       1.68837853      -1.02340950
O        1.94271280       8.49356721      11.91720561      -1.92097898      -1.57698919       1.44394182
O        8.68125302       1.29360861      19.16873368      -1.79091829      -1.72117886       0.40949011
O        7.71902915       0.93814273      15.13127589       1.95347408       2.03403896       0.25040465
O        2.51039545       4.22614838      16.61883407      -0.71759401       3.55501277      -1.20168111
O        5.07709938       7.50688209      17.52920068       0.06484077      -0.51372886      -0.76371669
O        6.78075375       5.16277816      10.71576324       1.01905623       0.76698072      -0.37968876
O        4.69030031       2.19132347       9.48804018      -1.83495160       0.53639497       0.79184640
O        9.73992873       6.91284375      17.58360656       0.08561433       0.01252174       2.53410331
O        2.87780336       9.75708701      10.06280895       1.60877644       2.29387469      -0.49470946
O        9.61396963       2.15908632      16.69043507       1.34654482      -0.10885653      -0.21119757
O        8.02275657       8.99374788      24.61543775       0.35063896      -0.84093470      -1.81547934
O        9.25415492       8.20140758      22.37813545       2.09786592      -2.30258958      -0.28975365
O        1.57346718       0.74164100      11.98074017      -1.47096126       1.06346690      -1.47860519
O        0.72931796       1.56438162       4.73970351       0.07150299      -0.01228647      -0.55399530
O        8.32227760       8.70352783      15.67650121      -1.61054897       0.25064452       0.26706348
O        3.30722497       3.83176129      11.53072706       0.24861204       0.13661409      -0.81094188
O        5.76313452       6.16955065       8.50461772       2.08560015      -2.43724237       0.35783805
O        6.68972402       5.66293559      15.83295115      -1.28986552       1.29183351       0.72337203
O        4.08160151       3.11897219      18.23890185       0.47942840      -2.39674350       1.20217812
O        8.73202398       3.52221563      11.77616610      -0.36607242       0.51000414       0.58598398
O        6.37327759       1.03607666       8.00287918       1.52472939      -3.26822749      -0.28940283
O        1.77793955       6.73627136      15.11680811      -3.54147865      -1.47928286       0.31740413
O        3.12125447       8.46614036      19.28474613       0.63166274      -1.78997415      -0.97612906
O        7.73027870       3.51693474      15.12875056       2.20710767      -3.76657587       1.30283719
O        5.98734528       1.04336420      18.79095492      -0.94593065       0.29640878       0.75011721
O        1.96291257       5.95696843      12.09709521       0.13899647      -0.47989957       0.04603204
O        4.01536611       7.91714338       8.55719145      -6.28334505       1.09445319       1.55132451
O        7.40812256       5.27703035      13.33241615      -0.54202150      -0.23039691      -2.06545350
O        4.78109924       2.75266418       6.77652524       0.99580369       0.43147024       3.50499813
O        2.24793011       4.24514065      14.01240366      -0.18750653      -0.81932091      -0.27087518
O        5.36293002       7.73542951      20.11348807       0.36962135      -1.21721842      -0.34620019
O        9.70353726       2.34718998      13.94581219       1.74309069       0.04844150       0.88590021
O        7.35763201       8.84095780      13.24273511       0.70987086      -0.30472959       0.24865004
O        9.55546132       7.19669735      20.10359669       0.84015346      -0.81283162       1.44557362
O        2.57143098       0.40076897      14.44930554       0.82186800      -0.23344376      -0.85880519
80
Lattice="9.77192453 0.01751879 6.90363604 0.24348012 9.76890588 6.90363604 0.01370155 0.0133883 13.86910312" Properties=species:S:1:pos:R:3:forces:R:3 energy=-575.13390848 source_file=vasprun.xml step_index=65 time_fs=74130.0 time_ps=74.13 file_index=37 pbc="T T T"
Na       8.79881882       3.70903735      20.97403280      -0.00797605      -0.43141447      -0.14608970
Na       8.39238770       1.15995926      10.42231375       0.11882961       0.01890235       0.18150037
Na       7.60432478       6.57315316      18.30224497      -0.49346719       0.26421933       0.07985259
Na       5.42081725       7.59038753      11.09498035      -0.25626727      -0.49388667      -0.05898448
Na       3.51916151       2.53232120      16.18352547      -0.33150320      -0.16095961       0.00970692
Na       6.51856409       1.98572002      13.89043479       0.22906514      -0.95882275       0.63676648
Na       2.39114644       2.21150067       8.82594715       1.05752446      -0.24420773      -0.10894300
Na       1.17109848       6.38549088       6.20752661      -0.59911944       0.30580905       0.56971467
Al       7.11448897       5.27167195       9.05479205      -2.94730161       0.27105773      -0.40892495
Al       4.47728420       2.84577749      11.56266491       0.10556800       1.38878608      -0.55339334
Al       2.95182431       4.62123392      18.56333747      -1.45760358      -0.42265728      -0.52134671
Al       5.40934860       7.13461947      15.78266819       0.18523161      -1.22193805       2.42056730
Al       0.40794062       2.12081539      11.59740453      -1.56033177      -1.46768786      -1.70483261
Al       7.63324258       9.31392301      23.09139209       0.22477453      -2.16705767       0.60814381
Al       9.54712403       7.56214194      15.99154195       0.92402952       0.27740319      -2.54967223
Al       2.09577753       0.33718186       4.64858812      -0.77601572       0.93466955      -0.92593655
Si       2.74919926       5.40810967      15.34557944      -2.53625555      -0.28106693      -0.50213711
Si       4.34318705       7.31711286      19.04204277       0.02717386       0.65469024      -0.18890339
Si       7.31108785       4.26394752      12.03861768      -3.15443591      -1.88825977       1.02185830
Si       5.68909689       2.43720657       8.63676352      -1.68302524       1.87698332      -0.02332275
Si       0.87081569       7.28641301      12.08970397      -1.79618259       2.32929272       0.36313531
Si       2.52919797       9.11150084       8.38834930       1.52409572       1.48624033       2.40884547
Si       9.04660524       2.25903363      15.60433680       0.78659516       0.22846946       0.01138741
Si       7.13907048       0.47758142      19.00821778       3.00425304       2.71594810       2.28509665
Si       0.29570589       2.74863998       5.73913596      -2.40530958      -2.35853613      -2.90577006
Si       7.13026201       9.48228783      15.02959433      -2.19910743      -0.27593931       0.13389594
Si       9.49368623       6.89398655      21.93877523       2.78800850       2.74338817      -0.55116170
Si       3.00529938       0.49893318      12.63767181       0.32600282       0.57347351      -3.45098438
Si       8.12356469       5.31696092      14.96120858      -0.00882135      -2.68048497       0.44532145
Si       4.36738101       2.05773870       5.84691032      -0.27331929      -2.88532686      -2.22983888
Si       1.97371585       4.46445938      12.66246673       2.61614981      -0.69343966       0.29142723
Si       5.31639079       7.68097953      21.85289135      -2.38753870      -2.90988070      -0.66492605
O        8.64958184       5.59097205      22.23509758      -1.11757940      -0.84283490      -0.83254291
O        4.43557609       1.28851691      12.25899882      -2.09499447      -1.81798927       2.24416922
O        1.28212598       3.98877264       5.66198629       1.57206938       1.35509558      -0.73855525
O        5.59699987       8.77932908      15.31176769       2.06969452       0.34330949      -1.69025746
O        0.71136803       3.54754121      12.48210632      -2.48676166      -0.09818495      -0.41081874
O        6.10544714       8.98375957      22.14690826       2.46408459       2.54783144       0.82817116
O        9.59049288       6.06236551      14.93497656      -1.18617868       0.09179112       0.65302793
O        3.21973557       0.76767538       5.91826646       1.99456410       2.96877855      -0.20677726
O        3.13424267       6.22802580      19.19466164       0.32410094      -0.98861474       0.39916075
O        4.08658688       6.23454905      15.04349465       0.40349053       0.30820012      -0.38487084
O        6.69789758       3.64214352       8.58072683       1.81686590       1.62988643      -0.90223605
O        5.91481415       3.30248405      12.46425948       1.38393532       2.72084709      -1.62945819
O        1.09214528       8.43215830       8.31070198       0.18957589      -0.00157618       0.20333945
O        1.87471652       8.55806525      12.05963674      -0.89966897      -1.78710116      -0.08340377
O        8.45752998       1.62974257      18.81702092      -0.62726130      -1.18137461      -0.49717918
O        7.93054845       1.06667303      15.66950836       0.16705994       0.96772305       0.00822077
O        2.88051555       4.74196259      16.80857260      -0.16705643      -0.84383610       0.49898352
O        5.14847474       7.22465512      17.68922105       1.23678671      -0.79712304      -2.61776896
O        7.02713953       5.11084497      10.70412185       0.89062413       0.25157572       3.68856586
O        4.68959672       2.41115149       9.86129276      -1.59808449       0.92856157       0.48283686
O        9.73430719       7.21683150      17.61025988       0.66770529      -0.78856654       2.17744834
O        2.66128418       0.40863983       2.88180566      -0.93577682      -1.52722964      -0.55214958
O        0.54308885       2.28168119       9.76780014      -2.39689310       0.17901326      -0.34197462
O        7.20130697       8.97050039      24.92212876       0.18958057       1.35300823      -1.27450066
O        9.03451299       8.17588026      22.98685066       0.01243751      -1.81726950      -2.30432023
O        1.81324972       1.15717584      11.67163874       1.62861075      -1.27090714       1.38108597
O        0.61867077       1.42101367       4.75576526       0.77859786       0.95810329       0.24175163
O        8.23295594       8.64914692      15.78234973       0.43186393       0.07187509       1.77515790
O        3.24143894       4.14487278      11.71381049       0.22707148      -0.95057513      -0.19990343
O        5.67232686       6.45390342       8.99846628       1.76618956      -0.54721066      -0.64977278
O        7.05080274       6.10148547      15.87199939      -1.14531135       0.68032907       0.00760106
O        4.03450081       3.29582298      18.68626382       0.03618527      -0.93276388       0.65876449
O        8.36248113       3.03105020      11.91508434       3.31691525      -0.15461171       0.48266220
O        6.57705424       1.17673331       8.88162190       2.76414705      -3.12495190      -0.64370334
O        1.26179979       6.17924743      15.33077428      -0.59865956       1.95603945      -0.14326333
O        3.51060654       8.71516923      19.06139426      -0.22933206       0.29676734       0.95360265
O        8.16100136       3.61567026      15.53066521      -0.20259767       2.65576318      -0.06849697
O        5.80512898       1.41670427       5.30307969      -0.06430188      -0.81213210      -0.81616717
O        1.67762259       6.02257460      12.56357362       0.61989283      -0.24562357      -0.53182977
O        3.67154569       7.86777973       8.47016206       0.23515843       1.17875270      -1.38933923
O        7.58218137       5.01557142      13.46297071       0.29212358       1.25556858      -0.97751226
O        4.85241284       2.60596791       7.23555492      -0.83589375       0.26888073       2.03001145
O        2.29022550       4.12089513      14.24556272       1.99639550       1.36101504       2.00425079
O        5.53524624       7.14629788      20.22086253      -1.15400964       0.82860130       1.36548857
O        9.71288995       2.11526126      14.06844290       0.44322656       0.17893976       1.33340408
O        7.91921628       9.73080453      13.60271152      -2.25140669      -0.16307543      -1.31152443
O        9.35670801       7.36267183      20.13484029       0.59938662      -0.60174646       2.46833863
O        2.44847176       0.50841614      14.15164819       0.40649381      -0.58174355       1.34387621
80
Lattice="9.77192453 0.01751879 6.90363604 0.24348012 9.76890588 6.90363604 0.01370155 0.0133883 13.86910312" Properties=species:S:1:pos:R:3:forces:R:3 energy=-576.60773518 source_file=vasprun.xml step_index=690 time_fs=45380.0 time_ps=45.38 file_index=22 pbc="T T T"
Na       8.28397936       1.64740930      10.41464999       0.56987141      -0.28267987       0.20542871
Na       6.03572543       4.16823639      17.60139051       0.12757878       0.22428699      -0.37092976
Na       4.10499632       5.60968474      10.26156413       0.67425093       0.37560910      -0.66422676
Na       1.57614349       9.06175694      17.78027373      -0.61786925      -1.09940922      -0.89580033
Na       8.43227417       3.84405946      20.36685303       0.67662754       0.08532334      -0.00027909
Na       5.84776735       1.75759494      14.53409431       0.22146687      -0.27783281      -0.07245778
Na       1.58173655       6.17123771       7.27665851      -0.04823088      -0.43496004      -0.76709733
Na       4.43007266       8.45727139      13.42988415      -0.31906133       0.27743116       0.22278578
Al       7.34597468       5.17735952       9.03881183      -1.64729587       1.50720269      -0.30374629
Al       4.80857283       2.92159225      11.90150832      -1.77182180       0.65664297      -2.10534022
Al       3.01251857       4.53005950      18.57793541      -0.91850969       1.69569924       1.73490663
Al       5.73490205       7.14921914      16.03186571      -1.67409169       1.77175408       0.06121622
Al       0.74503496       2.57202434      11.27314972      -0.82282910      -3.46879075       0.13210010
Al       8.18271512       9.41256527      22.92438042      -0.02954550      -0.19671077       0.74459607
Al       9.81074871       7.95926820      16.12134123      -1.21756830      -2.13952146      -0.28893148
Al       1.84706308       0.50995956       4.72142994       2.68612501      -1.32991526       1.06792462
Si       2.94584773       5.61328211      15.54365106       2.92194526      -2.29762285       2.86766736
Si       4.42610386       7.57987092      18.92009055      -1.59111710      -0.33758653       4.15902411
Si       7.27433695       4.60064709      12.18885905      -0.36087944      -0.54482643      -0.70828100
Si       5.84237694       2.50745304       8.61542039       0.16519015      -1.89871300       3.31003723
Si       1.02421428       7.39396256      12.12525254      -4.20326105       2.65298415       1.10016074
Si       2.82364094       9.09419148       8.65585787      -0.80927734      -1.34007830      -0.45224015
Si       9.35036964       2.61545423      15.41526968       0.82439379       0.58321859       0.60112174
Si       7.65953086       0.84694468      18.92776206      -0.92640735       0.51866623      -1.75254003
Si       0.19189784       2.93111991       5.42888385       2.36579401       2.68617996       1.54536639
Si       7.50013704       9.61567673      14.97350233      -0.44534056       0.42317296       2.70265828
Si       9.93875776       6.78831350      22.10449459       0.78134903      -1.33923899      -0.44803728
Si       2.95751801       0.58991749      12.83838036      -4.36842484      -0.30989433      -0.12617679
Si       8.08916206       5.43444080      15.06781671      -0.53055570       2.12715820       0.69555138
Si       4.77718482       2.05197970       5.72102537      -3.65512618      -0.91818626       0.18665757
Si       2.33440801       4.97353717      12.62012050      -0.18959904      -5.11586243       0.00367847
Si       5.74290059       7.94380756      21.67519224      -0.96385052      -2.23491493      -1.11071942
O        8.96329249       5.49140731      22.33432324       0.13650759      -0.35991407       0.37439107
O        4.25898895       1.43313397      12.78257423       2.77075854       2.55095805      -0.14871971
O        1.37445867       4.08794929       5.44400757       1.54402017       0.34367638      -1.70749599
O        6.29230738       8.57117417      15.14637787      -0.64676629      -0.45747540      -0.99538202
O        1.08274208       3.93802217      12.11531477       1.04717698       3.75431310       2.39077337
O        6.66095500       9.20321881      21.98408148       1.68457421       1.36467164       0.85947989
O        9.18596883       6.56622077      15.06135186       2.59297016       1.39244649       0.92102679
O        3.43362951       0.92155318       5.58718192       1.75092846       1.56370655      -0.42096239
O        3.34893410       6.36075635      19.24931618       0.26694985      -1.58339023      -0.29251898
O        4.22802030       6.56912786      15.35241163       0.31670247      -0.10358622      -1.42037237
O        6.98629728       3.58748832       8.29712941       0.27541465       1.49504600      -0.72496708
O        6.11138655       3.59291457      12.78571995       1.16628816      -0.36896203       0.52556662
O        1.66155895       7.86277183       8.62554967       1.44652424       1.50848676      -0.35296670
O        1.61138590       8.87371623      12.58648357      -0.29696449      -1.13750891      -0.72738097
O        8.79537446       1.96411638      18.64449442       0.65301432       0.90779250       0.96005992
O        8.46651256       1.31109617      15.72793650      -0.53203508      -0.49059012      -1.15219977
O        3.19475372       4.53996971      16.89798937       0.01658538       1.34484986      -3.43681667
O        5.12014177       7.54766040      17.58404846       1.57734599       0.02623681      -3.08346976
O        6.71799550       5.15034187      10.68442375       1.30576626      -0.02748397       2.76403611
O        5.10202737       2.84549177      10.07761042      -0.01833107      -0.34413114      -0.34746090
O        9.59760717       7.43132971      17.79348078       2.88746276      -0.01097610       2.04263519
O        2.66962248       9.75005392      10.09254307       0.18877153       0.50229688      -0.15744757
O        0.76175431       2.79150521       9.59277536       0.21310242      -0.30097480      -0.85435715
O        7.92240072       9.49222573      24.67128394      -0.22669997      -0.07157614       0.66388805
O        9.33709239       8.03676858      22.89066389      -0.20111984       1.67968002      -0.26894044
O        1.78315550       1.13601348      11.71965182       0.78550910       1.09325174       1.67826432
O        0.51559358       1.55730468       4.68064388      -1.20939034       0.83680335      -0.68517461
O        8.82710531       9.33705356      15.82344430       1.14646949      -0.47632850       0.07255388
O        3.67355384       4.35018523      11.95035686       0.53112710      -1.07781854      -0.13162129
O        6.14489925       6.50377412      22.36160954       0.84197731      -0.22298874      -0.35350118
O        6.96238365       6.05049561      16.08892358       0.70707495      -2.85953168       0.06658029
O        4.42188902       3.57928153      19.05951728      -0.00957881      -0.63026526       0.62158775
O        8.59043763       3.63221284      11.79240264      -0.65950582      -0.40401450      -0.49756767
O        6.84569786       1.16934559       9.01338839      -2.01279384       0.95542309      -1.76562060
O        1.73179323       6.51296967      15.86457995      -4.76114942       2.83588639       0.35054368
O        3.38441491       8.87496234      19.11418762       0.24071222      -0.38072016       0.15759040
O        8.43262863       3.98405869      15.64007898      -0.74976363      -1.16311522      -0.01468759
O        6.13899510       1.74961661      18.69896448       1.14720259      -0.83484101       1.08585977
O        2.32447632       6.43776173      11.99893671       0.37673770       0.83169857      -1.03759247
O        4.22576195       8.17293139      22.34900506      -0.48416548       1.13634348      -0.42473380
O        7.74384921       5.53246797      13.47876191      -1.37429787      -0.98953250      -2.47115151
O        4.87240750       2.04257145       7.40053448       0.58632976       0.38149733      -0.86129633
O        2.53634591       4.81312289      14.22699178      -0.32970972      -0.71849935      -1.14915916
O        5.71249030       7.87734913      19.96298410      -1.09198247      -0.48668572       1.96342094
O        0.23289912       2.77042173       7.03557560      -1.20430326      -1.33530531       0.94181828
O        7.61799612       0.18251767       6.55978563      -0.01002247       0.62789822      -1.76813807
O        0.19857886       6.76679882      13.53801840       1.17532434       0.75699096      -1.07129022
O        2.31352741       0.54112015      14.46080555       1.50881096      -1.10335506      -1.35628084
80
Lattice="9.77192453 0.01751879 6.90363604 0.24348012 9.76890588 6.90363604 0.01370155 0.0133883 13.86910312" Properties=species:S:1:pos:R:3:forces:R:3 energy=-576.21759682 source_file=vasprun.xml step_index=665 time_fs=75330.0 time_ps=75.33 file_index=37 pbc="T T T"
Na       8.44681981       3.71749837      21.00675929       0.63202664       0.13481208      -0.96456480
Na       7.70018908       1.01147721      10.55733059       0.35444192       0.03854893       0.34429419
Na       6.21312470       3.53311205      17.02597567      -0.34851403      -0.19714499       0.56200352
Na       7.58814993       7.47307547      11.43476852       0.06758954       0.06991273       0.20813313
Na       1.50736303       2.64892082      15.51439240       0.64092740      -0.48688932       0.34424244
Na       6.05850613       1.34141786      13.90733205       0.16786594       0.49704459      -0.27462010
Na       3.77977478       8.81603915      14.29689349      -0.68757497       0.22232608      -0.50933266
Na       2.10922680       6.37197300       7.68615743       0.41524520      -0.96589076      -0.77307365
Al       6.92705165       5.31716952       9.07842581       2.11372681       1.70041524       1.41803977
Al       4.64605667       2.50048827      11.64283762      -2.43512002       3.27568764      -0.84713333
Al       2.97231665       4.84043823      18.58969615       1.41535246      -1.61090879      -1.73167760
Al       5.27503210       7.06609510      16.00658235       1.10632344      -2.53942701      -1.51885517
Al       0.24286299       2.12830635      11.64556795       0.31095725       0.76069357      -0.55497981
Al       7.98749727       9.56078896      22.80385313       1.11724893      -0.14198197       1.45198275
Al       9.61360405       7.81080754      15.99739940      -0.16487178       0.82926700       0.97527895
Al       1.82862331       0.43296044       4.74578099       0.16587652      -0.18685365      -1.14138184
Si       2.45475993       5.82131503      15.67361364       2.10417144       0.62101692      -3.25638003
Si       4.33817037       7.51450991      19.03848833      -0.86291582       0.71325627       1.35901950
Si       7.28975784       4.16609094      12.16640973       2.04237640       0.83992721       0.93567305
Si       5.59296916       2.70061589       8.50287390      -4.53658016      -3.44017273       0.74963637
Si       0.92585849       7.10600583      11.95937293       0.41504773       0.84023808       2.66021588
Si       2.76435392       9.15239517       8.69082688       0.21070366       3.21960919      -1.03746618
Si       9.29141128       2.50157600      15.35063693      -1.68654478       0.14053102       3.73244283
Si       7.21209337       0.94394869      19.07141395      -0.72608796      -1.62708834      -0.59684776
Si       0.57397296       2.92113370       5.80452960      -1.34917994      -0.22829378      -3.26674548
Si       7.14583918       9.50977039      14.86083752      -1.47074440      -2.61530162      -1.77236809
Si       9.57181171       6.78060164      21.92634308       0.44097178       0.36824881      -0.16694772
Si       2.74036690       0.35860532      12.78220806       0.03426083       0.72623683      -4.47759871
Si       7.80972849       5.31313964      14.99857021      -2.79427354      -0.11619520      -0.06999573
Si       4.20764181       2.25021417       5.77228777       1.01000316      -0.24212582      -0.66868440
Si       2.03694171       4.43643871      12.84745917       3.13429565      -0.52109403      -0.65582254
Si       5.58663290       8.11718718      21.83514096      -0.98324454      -1.09529378      -1.05856204
O        8.68963369       5.55528267      22.48518579      -0.66360745      -1.20993727      -0.68258588
O        4.28714128       1.07260938      12.44407915      -2.03817108      -2.23579934       1.01883100
O        1.65113516       4.00536306       5.40175422      -0.17894579       0.42439210       0.67102754
O        5.82759759       8.54801293      15.20123045       1.12741169       0.02599520      -0.28642127
O        0.70874430       3.58531034      12.64350972      -1.34450029      -1.04037780       0.11254734
O        6.37543409       9.47147757      22.12934645       0.46278069      -0.12847088       0.59014898
O        9.00787563       6.43186212      15.18317889      -0.89252468      -1.28669503      -1.24209284
O        2.97924205       1.02098450       5.98221941       2.13492350       2.05251101      -1.06126472
O        3.33868140       6.25533596      19.43334299       1.33727826       0.27346732       0.94110836
O        3.80148226       6.64779687      15.15908372      -0.66639418       0.96084397      -0.41807440
O        6.61033657       3.84845598       8.28761107       1.20435341       0.91658562       0.22924703
O        6.28400059       2.89359098      12.09586199       0.83446239      -0.35072526       0.36725621
O        1.54453343       8.18007638       8.62249999      -3.10162527      -1.58829252       0.17686698
O        1.66763473       8.60540809      12.32051389       0.04200493      -1.24855894      -0.84641380
O        8.34505140       2.06421535      19.32270445       0.15710254       0.33229840       0.48290231
O        8.25727331       1.26914270      15.18837537       0.09479976       0.22359767      -1.05630524
O        3.01967824       4.98167533      16.82262538      -0.27743664      -1.59652205       4.00470552
O        5.04756027       7.41872459      17.61367503      -0.27870496       0.40777120       1.96231034
O        7.22620936       5.12164429      10.84663055      -0.69641453       0.04959120      -0.32504467
O        4.63074158       2.56376048       9.88649401       2.16972657       0.13608852      -1.90559856
O        9.60864429       7.44415450      17.71392609       0.63799143      -0.50378779      -0.33733302
O        2.46323341       0.49672918       2.91198429      -0.86317278       0.56019113       3.27213048
O        0.19138925       2.52627947       9.90909591       0.02661498      -0.50781497       1.05669453
O        7.70282786       0.18752418      17.71548296      -0.66136362      -1.03481526      -1.48898664
O        8.90623458       8.10685490      22.43164453      -1.82810734       2.79770152       0.75882400
O        1.37396540       0.83424709      11.96446901       0.90004142       0.69965893       0.67113569
O        0.55260062       1.69689882       4.63332163       0.64738923      -0.60338076       1.19547331
O        8.41082962       9.12625553      15.76673581       1.00542351       0.16540180       0.37612322
O        3.39024998       3.70178665      12.27233033       0.43274995      -0.83221389       0.11250310
O        6.07608236       6.77021291      22.54534849       0.46308000      -0.64119119       0.42971699
O        6.38733916       5.35346021      15.93079265       0.87897627       3.32025991      -0.40913798
O        4.28948478       3.60727692      18.64985009      -0.80761430      -1.44970748       0.63281579
O        8.86822383       3.54016804      12.35147385      -2.58771367       0.99635906      -0.10812007
O        6.45069414       1.23078174       8.26885809      -0.33605955       2.92634756       0.96809029
O        1.22261996       6.84838345      15.89867492       0.04987451      -0.92544174      -0.75783415
O        3.03989226       8.57114346      19.21933053       1.81997396      -0.10088868      -0.30168298
O        8.31126674       3.82071240      15.30397556       0.28021519      -0.36214127       0.04757276
O        5.62614093       1.48636678       5.14329169       0.26256776      -0.05270212       0.46695142
O        2.06483025       5.78987177      11.86682995      -2.11685283       2.43080082       0.46870306
O        4.09398951       8.30581644       8.67701724       1.01960746      -1.17042277      -0.69425681
O        6.99435112       5.17466929      13.48191652       1.52676408       0.11546356      -0.47554741
O        4.53030128       2.90299406       7.24574106       0.11040849      -1.02969598       0.50883519
O        2.25076299       4.53462989      14.55625623      -1.26779394       1.44959003      -1.31188918
O        5.58096014       7.92973806      20.15805379      -1.61400737      -0.49430318       0.22361892
O        0.63970129       2.62985357       7.37304484       1.94345221      -0.57275939      -1.28149722
O        7.42212433       9.37102372      13.18231628       0.10254517       0.84921279       1.20534880
O        9.77694615       6.74958628      20.29376534       0.88835052      -0.19461049      -0.72700772
O        2.47010342       0.43685452      14.31110068      -0.23395942       0.04539974       3.35398961
80
Lattice="9.77192453 0.01751879 6.90363604 0.24348012 9.76890588 6.90363604 0.01370155 0.0133883 13.86910312" Properties=species:S:1:pos:R:3:forces:R:3 energy=-574.72039868 source_file=vasprun.xml step_index=595 time_fs=9190.0 time_ps=9.19 file_index=4 pbc="T T T"
Na       7.12054524       5.31530733      17.74875619       0.07313524      -0.22962198       0.00528984
Na       8.12456114       9.36243047      19.53039281       0.12001981       0.05617276       0.18532716
Na       3.07631250       2.41578390       8.61688342      -0.44679137       0.10430053       0.07927860
Na       7.76258375       7.97427766      11.45475009       0.03197556      -0.31464331      -0.38324923
Na       9.55218213       3.09329109      21.29231159      -0.00238791       0.52619117      -0.11897954
Na       4.75286577       2.25341438      15.20651497      -0.20070479      -0.00704068      -0.26526023
Na       1.34333727       6.47382526       6.28980548       0.01074483       0.26086686       0.27853028
Na       4.26415526       8.53593499      13.64434300      -0.10849449       0.26928808      -0.16922907
Al       7.36709980       5.27804350       9.04949664       2.34315658       2.88016756       0.01341626
Al       4.93060537       3.15603704      11.68423109       1.28386622      -0.80756566       0.48484328
Al       3.24186898       4.83881955      18.56754743       1.94585321      -2.03599797      -2.72365122
Al       5.64627609       6.96917642      15.73564044       3.30433300       1.66454740       1.01285958
Al       0.88804970       2.37430009      11.37286210       0.22869794       1.48444183      -0.17531133
Al       8.50535002       9.71441173      22.66587904      -0.69642293      -1.84796459       3.05782785
Al       0.28776066       7.78844671       9.13796989      -1.71329047      -0.89972574      -0.21438505
Al       2.62258114       0.63679952       4.34662828      -0.76991159       1.49186633       0.41762458
Si       2.88098221       5.76014757      15.43215233       4.37518247      -1.65297886       3.03914528
Si       4.64553226       7.57763626      18.72651474       0.94647580       1.19186107      -0.12543753
Si       7.71232499       4.29088314      12.03204406       0.78587056       0.84835332      -0.43532749
Si       6.08330905       2.54511393       8.58749194      -1.69047514      -2.95663563       3.88859698
Si       1.25960805       7.80348148      12.28175037      -0.39851343       2.05467078       1.29995387
Si       2.99572901       9.03122478      22.16122423      -0.27066673      -0.45918549       0.46298155
Si       9.60983817       2.62789966      15.08292991       3.96135257      -2.26971078      -0.11065079
Si       7.71923311       1.30048686      18.93271506      -1.84514010      -2.02937816      -2.38601290
Si       0.75444352       3.28036584       5.32285136       3.68012713      -2.63933189      -1.80523496
Si       7.48954115       9.54527984      14.87248328       0.64928875      -1.52138210      -1.47031333
Si       9.89796894       6.91821620      21.94119998      -3.38532185       1.19457600       1.03089709
Si       3.41698909       0.63538551      12.42325218      -0.17657449      -0.77370424       0.54232575
Si       8.20636967       5.45572073      14.53967252      -0.30350843      -0.99046913       3.27893951
Si       4.97541514       2.20761105       5.76153154       2.07915872       0.62663825      -2.92702012
Si       2.55981032       4.91500329      12.60762596      -3.64917750      -0.92865567       0.96429175
Si       5.94466181       8.03649084      21.68946444      -1.15420709       2.62323242       1.61132522
O        9.07016736       5.50238266      21.91920804      -1.37335263       0.07507446       0.45804436
O        4.56107710       1.77012182      12.72018754      -0.50772160      -0.97252334      -0.09406083
O        1.55064491       4.69814306       4.85267045      -3.17145790      -1.11227985       1.91026829
O        6.32668659       8.40657782      14.78832488      -0.99789881      -0.22689057      -0.17886726
O        1.23867996       4.09630725      12.09718996      -0.58592483      -2.03815293      -0.21231134
O        7.07804279       9.34737460      21.82396524      -3.51045887      -1.54445205      -2.03840411
O        9.41337010       6.20978570      15.30484736       0.43925667       0.60649027      -0.03035093
O        4.24493338       0.93734531       5.16752769      -0.64079477      -1.44430825      -0.53167214
O        3.61951482       6.38941804      19.16248965       0.11157410       1.60164106      -0.01101366
O        4.08333923       6.90615219      15.31582947      -3.55242135      -0.15554038      -2.16607003
O        7.16459990       3.66476519       8.51271976       0.51324770       0.45846625      -0.93794277
O        6.37625851       3.66343806      12.54905113      -0.58892023      -0.89869826      -0.03226150
O        1.67117324       7.93471897       8.05136193       1.51037031       1.35528629       1.42912864
O        2.37323639       9.14826763      12.46282897      -1.89039796      -2.00543944      -1.33205787
O        9.13562881       1.86168286      19.06419625       4.54413143       2.68324889      -0.21296932
O        9.12331242       1.04591243      14.82733913       0.45585939       2.57963409       0.06742458
O        3.53601934       4.87370193      16.73484416      -1.04738014       0.37335854      -0.02863406
O        5.74239610       7.12949594      17.53404876      -0.73488730       0.21512839       1.02147505
O        7.53451928       5.36744626      10.84984211      -0.45932999      -0.62809874      -4.16270043
O        5.08674992       2.74853122       9.99641871       0.89432201      -0.08262807      -2.70417707
O        0.23111054       7.83110087      10.98285735       1.27069291       0.11730466      -0.23158436
O        2.61747330       0.33940486       2.60571813      -0.35187865      -0.67018205       0.01817077
O        0.93422710       2.59845315       9.54140328      -2.29966001       0.15640443      -0.50638061
O        7.48526744       0.50539071      17.49127776       1.18987611      -0.65214971      -0.53432258
O        9.16268904       8.05076288      22.90301919       0.49785441       0.27868310       0.78395668
O        2.10379320       1.19449877      11.75286181      -1.11547279       1.38431662      -1.07304713
O        1.57361247       2.13946936       4.24843372      -0.90191236       0.58257355       2.47424161
O        8.71421051       8.84825718      15.63189205       0.86605983       0.58820189      -0.14315750
O        3.82785445       4.38341723      11.95044446       1.61908677       0.67246247      -1.76861614
O        6.60521546       6.85724363      22.49001915       0.24293828      -2.65862185       0.31233626
O        6.77101341       5.72061333      15.35853634       1.46189933      -1.22283190      -0.51513886
O        4.18786252       3.50332566       5.46685848      -1.82636438       3.58879012      -1.26832476
O        8.92517335       3.13289800      11.98402044      -0.94380189       1.40753135      -0.66719355
O        6.77175207       1.04107952       8.81241436      -0.06857448       2.01075168       0.54215806
O        1.54003775       6.51590529      15.59562687       0.18529268       0.96800643       1.21591779
O        4.08250981       9.13494604      18.34147977       0.60843999      -1.54869932       0.30815830
O        8.58080475       3.76379264      14.69032955      -1.95849368       1.82762758       1.08755277
O        6.60779871       2.47202832      18.97869755      -2.45883162       0.46790710       1.06874782
O        2.10649727       6.45848070      12.47492624       1.06127948       0.75290713      -0.55991106
O        4.42592920       8.32785848      22.48696697       1.91047184      -0.71601622      -0.51925599
O        8.11340524       5.62747400      12.94371685       1.12303952       0.62943657       1.92823903
O        5.11702107       2.22179455       7.33500221      -0.35865118      -0.10130363       2.28266581
O        2.75993353       4.69953127      14.23554347       0.09328942      -0.61869692      -0.50244576
O        5.40791121       7.87039337      20.17251259       1.46821896      -0.18607268      -0.85795250
O        0.99442751       2.85473088       6.94334153       0.24678679       0.48056336      -0.60082320
O        7.63597069       0.29266917       6.33918120      -1.22610930      -1.88702463       2.48900074
O        0.23564068       7.83450248      13.69194938       0.91635334       0.03778455      -2.96906630
O        2.87760736       0.02928626      13.85257181       0.34244379       0.55215471      -0.35919890
80
Lattice="9.77192453 0.01751879 6.90363604 0.24348012 9.76890588 6.90363604 0.01370155 0.0133883 13.86910312" Properties=species:S:1:pos:R:3:forces:R:3 energy=-574.39687057 source_file=vasprun.xml step_index=360 time_fs=46720.0 time_ps=46.72 file_index=23 pbc="T T T"
Na       7.69114475       7.20645305      18.57616673      -0.20541227       0.05098756       0.23221501
Na       4.11019661       3.03569971      15.95791695      -0.04755379      -0.51694991      -0.60212190
Na       5.17446278       6.31837219      11.47600941       0.02966039      -0.15594735      -0.45098336
Na       2.98091695       9.02019710      14.34747386       0.23393420      -0.31477526      -0.04612015
Na       8.71889456       3.43864136      21.14805050       0.13369089      -0.01093143      -0.54108730
Na       9.08849237       1.07182706      10.55654285      -1.02214089      -0.24872586      -0.46244060
Na       0.53591760       8.34139235      17.89921347      -0.10466808       0.10279861       0.04824513
Na       2.46701722       3.37658539       8.49389454       0.53567213       0.23716530       0.35199750
Al       7.44025395       5.43871589       9.14940007      -1.99845777       0.83539428      -2.30172130
Al       4.73319642       2.93003218      11.33226820       0.69103296      -0.36421895       0.47641241
Al       3.32250347       4.59272997      18.31264090      -1.69353411      -1.71984190      -0.44474040
Al       5.60457110       7.07871648      15.93438123       1.95939855       1.69920836       1.90410728
Al       0.51942170       1.95916722      11.58707568      -1.47583387       3.66238145      -0.21977646
Al       8.14919746       9.79009397      22.76185303      -2.26952397      -4.84394147      -0.60881785
Al       9.63615701       7.90217913      15.78305476       0.27104944      -1.92976661      -1.48362584
Al       2.28283126       0.40997328       4.67446648      -0.10752816      -0.30493119      -0.08077612
Si       2.79664190       5.79783335      15.39174972      -2.51989397      -1.28058407      -2.40809225
Si       4.35273077       7.52393637      18.92573134       6.09169947      -4.30099327       1.53789747
Si       7.61973538       4.23356346      12.11926695      -1.70080122       1.37897564      -1.96735273
Si       5.65794557       2.78653538       8.30913986      -2.05375449       0.02960371       1.24030995
Si       1.09093830       7.32561158      11.79599372       0.26251629      -1.22080597       3.62387827
Si       2.79199143       9.16798859       8.59460972       2.45304961       0.41950963       2.54497233
Si       9.22630027       2.42235565      15.30478294       0.39307907       1.52152925       1.55349819
Si       7.58603268       0.96391067      18.97828610       1.46629828      -0.15983520       0.04870598
Si       0.81336839       2.98949140       5.71700194      -1.52467023       1.56659906      -0.44218929
Si       7.11721715       9.61209417      14.85646723       4.34139859       2.01671434      -0.80293089
Si       9.65405540       7.07991002      21.55481164       1.68727707       2.07877854       1.83759593
Si       2.87010947       0.40363229      12.64928809       3.65345177       1.98643039      -0.36534173
Si       7.99137190       5.34081479      14.89085744       2.21443977      -0.98636194       1.87033150
Si       4.67767081       2.05793196       5.58465776       0.10288037      -1.48684939      -1.67913202
Si       2.36806502       4.49596722      12.67354909       4.23331095      -0.01441091      -3.28567333
Si       5.57199530       7.94126576      22.04070646       1.13226398       1.80982831      -0.28617144
O        8.85706855       5.64540679      21.76204447      -0.75585520       1.04758308       1.44868692
O        3.86700328       1.60205682      12.04102918      -0.77989185      -2.24686914       0.95162783
O        1.90865852       4.26801730       5.52484821      -1.52863953      -2.97576147      -0.21137949
O        5.86557524       8.70337219      15.05661898      -1.45756203      -1.60139157       0.15791720
O        1.25184451       3.46909700      12.41661631      -2.07122147      -2.30493473      -0.97007109
O        6.71001273       9.12298540      21.81302184      -0.04146103       0.62668378       1.85312669
O        9.22399918       6.38587172      14.78089437       0.18076730       1.46459838       1.28866200
O        3.71201381       0.73288937       5.67466506      -1.51206207       0.15321999       0.31424907
O        3.96719950       5.91065788      19.06476788       0.14700725       3.24458801       0.43709036
O        4.08921245       6.62116403      15.48270616       0.43864140       1.50503185      -1.43024264
O        6.60974152       4.00171724       8.07361301       2.58424732       3.19260908       1.48168591
O        6.40035397       3.30418443      11.75878898      -1.23461440      -1.82745904       0.04207345
O        1.49059346       8.31477429       8.40311298      -1.10021867      -0.18851669      -0.68664806
O        1.99185656       8.57881203      12.21155888       1.17175181       1.38751441      -0.59575215
O        8.67752320       2.17445655      19.31985247      -0.16736018      -1.10869060      -1.04388694
O        8.21290681       1.25849109      14.85731501       1.85159954       3.29124059      -1.68336578
O        2.58021966       5.04156427      16.72024647       0.46557598      -2.74550183       3.27039337
O        5.60775902       7.38106979      17.74275378      -1.57478701       1.15470789      -0.00928768
O        7.52309772       5.32316468      10.85068301       1.26570783      -0.36981906       0.66838011
O        4.60299090       2.89595428       9.58643485       0.72633842      -0.62113447      -1.61084903
O        9.92824977       7.43625208      17.44419518      -0.53785187      -0.47858580      -0.48744869
O        2.44477150       0.48461155       2.95311378      -0.28878744      -0.33118170      -0.85675650
O        0.33341163       2.12381711       9.81321216       0.05769185      -0.22520292      -0.22582112
O        7.86293796       0.27584095      17.52984496       0.61695174       0.12748388       2.00151505
O        9.43877823       8.49276618      22.68036432      -0.02323590      -2.77678520      -2.16888326
O        1.41081169       0.72292918      12.26568441      -2.71540261      -1.10947121      -0.72584864
O        0.87563342       1.52799788       4.92864433       1.79257422       1.05969642       1.01512886
O        8.36800832       9.11934920      15.93533407      -0.87152942       0.65735494      -0.97141240
O        3.88556382       4.32302881      11.81037900      -2.53547992       1.05464410       1.19224780
O        6.33355798       6.90220903      23.00421590       0.64646308      -2.57843220       0.21867378
O        6.76430083       5.81930706      15.75629273      -1.05000401       1.02456857       1.14307902
O        4.33644369       2.98265185      18.15016323      -1.47547639       2.41296580       0.40407166
O        8.92560954       3.38941236      12.23319207       4.34476883      -1.55171285      -0.22382119
O        6.68498515       1.52045913       8.30761072      -0.04834900      -2.46029515      -0.14763221
O        1.52647374       6.77597443      15.15342809      -1.66224218       1.09927374      -1.11566769
O        3.33354625       8.72785870      18.73274300      -0.46598652       0.07993477       0.30412409
O        8.39151579       3.82762838      15.50577398       0.38002522       0.34281526      -0.11378390
O        6.05673738       1.32684853      18.94097270      -1.50468867       1.71588727       0.74992983
O        2.09187653       5.98452228      12.18258119      -2.75490112       3.97039008      -1.69746915
O        4.13923134       8.20992948       9.10714546      -0.28857897       0.51800641      -2.11708580
O        7.43625781       5.06269401      13.46359038      -1.47761125       0.39916874      -2.25726925
O        4.59559430       2.83341129       7.01682145       0.25388730      -0.51797554      -0.13402880
O        2.82913943       4.63339927      14.16592159       0.74484128       0.39570400       3.86935316
O        5.42272240       7.61562207      20.42315556      -2.80368303      -0.22719507      -2.07412950
O        0.71484992       2.75974331       7.35472820       0.10841806      -0.59516329      -0.44300156
O        7.93495624       9.68709467      13.28730712      -1.04173266      -1.20750294       2.37342419
O        9.60448707       7.52808026      19.93323876       0.50430544      -1.22734616       0.82911263
O        3.00595272       0.31984241      14.27950632       0.29590116      -0.17682528      -0.79098234
80
Lattice="9.77192453 0.01751879 6.90363604 0.24348012 9.76890588 6.90363604 0.01370155 0.0133883 13.86910312" Properties=species:S:1:pos:R:3:forces:R:3 energy=-574.92798978 source_file=vasprun.xml step_index=945 time_fs=29890.0 time_ps=29.89 file_index=14 pbc="T T T"
Na       5.02525465       1.51783016      14.82650088      -0.05706583       0.03394523      -0.38276097
Na       7.01625411       5.17268018      19.78014520      -0.19669458      -0.42027083      -0.08425989
Na       1.88029396       6.03149067       7.41375257       0.00605500      -0.43611131      -0.17513684
Na       0.49935000       8.78689660      17.31616953       0.45159477       0.34460666       0.45308681
Na       7.55497358       8.60723794      18.72903238       0.32312526       0.07826590      -0.06263711
Na       0.22398468       3.24025374      14.85342880      -0.11616894       0.20753494      -0.34795416
Na       6.58429348       6.84245071      11.34444880      -0.33792900       0.87274973       0.24142479
Na       3.42296032       8.64118259      14.10999137       0.33713423       0.22181128       0.23410840
Al       7.56403984       5.26676371      22.79497286      -0.58086715      -0.97002465       0.27808459
Al       4.80528733       2.83673234      11.38318441      -1.93709659       0.88870804      -1.36578969
Al       2.90533363       4.61813481      18.32710791      -0.65606260      -0.75752106      -0.18593317
Al       5.76425574       6.95369170      15.90793519      -3.89499626       0.11503204       1.61496311
Al       0.48784807       2.00452603      11.34796815       0.66582460      -0.14227160       0.33680505
Al       7.74492274       9.54668770      22.79446091       1.03151708      -0.96057360      -0.51664679
Al       9.65518142       7.94899081      15.75592166       0.88985019      -2.63747445      -1.37394074
Al       2.27922020       0.22310670       4.37323707       1.07763953       0.98894537       1.45216278
Si       2.55525251       5.74602675      15.42342404       2.21868360       1.62431913       1.32300274
Si       4.71594807       7.32708102      18.72622688      -0.14128276      -2.18885058       1.31380274
Si       7.54777217       4.04549384      12.05164701       2.74618013       1.12008813      -0.93061536
Si       5.80630535       2.67512717       8.33378768      -2.10627459      -0.05935632       1.41105691
Si       0.93925438       7.50077091      11.80648632       2.66068379       0.72611297       1.00018211
Si       2.96745139       9.03385971       8.35824140      -0.93614483      -6.86210101      -1.81988161
Si       9.33203134       2.17472580      15.22188265       4.58957002       2.11328022       0.66562817
Si       7.26389150       0.70220539      18.83947906       1.58322678       1.79904351       0.85341456
Si       0.68254772       2.75080697       5.57304180      -2.29514077      -3.45938361      -2.35657980
Si       6.95319869       9.38987732      14.86619920      -1.59725131       2.57646352      -3.22380864
Si       9.74762896       7.22389278      21.62524897      -0.74014467      -1.78419956      -0.23240798
Si       2.98874922       0.34407545      12.39155784       2.50372464      -0.05528914      -1.73284337
Si       8.04404659       5.17133411      14.82178419       3.50260592       1.80508875       0.05581191
Si       4.41512173       2.13902995       5.55125858       2.19888704       0.40137608      -1.50831877
Si       2.27098737       4.59529395      12.38532088      -2.65181488      -0.64023735      -1.85061304
Si       5.75138807       7.69074012      21.68124580      -1.69267738       0.04930432       1.67314174
O        9.00497531       5.73242294      21.82684043      -0.45036654       0.01430734      -0.12592809
O        4.27874466       1.37415769      12.06642798      -2.12393413      -1.56514274       1.34989146
O        1.52752875       4.05144705       5.47716387       1.46554674       2.63056890      -0.52303916
O        5.70608651       8.39421789      15.05089878       0.33613120       1.28516322      -0.87060181
O        0.99843803       3.38348952      12.29779887       1.87565536       2.06162346       1.04307482
O        6.35581708       9.23359832      21.66910196       1.22727896      -0.42612634       1.13509417
O        9.49257703       6.17514540      14.94776795      -2.35636484       0.75815110       1.28048694
O        3.44989319       0.89456061       5.59180634      -0.57000188      -1.15614560       0.23161969
O        3.80454014       5.93583422      19.03572497       0.09517348       2.49853606      -0.67788706
O        4.00349667       6.59569273      15.59938522      -1.23445756      -1.28306083      -0.04003455
O        7.07067490       3.63464872       7.91343322       1.06075950       1.95522189       1.52167472
O        6.21166469       3.21445396      12.18697101       1.09043099       0.51957671       1.13698660
O        1.46643802       8.23898912       8.10961813       1.88547436       0.93301958       0.53180184
O        2.38832247       8.44318489      12.15191403      -3.04080757      -1.09430833      -1.55784705
O        8.69312942       1.64681664      18.82715117      -2.99083062      -0.70991791       0.66217691
O        8.25317123       1.05439568      14.99438105      -1.26282251       0.08728596       0.44277539
O        2.15757277       4.82093932      16.71550101       0.41893185       0.35811023      -1.10838676
O        5.96130325       7.12108339      17.67848169      -0.60508271       0.75015096       0.15330322
O        7.71803895       5.17650244      10.74326562      -0.17777310      -2.29134908      -0.88980578
O        4.89413266       3.18849247       9.70579048       2.62863479      -1.39791196      -3.64300123
O        9.75330004       7.95389265      17.49730505      -0.03416047       0.38068521       0.28044915
O        2.79433078       0.09649901       2.68855379      -0.03748654       3.30217792       4.37694489
O        0.75134831       1.78065450       9.64549111      -3.24504092       1.00191915      -2.46662385
O        7.90615107       9.39756050      24.58614145      -1.23609317      -0.57764629      -1.88320101
O        8.98535956       8.30711933      22.48204484      -0.48595427       0.22853039       0.37345916
O        1.50037234       0.58417275      11.84903986       0.74108991      -0.30610542       0.51067239
O        1.12609892       1.47577619       4.52168004      -1.50447368       1.94198870       0.56575823
O        8.30795003       8.89870490      15.37357651       2.15278516      -0.84359914       1.86648072
O        3.55084485       4.03998715      11.58603467      -1.35201175       1.53215931       1.62059851
O        6.26279831       6.48551662      22.66541977       1.81689250       0.09754621      -0.47178435
O        6.74145791       5.70387251      15.61452818       2.73350827      -2.79386927      -1.17286549
O        4.04138477       3.32718107      18.35990593       0.44860193      -0.76634560       0.25641017
O        8.76357900       2.93782623      12.16765759       0.88095770       0.64411642      -0.46331398
O        6.30880084       1.09126129       8.53063217      -0.32957396       1.26312424       0.52214228
O        1.47076715       7.01951210      15.34179191       0.31766897       0.38701792      -0.19479355
O        3.93955148       8.74928247      18.55932383      -0.45225239      -1.00100670       0.25798978
O        8.58470683       3.70977239      15.27404866       0.17338107      -2.00555687       0.62030802
O        5.82860089       1.43977527      18.63760307       0.00901900       1.17501141      -0.16935611
O        1.45765329       5.99349371      11.67156263       1.45898786      -2.64046473       0.62252003
O        4.30747932       7.88270424       8.56218110      -3.13136807       1.00345407      -0.71616660
O        7.81039374       5.21058838      13.20035085      -1.17646008      -0.24861142      -0.01259441
O        4.80120841       2.81821363       7.00766544       0.18118409      -0.64947137      -0.05007295
O        2.54754576       5.01548770      13.96509793      -0.37484696      -0.83341674      -0.19992565
O        5.71855299       7.15840806      20.15265821      -0.02151102       0.61527750      -1.16758172
O        0.73595314       2.21916416       7.07241193      -1.49414493      -0.68876920       2.71186661
O        7.24859286       9.63874360      13.23876462      -0.00344417      -0.95036311       0.72095219
O        9.73386433       7.63881463      20.03269562      -0.54335099       0.06376553       0.50699474
O        3.35106303       9.74867199      20.88231883       0.39652039       2.14834739      -1.68436512
80
Lattice="9.77192453 0.01751879 6.90363604 0.24348012 9.76890588 6.90363604 0.01370155 0.0133883 13.86910312" Properties=species:S:1:pos:R:3:forces:R:3 energy=-575.48733684 source_file=vasprun.xml step_index=395 time_fs=80790.0 time_ps=80.79 file_index=40 pbc="T T T"
Na       8.48338190       3.94607284      20.54961240      -0.11497696      -1.21262505      -0.44729337
Na       8.16676493       0.08301014      10.42086890       0.11771872       0.90311395       1.39538937
Na       6.41186396       3.58641520      17.31393082      -0.16049682       0.38535326      -0.19818731
Na       0.71222211       7.17796304      18.14109686       0.04337924       0.17463260      -0.26295946
Na       2.29474967       2.25609315      15.21507083      -0.08389453       0.78303997       0.25492142
Na       6.05273234       1.91281228      13.84135083       0.19079146      -0.37656111      -0.08800240
Na       3.46129264       8.80158242      14.37689447       0.16237244       0.33204094      -0.40111398
Na       1.29968546       5.81819025       7.50011840       0.71335713      -0.20653878      -0.22953988
Al       7.07647942       5.19271093       9.11026326      -0.00580040       3.19622048      -0.19747637
Al       4.33265056       3.06227882      11.48082361       1.43895465       0.07444875       1.38376071
Al       2.68180596       4.65711939      18.58410387       1.14230809       2.28927469      -0.73557753
Al       5.18064473       7.04462701      16.14440845       2.35095887       0.69620304       1.20289310
Al       0.23781500       2.19003868      11.50885724       2.41617892      -1.45619164       3.58774692
Al       7.97400469       9.58767173      22.80850461      -0.28190052      -1.19761495      -1.01546105
Al       9.42859647       7.57461751      16.22147113       1.29409425       0.07330594      -1.88505447
Al       1.88861957       0.33672861       4.71477733       3.19949755       0.18585440       0.85351294
Si       2.53923019       5.64649373      15.52907598       0.87603422       0.74102666       0.84338051
Si       4.11280901       7.47203174      19.16191713       0.24381195      -0.56945042      -0.21146096
Si       7.41169641       4.34936084      12.11005007      -1.87254105      -2.45846431      -1.81571353
Si       5.68382778       2.30049087       8.80171570      -0.02663041       1.77676463      -0.04151442
Si       0.61515640       7.47591436      12.16945566       1.81414379      -1.12630109       3.07904314
Si       2.61546093       8.99994533       8.71319266       0.37291494      -1.81549825      -1.05033806
Si       9.11443519       2.58744606      15.32847733      -0.86413625       0.62873980      -1.83469080
Si       7.26314320       0.79211231      19.05637101       1.02441259       1.73834502      -0.74019650
Si       0.41924242       3.06461223       5.73992274      -2.53418607       0.95412200      -0.04011063
Si       7.09937016       9.46601293      14.95219359      -3.58511259      -1.79201334       2.52512659
Si       9.48199009       6.80641576      21.84779285      -4.13084298       3.71548091      -0.84214748
Si       2.90183131       0.57548799      12.69358552      -2.55353074      -0.99796307      -2.12948275
Si       7.73631476       5.43808248      14.82914645      -1.31254959      -2.17183368       3.30367804
Si       4.59613660       2.24569587       5.86661628      -4.09956435      -0.36688727      -1.89939779
Si       1.97825624       4.55611446      12.51727634       0.82819929       0.30858567       1.18622473
Si       5.45498185       8.06093698      22.05491714       1.02457234      -2.71301785      -0.56680768
O        8.53744057       5.47964208      21.86599198      -0.42684777       1.25960056       0.58142150
O        3.94871128       1.75900991      12.62981154       1.14603105       0.87156112       0.42541139
O        1.10400787       4.54797331       5.45920433      -0.43205175      -1.44696637      -1.02449183
O        5.70721546       8.59813588      15.40982951       0.81492640       0.82663594      -0.78792887
O        0.82664257       3.46653994      12.89766016       0.12397964      -0.44373847      -1.33056223
O        6.36031598       9.38264899      21.92684360       1.51314806       1.00431493       0.77215344
O        9.08706966       6.14143884      15.31276400       0.13450639      -0.02187927       0.53567031
O        3.61842087       0.91716803       5.45892363      -0.75731229       0.70489683       0.24155213
O        2.85252568       6.40958556      19.28731329      -0.11036208      -1.02379065      -0.51649110
O        3.55760061       6.95187522      15.72364134      -2.39462398      -1.27617287      -1.33076897
O        6.67281678       3.61329010       8.65879458      -1.18093315      -1.51122503      -0.83771141
O        5.88815613       3.65297614      12.24955226       0.41846063      -0.03967966      -0.14836608
O        1.30953872       7.89384812       8.81390427       2.26419800       0.97786275      -1.73914198
O        1.85968626       8.45636247      12.16387829       1.71082555       1.73082467       0.82288671
O        8.57831660       1.85685398      19.39957563      -1.88212817      -1.52603828      -0.79552790
O        8.37971997       1.18343837      14.84765484       0.17479924       0.55259213       1.32000653
O        2.67417731       4.57725868      16.75496407      -0.32720094       0.04284654       1.01518966
O        5.07473741       7.06669546      17.93103574       0.70739945      -0.22074422      -0.70854673
O        7.58135170       5.11035849      10.74187947       0.58843431       0.80569644      -0.24361636
O        4.71066229       2.24217591      10.06558259       0.53123904      -0.45446427      -1.42115750
O        9.53481057       7.92559069      17.87346546      -3.20363736       0.33334587      -2.05454827
O        2.07341101       0.21374682       2.99590279      -0.57335107       2.39148570       0.52961191
O        9.56372608       2.56967648      16.84248628       0.55100303       0.20346958       0.15880965
O        7.64157629       9.72456114      24.56335874       0.20827466       1.18471377       0.81522789
O        9.03766422       8.17139212      22.66170636      -0.52644887      -0.28512369       1.79410939
O        1.53952429       0.91348321      11.83101392      -1.32285199       1.69692918      -0.03570126
O        0.90827295       1.66305807       5.18623405       0.01052730      -0.06660776      -0.54225232
O        8.30971066       8.65185690      15.50106422       1.58225042      -0.19387570       0.73211811
O        2.96909334       4.10901290      11.27632798      -0.85665326       0.85143474       1.72069194
O        6.12125480       6.77312007       8.99287698       0.45290327      -0.65681812      -1.01826875
O        6.30350476       5.77172506      15.54917554       0.36144562       0.45252347       0.70312534
O        4.04809896       3.76411143      19.08445610       1.41076909      -2.72466480       0.96483854
O        8.55122045       3.10846157      12.12570952       0.83962281       0.50645563       0.98951654
O        6.84351175       1.08370262       8.97808708      -0.92102919       0.14483345      -1.52396607
O        1.05001463       6.36019992      15.57245707       3.70591890      -1.30891561       1.13236437
O        3.36146733       8.88425931      18.93173445       0.62053822       0.20096530      -0.66425354
O        7.96355113       3.80038966      15.23671791      -0.74228412      -0.31455439       0.60005061
O        6.00059970       1.95093885      18.95476910       1.71846367      -0.31436636      -0.21616408
O        1.18074159       5.92650118      12.11472276       0.04105777       0.06341239       0.05043437
O        4.08620202       8.28668478       8.99150105      -3.00979314       0.79933559       0.56059395
O        7.54411237       5.38237192      13.29962890       0.56378562       1.65037475      -1.68729138
O        4.61910296       2.36331441       7.48264193       1.64606039      -0.70337743       0.92520920
O        2.89173565       4.77333497      14.21229582      -1.56969927      -0.55408017      -3.42295427
O        4.97164846       7.68280288      20.51241615       0.56344720      -0.50137115       0.53013651
O        0.51583512       3.18684002       7.37204490      -0.71529919      -1.43356139       1.59253505
O        7.20325075       9.60638523      13.40103618       0.02549182       0.80859327      -2.69229432
O        9.54795039       7.73667710      20.45121817       0.31014663      -2.04210830      -0.82625916
O        2.72586934       0.30842407      14.28321640      -1.41666415      -1.50320871       3.10214037
80
Lattice="9.77192453 0.01751879 6.90363604 0.24348012 9.76890588 6.90363604 0.01370155 0.0133883 13.86910312" Properties=species:S:1:pos:R:3:forces:R:3 energy=-574.39492915 source_file=vasprun.xml step_index=160 time_fs=18320.0 time_ps=18.32 file_index=9 pbc="T T T"
Na       7.65063521       8.23715379      18.67440866       0.72443386      -0.09105709       0.10049427
Na       8.62078637       3.87820505      20.47101863      -0.36169628      -0.12057255       0.49970258
Na       1.44203617       7.69590690      17.33200231       0.53300163       0.28567729       0.75386705
Na       8.03629649       7.71950910      11.77616702      -0.47749061      -0.95014071      -0.31330134
Na       2.69208110       2.74361244      15.05227686      -0.08707808      -0.19796697       0.41791838
Na       6.39156199       1.82635485      14.00020958       0.22549214      -0.03601332       0.06482658
Na       2.58868218       3.45176333       8.51640399       0.19481796       0.14120964       0.11577516
Na       4.24425252       9.27122197      13.96607014       0.02390719      -0.24688115      -0.39989757
Al       7.32979883       5.53393937       9.01924995      -2.44787743      -0.39091422      -0.89460521
Al       4.65929373       2.82438714      11.46158070       1.73354031       1.39985827       0.32431035
Al       3.29934100       4.88611522      18.48605710      -2.18682652      -1.40835420      -0.44349036
Al       5.79332022       7.42276722      15.96215938      -0.87500208      -1.14056520      -2.51928156
Al       0.53294807       2.50492159      11.56725940       1.14798656      -1.76395109      -2.05336142
Al       8.47344255       9.55689196      22.69649191       1.15631147       1.09217900       0.82863687
Al       0.27689150       7.68848072       8.90740667       2.40470716      -0.85650524       1.88932141
Al       2.25207202       0.57795119       4.42496980       0.32345855       1.03917485       0.80114973
Si       3.05026408       5.72008557      15.27718678       2.02185881      -0.60510076       1.44209313
Si       4.62303424       7.64591835      18.90135688       0.10347240       1.78337851      -2.05291136
Si       7.58644650       4.50542020      12.09748960      -0.74737209       1.66264802      -4.23418654
Si       5.91913824       2.45217842       8.57709424       0.96602523       2.87533682      -1.66369373
Si       1.21316480       7.65748699      12.09160442      -2.10492362      -0.34996384       0.69421282
Si       3.06897611       9.50948545      22.24450920      -0.85522691      -3.52077517       3.10145785
Si       9.41168361       2.78993608      15.38594394      -0.27950966      -0.44093512       2.84137368
Si       7.62695613       0.75639978      18.92774282       0.76906028       1.70541594      -0.07075192
Si       0.67673377       3.21458841       5.62691646      -1.51275656       1.16163434      -1.87205515
Si       7.73049767       9.63305232      14.89681024      -1.88151991      -0.66406531      -1.74312753
Si       9.85836017       6.98069259      21.92450850       0.84115117      -0.97694227      -3.19090064
Si       3.02616822       0.61422689      12.39237127      -0.23239321       3.69599541       1.20774312
Si       8.20696267       5.43324221      15.01188860      -1.50481324      -1.10551747       0.53801858
Si       4.79550280       2.10517653       5.64270884       1.46986762       0.95895111      -1.47285032
Si       2.36133132       4.70886269      12.41818066      -4.19227463       1.60196267       0.79431712
Si       5.85150204       8.12220226      21.57724842       2.48525214       1.62061003       6.35735965
O        8.84981612       5.76205695      22.06033850       0.13856002      -1.18427108      -1.61364593
O        4.45233086       1.49167959      12.63785022      -0.48958041       0.59760466      -0.94390414
O        1.69238537       4.47937531       5.41075601       0.05851878      -0.50905027      -0.94544313
O        6.32674109       8.72082777      14.97590973       0.35207463       1.76844072       1.35606244
O        1.01475503       3.75635961      12.63939669      -0.27880062       0.70103343      -0.17598401
O        7.17260667       9.31980293      21.66216875      -3.20680906      -1.94124501      -2.26942514
O        9.68415702       6.06026816      15.21829951      -0.12331118       0.55687567       0.54291543
O        3.88162167       0.94333532       5.04223822      -0.20834763      -0.59959554       0.83100049
O        3.51793404       6.53328871      18.96979202      -0.53888628      -0.58496504      -0.56866205
O        4.29081144       6.88098421      15.04452714      -1.76690302      -1.21918212       1.14141547
O        6.70772829       3.94871051       8.38104626      -0.67570524      -1.15043273      -0.00680504
O        6.21257968       3.68561301      11.88936511      -0.38655305      -1.13897151       1.29332745
O        1.94119005       8.20521413       8.42104292       0.91326487       1.12052087       1.03859455
O        2.38698186       8.75306583      12.30574261      -0.37554718       0.92786830      -1.35488273
O        8.90234767       1.77071155      19.21505547       0.75976589       0.06344761      -0.50615740
O        9.00598470       1.27803906      15.17110897      -1.11278217      -2.28825857       0.37317617
O        3.24187094       4.67049738      16.67901158      -0.02897467       2.04055795      -2.26364576
O        5.68022797       7.67256563      17.60874098      -1.05875969       0.30393664       3.25725855
O        7.54323713       5.61389468      10.66935288       0.72457802      -0.83875657       4.71622143
O        4.82928656       2.51048543       9.75477684      -0.22698940      -0.80785341       0.06037672
O        9.84713629       7.85453938      17.81134909       0.71538277       0.08826151      -0.97976071
O        2.78895076       0.89283381       2.65217158      -1.67702432      -1.25912380       0.36096373
O        0.74862674       2.88437466       9.75070333      -2.03903593       0.49342360       0.38001524
O        8.00840802       9.78146922      24.38622618      -0.30268593       0.05893793       1.35632050
O        9.35829742       8.04303657      22.92314328       0.04634666       2.69523610       2.93348463
O        1.91314912       1.34910710      11.46437948       0.46576721      -0.48822706       1.17919168
O        0.90166986       1.68539402       5.11432972       1.94607772      -0.53405363      -0.86593126
O        9.14966361       9.04707817      15.36917942      -2.19277058       1.48935195      -0.32931013
O        3.47614783       4.07928597      11.63399510       2.56644334      -1.76412352      -2.79940591
O        6.13818096       6.85995719      22.57649285       0.81489730       0.46463998      -0.63717478
O        7.06583891       6.35616387      15.70493388       1.78432367      -2.14532117       0.30119900
O        4.11213740       3.52997034      19.08774833       2.30180703      -1.02337896       0.67428229
O        8.90890123       3.65692491      11.85364254       2.17492203      -1.50948932       0.57671375
O        7.17859774       1.42034865       8.49937909       0.94673600      -1.81113013       0.45369176
O        1.57811606       6.38884924      15.46992788      -0.17826657       1.07659065       0.28330271
O        3.66833199       9.08804913      18.55695725       1.96196128      -5.11486183      -0.75238329
O        7.99647255       3.68130384      15.41488478       0.89630080       2.30504270       0.22552864
O        6.47193385       1.82974838      19.22194794      -2.52925912       1.20318360      -1.67238102
O        1.85435508       6.15172910      11.80606845       0.19255020       0.23982145       1.03324514
O        4.64149538       9.04362204      22.15005397      -0.08949686      -0.48233609      -0.07190926
O        7.81650616       5.39479519      13.42680339      -0.38701966       0.71192624      -0.46334659
O        5.03626777       1.99214475       7.22932513      -1.42955273       0.31725212       2.44132166
O        2.81646152       4.72968845      13.95309796       1.56339896       1.14652863       3.16437647
O        5.58982242       7.41669399      20.22248055      -0.59859583       0.30294383      -4.25691792
O        0.43407083       3.25867048       7.22825165       1.89210148       0.64462034      -1.00067069
O        7.64774100       9.43221014      13.19425947       1.55869811       0.40369248      -0.55043005
O        9.95471874       7.86776198      20.50475698       1.41607374      -1.83626727      -1.68176084
O        2.61681511       0.36173761      13.94581807      -1.63756132       2.34981619      -3.12454460
80
Lattice="9.77192453 0.01751879 6.90363604 0.24348012 9.76890588 6.90363604 0.01370155 0.0133883 13.86910312" Properties=species:S:1:pos:R:3:forces:R:3 energy=-575.54943968 source_file=vasprun.xml step_index=915 time_fs=71830.0 time_ps=71.83 file_index=35 pbc="T T T"
Na       9.11072442       3.56207871      20.90781176      -0.35077307       0.25245691       0.08162394
Na       8.80035542       0.67221941      10.18732938       0.37424346       1.18054050       0.94797793
Na       7.35790237       7.34528412      18.85313170       0.14530228      -0.17842508      -0.20788731
Na       4.33796537       7.66037758      12.64475968       0.02194932       0.10754056       0.62332203
Na       5.08213893       0.85593749      17.10477157      -0.18063980      -0.08983887      -0.43281560
Na       5.59329439       1.63971278      13.87211536       2.46502883       0.28298204       1.89996517
Na       2.31008040       0.27799361       8.42453846      -0.04552994       0.16546585      -0.19963429
Na       1.73339611       6.88415779       6.67971066      -0.24455995      -0.56971980      -0.10348388
Al       7.10126269       5.32469957       9.31298079      -0.75923483       0.73531737      -0.42966336
Al       4.48727149       2.95882428      11.37869443      -1.10010915       0.84888574       0.99945657
Al       2.90200207       4.44653273      18.31255517      -0.27516702      -0.97753444       0.93457600
Al       5.47640837       7.17286066      15.88293567      -1.38427519      -1.81623614       0.38636449
Al       0.33040146       1.99860772      11.59678083       0.71063479      -0.87492298      -0.69299126
Al       7.70281783       9.48878746      22.70380194      -1.01510168      -1.37246750       1.14412236
Al       9.42979670       7.77435270      15.99507236      -2.55079427      -0.63262413       2.33456423
Al       2.03434673       0.25696405       4.57541256       1.86949402       0.58083357       3.17609584
Si       2.53563965       5.61020295      15.35995038       1.41621786       0.77973352       0.50184043
Si       4.29312568       7.40720889      18.95567817       4.89892800       1.29605912      -2.74067772
Si       7.37670863       4.29940252      12.21291582       0.90583592       0.11684479      -2.74493940
Si       5.53757029       2.55846802       8.47492651       0.86228491      -1.18671810       3.07370251
Si       0.81962245       7.42728510      12.08868965       0.40338141      -2.29795165      -0.66917699
Si       2.51822929       8.98343011       8.59566323       1.73307984       0.32937989      -1.52020793
Si       9.04487619       2.24676442      15.53428496      -2.06094381       1.28822216      -2.63178563
Si       7.40334721       0.52457028      19.07588824      -0.19015348      -0.94495226      -0.58911361
Si       0.45528100       2.78083285       5.69094823      -1.40879346      -0.96232616       0.23511517
Si       6.97675278       9.50247650      14.96441033      -0.98231333      -4.08627373      -3.03385098
Si       9.55317127       6.96948192      21.88957941       0.37047620       1.61789501      -0.57017289
Si       2.89761636       0.56253274      12.86181950       1.14693685      -1.14350687      -0.75763009
Si       7.87932837       5.26985459      15.09717818       1.37428053      -1.74861200       3.59986305
Si       4.46154133       1.94813717       5.68552373      -0.36544401      -0.73433248       0.30727614
Si       1.90767886       4.73989516      12.14723726       3.20420619      -1.48742437       0.54873859
Si       5.29178638       7.71711662      21.77747949       0.29991256      -1.45534180       2.72230439
O        8.41630228       5.95417408      22.23260124       0.33614909      -1.94127512      -0.32339361
O        4.19493583       1.53778914      12.59107934      -2.73289434      -0.08646122      -1.87241565
O        1.54842511       3.92169411       5.66472606       2.17153613       1.84796420      -0.67470165
O        5.62458344       8.49996706      14.77107214       1.12996833       1.29994111       1.19959866
O        0.77421597       3.58485163      12.15902963      -0.70435408       0.71125756       0.40123418
O        6.00937639       9.12013679      22.05774083       0.68171004       2.11637477       0.33563783
O        9.08531585       6.29932588      15.26935616       1.14552427       0.04677788      -1.06021158
O        3.53467252       0.50782567       5.75982055       0.16770120       1.66019188      -1.17479877
O        3.55453894       6.04688692      18.79447846      -1.90314634      -1.63590971       0.61061449
O        3.81075968       6.70351972      15.30461718      -0.53412295      -1.13847163      -0.03794481
O        6.58807781       3.75920391       8.59283760       0.41925463       1.01297434       0.14069453
O        5.90729852       3.59797171      12.22963355       0.48814149      -0.91331903      -0.51763486
O        1.03523625       8.35097910       8.40965966       2.80276290       1.34392190      -0.66731863
O        1.67661395       8.72062548      12.45157301       0.47263150      -0.68693107       0.43009560
O        8.73875034       1.39508761      19.39221704      -0.85362787       0.78412878      -0.34749465
O        7.62715228       1.31145237      15.26377937       1.44968960       2.30942175       0.04929948
O        2.74309155       4.48392416      16.61017095      -0.96417249       1.33337836      -2.91784753
O        5.42829387       7.62174000      17.55870776      -1.89328126       0.12849900       3.33586993
O        7.58698188       5.34744123      10.96866325      -1.17145207      -0.35316999       0.66681895
O        4.69131595       2.18734929       9.85580907       0.27944725       0.58257757      -1.26952201
O        9.59709317       7.76792160      17.79947610      -1.61668853       1.02757620      -1.47965293
O        2.95788253       9.74012330       9.95922963      -0.07319737      -0.86135870      -0.68930701
O        0.25820733       1.85488967       9.82035879       0.28720122      -0.61176856       0.92305970
O        7.57564951       9.52302048      24.49050630      -0.14634820       0.86199607       1.20337892
O        8.95405613       8.55650564      22.03771034       2.12239342      -2.63706522      -0.33387355
O        1.52199505       0.92118917      12.25684216      -1.16583122       0.89361937      -2.00844631
O        0.95754786       1.53948730       4.70408085      -1.82099455       1.13764443      -0.42721047
O        8.09151472       8.97698399      16.01359939       0.25533440      -1.16522800      -0.57014773
O        3.26117119       4.32191202      11.28559965       0.46038191      -2.10414167       1.03226676
O        6.04606352       6.66319640       8.88417469      -1.56156766      -0.01433341      -0.09820487
O        6.68525490       5.83796366      15.97021368      -1.59180572       0.92159957       0.06552510
O        3.92849846       2.96878449      18.34325590       1.05327665      -0.98298962       1.97010364
O        8.84876867       3.52669090      12.00887460      -0.22790497      -2.05187286       0.28690101
O        6.57845526       1.22645740       8.44162235      -0.64410387       2.81863901       0.04847074
O        1.18789122       6.51265212      15.82835569      -0.88782912       0.60728689      -1.43397185
O        3.45163095       8.75307790      19.14676530      -0.73213087       0.90473337       0.66517400
O        8.44011326       3.78768888      15.73451749       0.34003902      -0.20886910      -0.15767328
O        6.02960469       1.46178279       5.29766558      -1.09644748       0.90986258      -0.32968851
O        1.69303348       6.13370994      11.43013885      -1.15672417       2.96685748      -0.07521931
O        3.62773362       7.77295222       8.19604948      -0.92176163       0.56088726       0.38366974
O        7.49352743       4.87306139      13.66379743      -0.76155945       0.98200993      -1.28113914
O        4.53113392       2.59149305       7.25198962      -0.98586986      -0.30028447      -2.59683851
O        2.34681055       5.14454332      13.73021515      -0.28266606      -0.62996554       1.53385415
O        5.41416607       7.30928776      20.24064787      -0.35865156      -0.41382600      -2.53421143
O        0.15098534       2.00081981       7.16397958      -0.03887655       0.99953938       0.45864661
O        7.42208301       9.24226492      13.36452847       1.02978936       0.45944899      -0.04309071
O        9.75337251       6.70221725      20.18862191      -0.21367504       0.97789445       1.55552369
O        2.49734785       0.41685226      14.42693127       0.67468023      -0.51867800       1.39651391
80
Lattice="9.77192453 0.01751879 6.90363604 0.24348012 9.76890588 6.90363604 0.01370155 0.0133883 13.86910312" Properties=species:S:1:pos:R:3:forces:R:3 energy=-575.14017377 source_file=vasprun.xml step_index=140 time_fs=10280.0 time_ps=10.28 file_index=5 pbc="T T T"
Na       5.95174121       4.24177278      16.47531683       0.25480838      -0.49244913      -0.00891455
Na       6.77612993       0.56390512      11.58762943       0.37118146      -0.17883816       0.04888373
Na       3.09954105       1.72284348       9.50011078      -1.03665846      -0.05369216      -0.23086285
Na       7.73730215       7.51734671      11.95003541       0.33752775      -0.43030440      -0.21286346
Na       9.18329184       5.27302312      19.53203759       0.00263690       0.31719635       0.26111646
Na       1.94995712       2.56209470      15.81840117      -0.19331553      -0.16130242      -0.27395538
Na       2.69002175       6.28821721       7.19545359      -0.64295278       0.23606526       0.39663100
Na       4.34885578       8.68336765      13.51151740      -0.48064255      -0.34223719      -0.24749232
Al       7.46997245       5.48144583      22.69051604       4.00641209      -0.41975767       1.69434042
Al       5.04456460       3.01008484      11.52250262       1.81349585      -0.32774862      -1.26126747
Al       3.35262184       4.64381435      18.38822548       2.95645181       0.04587602       0.32573263
Al       5.70204253       7.26785191      15.84563386       0.13748266      -2.09694435      -1.89874064
Al       0.80445641       2.48091150      11.37554200       3.32184554       0.70867390       0.88080730
Al       8.15032596       9.56708597      23.01720289       0.78020121       0.22813443      -3.32373217
Al       9.96764626       7.92428473      16.08296890      -0.41174051      -1.42630836      -0.81363898
Al       2.70541339       0.78605987       4.59524665      -1.37836486      -3.08326341      -2.30745854
Si       2.99149776       5.43071839      15.50897029      -0.42429608       3.76400087      -3.47622152
Si       4.70754775       7.58419604      18.84011347       1.17824703      -0.88864039       1.74729190
Si       8.06491612       4.32992988      11.80052572      -0.39380214       3.55710205      -0.51904979
Si       6.20639674       2.68223009       8.51514543      -2.00951243       1.00684047      -0.75339786
Si       1.54972847       7.73352162      12.19761383      -2.45751113      -3.31671444      -1.11077716
Si       2.98516352       9.41997188      22.29400689       0.52712988       0.28738918       0.50987727
Si       9.42734268       2.62038602      15.31108343       1.10392241       0.99333133       2.22982369
Si       7.91043904       0.93598103      18.94960463       1.38067851      -0.57538612      -1.48203497
Si       0.98577531       2.91625246       5.66344399       1.14639292      -4.68040167      -0.88474247
Si       7.41512839       9.65639404      14.79592211       0.84325238      -5.43944684       3.74864126
Si       0.37549036       7.26919293      15.13326052      -0.51187314      -4.91291359      -0.35727495
Si       3.29885689       0.66878764      12.64727278       2.34889345       2.12667207      -2.02268918
Si       8.29620211       5.47971108      14.72181048      -1.68285415       4.39472797      -2.24115575
Si       5.24743806       2.28300899       5.50345443      -2.41872016       3.95010570      -0.32111620
Si       2.56196431       4.79972719      12.64278828       2.16885336       0.61931008      -1.21534524
Si       5.70223074       7.75356411      21.75390788       3.19347267       2.75957448      -1.75191928
O        8.96565737       6.01280284      21.82363337       0.48638080       1.15488591      -0.30650856
O        4.89731566       1.49655783      12.32704027      -3.26875388      -2.41142705       1.03567466
O        2.32075430       3.71681637       5.54071325       1.82877332       2.05421338       0.02094178
O        6.08581322       8.57307558      14.82848273       1.41442838       2.81238808      -0.73734118
O        1.37248038       4.13876713      11.86889640      -3.28741608      -1.67674516      -0.35675796
O        6.79643773       9.05945392      21.96250441      -0.52529788      -1.50767264       0.79777290
O        9.64103041       6.33489169      14.94419318       0.53497026       2.24238553       1.45109471
O        4.02500019       1.18984838       5.50258459       2.74302032       0.72834890       0.81592091
O        3.65447044       6.36706884      19.03357901      -1.06253121      -2.15962181      -1.33732429
O        4.21473403       6.60287428      15.01930412      -1.10316584      -2.20643512       1.76745494
O        7.40063743       3.74887648       8.54862295      -1.01374999      -0.19143858      -0.16646548
O        6.77650725       3.31697205      11.82612089       1.15190354       0.39130344      -0.21443267
O        1.65607284       8.46251269       8.30876539       0.07350807       0.13280460       0.68207049
O        2.50004852       8.92939748      12.14873452       2.48276488       2.84633801      -0.39463835
O        9.24016200       1.89433100      19.02537369      -3.26061655      -1.52489064       1.52631322
O        8.43179895       1.41043950      15.40831276      -1.23455254      -1.24681930       0.35881655
O        3.11196127       4.31265618      16.61680305       1.09102841      -0.05758001       2.52705671
O        5.60420632       7.58267544      17.50407567      -0.68711772       0.54290775       0.66244330
O        8.21071250       5.45475396      10.53946340      -1.50508011      -1.21985263       0.51541189
O        5.03011127       2.54983107       9.68371911       0.89849964       1.40227814       0.52082640
O        0.52235502       7.42960039      10.86877001       0.70695876       0.82165914       1.08717300
O        2.98715364       0.63601429       2.80574173      -0.46500024      -0.44075817       0.03774686
O        0.72441928       2.57128395       9.72257932      -1.12668207       0.36211698      -3.16099529
O        8.20172401       9.49492773      24.71069519      -0.71173681       1.57050958       2.06316475
O        9.52710694       8.47458641      22.78928820      -0.18240928       1.41944262       1.17349396
O        2.18541990       1.31277332      11.66765533       0.26098782       0.24413447      -0.46898205
O        1.20357226       1.48603821       4.73136153      -1.82433493       3.39107648       1.29733098
O        8.55125557       8.98535831      15.96340440      -1.00874227       0.58949156      -2.09655467
O        3.87501704       4.08534114      11.96873023      -0.86362087       1.78918910       0.91661623
O        6.07950947       6.43755090       8.75015069      -1.53343324       0.59339775      -0.33779939
O        6.82327692       5.98457753      15.31845056       0.92832601      -0.06027280       1.17774265
O        5.09473092       3.79235959      18.52517062      -2.46199156      -0.81680155       0.23290716
O        9.56237057       3.67718255      11.97897694      -3.83653567       1.57496491      -1.54197797
O        6.83976928       1.22331225       8.59167822       0.33407725       0.77046694       0.80619835
O        1.75161975       6.42614763      15.80165009      -2.05026334       1.67028902       0.09096450
O        3.89629924       8.88106665      19.35826768      -0.45310337       0.07030124      -1.36869333
O        8.52550450       4.07434184      15.26207990       1.12733440      -5.97530706       1.71115392
O        6.63499841       1.91098692      18.73990929       2.05854287      -1.42616139      -1.13130477
O        2.55617445       6.42582001      12.28847769       0.44068425      -1.32653927       0.60517374
O        4.29038853       8.43497900      22.13517896      -1.05180319      -0.83195044       0.06266928
O        7.95157856       5.52104599      13.07337890       0.24611521      -1.57012401      -0.36863175
O        5.42433730       2.77545705       7.01513585       0.40534125      -0.13067688       2.46953629
O        2.43715542       4.43418601      14.25426545       0.96641256       0.71921268       0.01113258
O        5.83317377       7.40713362      20.04837530      -0.26298330       0.08905356       1.98256800
O        0.74792935       2.58443007       7.20773608      -0.16837989      -0.33841662       0.55080728
O        7.78951148       9.71953034      13.26204949       0.88366445       0.20009924      -0.65790629
O        0.73045106       7.68778545      13.62080054       0.18589311       0.37936316      -1.41727408
O        2.67082750       0.72244186      14.11035595      -0.11716367       0.37759693       1.96342981
80
Lattice="9.77192453 0.01751879 6.90363604 0.24348012 9.76890588 6.90363604 0.01370155 0.0133883 13.86910312" Properties=species:S:1:pos:R:3:forces:R:3 energy=-574.26438409 source_file=vasprun.xml step_index=855 time_fs=73710.0 time_ps=73.71 file_index=36 pbc="T T T"
Na       8.49868483       3.42086776      20.74074162      -0.06878510      -0.04633965      -0.29919715
Na       8.64036281       1.36785952      10.49381286       0.10978616      -0.44372041      -0.05515657
Na       7.05769636       6.96400967      18.18196267       1.73187749      -0.32501476       0.69960800
Na       6.37921215       7.10130889      12.14192865       0.12633137       0.29475461      -0.04172940
Na       2.71199760       2.54972929      15.60415657       0.19495401      -0.30282433      -0.06198979
Na       6.19728585       0.83265259      13.43356619       0.03685088       0.65254021       0.28739388
Na       2.17150852       1.60342433       8.88743506       0.59184721      -0.38837379      -0.41080523
Na       2.96700002       5.96161107       7.95192082      -0.24568285      -0.06873603      -0.01649633
Al       7.17569907       5.27751899       9.15249805      -1.08865871      -0.93858687      -2.30409519
Al       4.43631754       2.80245963      11.31633597       1.58417481       1.98196227       4.72780034
Al       2.76217585       4.59203833      18.32461538      -0.17843781      -1.01937648       0.25904689
Al       5.19893577       6.91141916      16.11523045      -1.61491192       0.05069789      -3.26451238
Al       0.32104085       2.26014845      11.53067578      -0.40696033      -4.45694019       0.33347006
Al       7.93368213       9.43766226      22.98582028      -0.47317757       0.36512551      -0.92630812
Al       9.67473940       7.77340615      15.89986140       1.44390928       0.44388289       0.24623478
Al       2.13794909       0.28145955       5.00234664      -0.80757919      -1.75845533      -0.04268291
Si       2.38393009       5.54209848      15.26318489       1.57932879       0.82985648      -1.10032341
Si       4.20831542       7.54265569      19.02118539       2.44703345      -2.48561520      -0.54248584
Si       7.51048501       4.17067325      12.11417688      -2.34491588      -1.17569521      -1.99467141
Si       5.50180959       2.40858944       8.67378173       0.06355160       1.76403353      -2.06964912
Si       0.71776344       7.43449570      12.10730709       0.65630211      -0.16123648      -4.82967874
Si       2.73348036       8.93856591       8.74185881       2.57971474      -0.68799307      -1.61783380
Si       9.13062422       2.43234959      15.54173940      -0.84362614      -1.85564320      -0.20791965
Si       7.20303027       0.68839450      18.77941272      -2.22443537      -0.33786384       1.29293011
Si       0.48890792       2.87276730       5.85217946      -0.75011104      -3.75443983      -2.47261951
Si       7.06525217       9.43353075      14.84819509      -1.40936430      -2.71454424       0.56839621
Si       9.36299867       6.75743677      21.53219783      -1.74269639       0.42121369       2.38879897
Si       2.84742770       0.60995642      12.86397793      -0.03978532       0.09054547       2.54936698
Si       7.88647327       5.32946494      15.17884133      -1.25590313      -1.45361476      -0.81817719
Si       4.53777210       1.88915517       5.64206254      -2.43450626       2.25588511       0.37090660
Si       2.04940837       4.71269117      12.37668035       0.53340601      -3.69204269       0.47613790
Si       5.65759503       7.85710103      21.89629165      -2.31929698       0.15975692       0.61445012
O        8.41943271       5.34684341      21.77875933       1.40483895       1.71982545       0.30003632
O        3.96035158       1.88314297      12.82002104      -0.15878437      -3.04715035      -1.12159039
O        1.36821238       4.11757502       5.51010803       0.60525652       1.39115640       0.08199374
O        5.90253819       8.18406881      15.20080594       2.93555113       2.96725430      -1.34961614
O        0.74264031       3.64311695      12.27872118       0.33960849       3.26716265       0.32012174
O        6.37132609       9.26891976      22.18746637      -0.88857432      -0.19824150      -0.58278670
O        9.18142549       6.26149452      15.22408303      -0.77516139       0.47548684      -0.11835041
O        3.61018072       0.58143932       6.10551318      -1.57139165       0.97833295      -2.28720646
O        3.39579508       6.09203540      18.91796364       0.75936603       2.10491334       0.99359099
O        3.61950090       6.59021758      15.11038769       1.90588749      -0.72458246       1.89657886
O        6.48610028       3.65931817       8.88047351       0.38395497      -0.30308868      -0.47257793
O        6.28459381       3.05465559      12.00048244      -1.83714892      -0.16253158      -0.73492378
O        1.67403135       7.78650480       8.63778686      -3.10114922      -1.14212075      -1.21901771
O        1.46519976       8.61697209      12.69071307       3.14288288       3.87557507       0.94995409
O        8.41282369       1.72734154      18.88746118       0.33549956       0.75369372       0.99173704
O        8.07737816       1.22412091      15.36726919      -0.81109184       0.55728318      -0.41325408
O        2.35215884       4.60975189      16.56548042       0.18622516      -0.55927047       1.70890163
O        5.19081226       7.62185743      17.67260390      -1.78618270       0.12276750       1.67130538
O        7.29461938       5.20081013      10.78456964       1.78237338      -0.42678363       5.12144124
O        4.24260078       2.49869464       9.69368737      -0.40249978      -1.39734353      -1.66822731
O        9.70356095       8.04458190      17.62478175      -0.36901961      -1.61282148       1.26000087
O        2.53529907       9.74231640      10.04361809       0.47986269       1.90117425       4.32349315
O        0.22483891       1.88119434       9.85715406       1.85108725       0.54788262       1.01343568
O        7.63350447       9.23100872      24.67383035       0.49875231       0.02860964      -0.25290568
O        8.70889116       8.13662201      22.23383582       2.06666464      -3.17487965      -1.16616304
O        1.45265343       0.98247738      12.27073764      -1.85386072       1.50554423      -1.55314928
O        0.80415176       1.44264757       4.92532969       0.72969276       2.00961611       1.02507167
O        8.64752714       9.07763750      15.37353761      -2.50506450       1.45597075      -0.97863737
O        3.33687518       4.10901931      11.59289165      -0.56209878       0.87830407      -0.29630374
O        6.07745568       6.56193303       8.87276949       0.37605447       0.07751054      -0.48295724
O        6.48291308       5.68352541      16.04417077       2.10875813      -0.78865134      -0.54775225
O        3.84986357       3.28145896      18.69395258       0.84142752      -2.41876647       0.76853350
O        8.71220133       3.02108978      12.10612969       0.52691610       1.62770041       0.61627037
O        6.31907231       1.04479744       8.81294060       1.82138574      -2.40652454      -0.14312324
O        1.12377652       6.48392424      15.05252443      -1.82156724       1.00597077       0.71018196
O        3.30396708       8.81733167      19.16051077      -0.41575272       2.10487329       0.52626687
O        8.65011504       3.92833707      15.77625711      -1.88391405       1.35760782      -0.55285298
O        5.72610385       1.47952370      18.53251652       2.37187716      -0.31226732      -1.03215267
O        1.79110216       6.16313226      11.83716494      -1.02071862       1.79462495      -0.60802182
O        4.04065678       7.84323312       8.55468753       0.05785852       1.77070755      -0.18037472
O        7.39772564       5.08530373      13.44807789       0.84520703       0.82232932       2.60672035
O        4.96653436       2.47971396       7.12258918       0.13648000       0.29666620       0.10870401
O        2.26766841       4.46854389      14.00267383       0.64824898       0.39850839       0.54866176
O        5.46415605       7.66991684      20.24166336      -0.58213277      -0.56199282      -1.10760634
O        0.40840325       2.29787645       7.38936033       0.83160350       1.17845488      -0.70007377
O        6.88127695       9.56558625      13.17208110       1.57288038       0.50189747       1.75915384
O        9.37736289       6.87966059      19.93490749      -2.99160025      -1.03922908       0.43926730
O        2.64212335       0.44044124      14.60469857       0.37048180      -0.46143036      -1.90041475
80
Lattice="9.77192453 0.01751879 6.90363604 0.24348012 9.76890588 6.90363604 0.01370155 0.0133883 13.86910312" Properties=species:S:1:pos:R:3:forces:R:3 energy=-575.29085508 source_file=vasprun.xml step_index=795 time_fs=89590.0 time_ps=89.59 file_index=44 pbc="T T T"
Na       7.46245432       8.68859786      19.43531063       0.05086802      -0.14997563       0.06960921
Na       9.47373818       1.75088524       9.64442779       0.04042289       0.05370899       0.12660669
Na       4.10762901       6.22559719      10.68215388       0.02279123       0.10042510      -0.38228103
Na       1.55565480       0.26575958       9.02165960       0.20082349       0.22161586       0.25201965
Na       7.99235066       3.94849306      19.92754531       0.04188578       0.11012191       0.25889514
Na       5.78452033       2.75402677      14.47603500      -0.28733742      -0.73989589       1.21415007
Na       1.47729879       6.70868030       6.99004531       0.51222311      -0.13338124      -0.86191726
Na       5.08736561       8.52348667      13.17236743      -0.32649752       0.44544249       0.57248420
Al       7.63506417       5.58556933      23.08201833       0.97812249      -1.45301102       1.22075360
Al       4.84288468       3.19836782      11.70477185      -1.84879257      -0.43987631       1.69502478
Al       3.08364432       4.90368985      18.41494018      -0.46356438      -3.11460105       0.55235730
Al       5.73087154       7.22074089      16.22636641       0.59276310       1.26658765       1.15836474
Al       0.50992458       2.28570593      11.76025613       2.18155706      -0.42244744       0.09746211
Al       8.20208184       9.70163738      22.95511795      -1.83410820       0.08274761      -0.43345961
Al       9.94879455       8.08887604      16.22887811       0.91647486      -0.84709670      -1.21227317
Al       2.51783376       0.61898334       5.05479177       1.69304079       0.75135243       0.67371411
Si       3.00297155       5.97299286      15.46412628      -0.45641169      -0.57717361       0.17746652
Si       4.17164253       7.52259922      19.25349833       1.32917303       1.53271791      -1.96978011
Si       7.64728844       4.36541014      12.42081562       1.09711664       2.02049456      -2.52200761
Si       6.27775196       2.84214876       8.74378576      -2.49589408       0.85070282      -1.13168738
Si       1.06708238       7.69935479      12.25366327       5.57710454       1.81818969      -3.07170292
Si       3.05411020       9.67622259       8.86042305       2.34061110       0.80462407       0.86327899
Si       9.21941445       2.67131663      15.58361054       3.84879431       3.93680804       0.95419636
Si       7.43674521       1.03484115      19.03875759       0.13448554       2.10765607      -0.81352066
Si       0.65015093       2.93407283       5.91283168       1.75315881      -0.75749697       1.00914829
Si       7.47637351       9.65092533      14.88664065      -4.44989303       0.92321279       3.38345683
Si       0.33871835       7.30503190      15.27053246      -0.08181787      -1.38223753      -1.27649741
Si       3.18215071       0.74148708      12.96792367      -4.01611052       0.28602786      -1.55277276
Si       8.34392957       5.58633533      15.20946173       0.29934954       1.70784551      -0.74258812
Si       4.93788189       2.65862926       5.88748183      -3.34981049      -0.21235617      -0.00563004
Si       2.08262535       4.92600064      12.53154034       1.02717893      -1.67228580       1.51640872
Si       5.63115419       7.89945838      22.02510328       1.35886634       0.38870879       1.80192303
O        9.23233394       6.05171348      22.51472504      -1.15105883      -0.20401581      -0.39021455
O        4.28401320       1.75813918      12.60271908       3.12972002       1.89051891      -1.00150450
O        1.70981998       4.06606452       5.54236995       0.14210801       1.04714635      -0.98461608
O        5.99595278       8.94817389      15.58694166       2.43351370      -0.76541273      -1.53782352
O        0.92585720       3.80381422      12.67058242      -0.52642779      -0.04065248      -0.92235235
O        6.90305189       9.00136039      21.83504988      -0.74199770      -0.50887374      -0.01407643
O        9.86305915       6.33125467      15.36674986      -1.38649452       0.92084594       1.34579138
O        3.96671981       1.37723326       6.07991176      -2.14679322      -2.38699093      -1.32725609
O        3.09315790       6.37347603      19.33178964      -1.19072203       0.14664938       0.23488271
O        4.50949673       6.53260120      15.17890595      -0.12074565       0.40333199       0.08232617
O        7.32945117       4.02096245       8.34387641       0.52830197       0.32473679       0.70079377
O        6.14125437       3.76887900      12.72343173       1.63536479       0.66903631      -0.55043037
O        1.81479885       8.75206903       8.62585830      -3.13016926      -2.14458278      -0.02026119
O        2.59759582       8.69706060      12.58153035      -2.28308292      -1.14951727      -0.82377127
O        8.78187814       1.85823601      19.41935656       0.13234624      -0.17986456      -0.23729523
O        8.30553583       1.50109202      15.33231214      -3.41302427      -4.12064344      -0.44887271
O        2.97519623       4.89930689      16.66363755       0.01544733       0.30149924       0.22439284
O        5.17411693       7.24890797      18.00084089       0.69444818       0.35552629      -1.57300702
O        7.93343363       5.03763276      10.88344395      -1.33871669      -0.67930534       1.79511037
O        5.44669189       2.92763411      10.18575675       1.21943607       0.09629600      -3.23856458
O        9.88271243       8.40424518      18.01433357       0.05593018      -0.69251720      -1.06618735
O        2.80525452       0.73381212       3.31306999      -0.38206047       0.22966879       0.93570552
O        0.31341673       2.70336217      10.04402312       0.21488560      -1.21810712       1.22844881
O        7.45578112       0.15297999      17.71977421       0.09150228      -0.35812001      -0.89599773
O        9.56137211       8.67921603      22.75302600       0.46374409       1.49662820       0.49932170
O        1.82093787       0.94607308      11.98535793      -1.84264791       3.09456069       0.81059803
O        1.04253212       1.46898811       5.31607345      -0.95591213       0.33869543      -0.68735236
O        8.89369316       9.13425020      15.30334169       1.12818626      -0.48954939       0.86805722
O        3.49826336       4.34347098      11.97661437       0.60770981       0.13621425      -1.28905256
O        6.24981843       6.64810158       9.13770417      -1.51274905       1.31199479      -1.07751784
O        7.41288504       6.55792434      16.18372689      -0.64339266      -0.85238395      -0.84598994
O        4.39498550       3.72713501      18.70056940      -0.64349712       1.75862774       0.00418767
O        8.86802942       3.26499760      12.57009026      -2.14140084       0.09213299      -0.76550004
O        7.05483947       1.39649395       8.76501696       0.86031126      -0.16604876      -0.60796341
O        1.82176764       7.08403122      15.89425350       0.96854764       1.11765687      -0.61743033
O        3.49899542       9.06480630      19.09066289       2.43090933      -3.33969162       1.93684916
O        8.27782281       4.02408365      15.69803064      -0.41424926       0.74719615      -0.69983113
O        6.29011385       2.22358103      19.08315876       3.60336229      -1.22167109      -1.59737075
O        1.80635933       6.27600301      11.64414873      -1.14363946       1.36196724      -0.10181226
O        4.37042265       8.60829136       9.06675108       0.95794796      -0.96021246      -1.54441393
O        7.91312335       5.60572697      13.50132234       0.37724436      -0.16603992       2.35491876
O        5.19766302       3.15361138       7.38656644       1.44393330      -0.11692896       3.21443457
O        2.42633384       5.41878851      14.05370227      -0.20708991       0.01413263      -0.08309700
O        5.16934133       7.31164559      20.53697868       0.72366539       1.05316126       2.01516091
O        0.63061365       2.65383675       7.54069681       0.13866201       0.39962205       0.62712252
O        7.07030699       0.10739085       6.41605459      -0.88809545      -2.22134078       0.67737259
O        0.23016139       7.49128697      13.50939330      -1.76170110      -0.60796505       4.53637505
O        3.10997613       1.07101706      14.63761417      -0.42136617      -2.22076278      -0.74309664
80
Lattice="9.77192453 0.01751879 6.90363604 0.24348012 9.76890588 6.90363604 0.01370155 0.0133883 13.86910312" Properties=species:S:1:pos:R:3:forces:R:3 energy=-575.85462025 source_file=vasprun.xml step_index=5 time_fs=82010.0 time_ps=82.01 file_index=41 pbc="T T T"
Na       8.76757298       4.17104316      20.45440974      -0.37420848       0.15797830       0.49311667
Na       8.36803031       0.64436774      10.76308765      -0.29056465      -0.50413085      -0.50001073
Na       6.32580104       4.32400832      18.16372052      -0.11390551      -0.03837319      -0.15185174
Na       1.13821081       8.84855911      17.76744469      -0.18685662      -0.51355729      -0.10854759
Na       1.69237803       2.75739727      15.82035379       0.37486085      -0.36510000       0.21610646
Na       6.05389665       1.66077546      13.68873909       0.24230016      -1.44564399       1.30559841
Na       4.16728840       6.87908077      12.09559559       0.06759619      -0.02109975       0.15951869
Na       2.40461751       1.82604295       8.43882819       0.49850717       0.29165612      -0.28858025
Al       7.20348333       5.28185512       9.43487601      -0.80329721       0.59371247      -1.76353933
Al       4.50521885       2.92106945      11.81592882      -0.91814812       2.75466991      -3.97486792
Al       2.77188848       4.93056754      18.55082749      -3.36517208       0.04290536      -1.48711892
Al       5.51157359       6.78239993      16.06215976      -1.86048529       1.50075516      -0.57863402
Al       0.17090605       2.35733004      11.48691386      -0.03929018      -0.04850962      -1.06474663
Al       7.78862824       9.61330533      22.75959906       0.53123438      -0.96838487       1.17191079
Al       9.54078012       7.71394005      16.02874527       0.56617742       0.27159501      -0.28343152
Al       1.89565357       0.55147970       4.80229679      -0.01375932       0.68646976       0.39152059
Si       2.56007175       5.70490251      15.42044756      -0.18390792       1.56194023      -1.28494693
Si       3.95515637       7.51518895      19.13519880       0.75193085      -0.74802781      -1.91671966
Si       7.22684944       4.36317890      12.41362372      -0.68095831       1.39579843       1.18229556
Si       5.86375472       2.38840070       8.71080928      -2.51760357      -0.10310224       1.51963433
Si       0.71118420       7.60269867      12.19779526      -0.22849182       0.84702951       0.02418216
Si       2.62842038       9.21552255       8.71175556      -1.96642444       1.98923793      -0.41865283
Si       9.14068093       2.22528206      15.17908654      -0.12180148       2.14619314       1.64649792
Si       7.09017621       1.10503780      18.95021129      -2.39652283      -0.60024378       0.52588671
Si       0.21396704       2.93218548       5.57965275       3.08407614       2.55172315      -2.37117227
Si       7.07847647       9.34003661      14.86629232       0.83878022      -0.03835018       0.85133339
Si       9.58761881       6.95703915      21.91541809      -1.45656112       1.78214962       0.80145512
Si       2.67572858       0.65956760      12.85945557      -0.52389217       0.79190671       0.73867538
Si       7.86024367       5.04909580      15.28729810      -1.25331075       4.06550811      -1.43054500
Si       4.37794073       2.51368026       5.68090882      -3.19041943      -1.07974590       4.82710002
Si       1.87527025       4.85501459      12.46081634      -0.46855433      -2.29930581      -1.04563580
Si       5.33083307       7.78307860      22.04094482      -1.12570588      -0.26109392      -1.91537910
O        8.68950613       5.64151435      22.21281028      -0.79131384      -0.49278985       1.42842907
O        3.90579475       1.74169513      12.79990532      -0.86750645      -2.03112788      -0.18692016
O        1.22389087       4.16373864       5.04919800      -1.72990046      -2.03799397       1.09658486
O        6.06253553       8.13583037      15.03416051      -0.76889929      -0.80906843      -0.33658657
O        0.45567482       4.10231596      11.82485340       1.31299989      -0.26533386       1.69315217
O        6.26637649       9.08543965      22.14260499       0.22100205       0.43829101      -0.14699198
O        8.95535959       6.12917301      15.56989182       2.42552555       0.94776949      -0.11486304
O        3.14735152       1.39209688       5.80101014      -0.24656010       0.78734731      -1.27425891
O        2.62993895       6.48106279      19.26896802       2.19964479       1.62126317      -0.24112249
O        3.87887341       6.59802023      15.08118366       0.88588721      -1.70629616       0.17942745
O        6.95410335       3.61075224       8.81083258      -0.03168897      -0.29938951      -0.47899958
O        6.00769060       3.32873676      12.53458788      -0.87584237       0.52256772      -0.51500525
O        1.20605098       8.45211133       8.27054556       1.24925723       0.19705444       1.62315531
O        1.62152866       8.87382171      12.62181448       0.34191051       0.78674746      -0.49658684
O        8.27383160       2.10393088      18.96146170       3.25072858       3.32282723       1.08966091
O        8.28195856       0.97522913      14.65207625      -1.10747686      -0.34573502       1.14413814
O        2.55067659       4.74507743      16.70152012       0.73490013       0.00076293       0.97285993
O        4.70864890       7.35264031      17.57947991      -0.35311959      -0.61521027       2.21937055
O        7.15593427       5.41002306      11.19488309       0.21830337      -0.17645154      -1.00308821
O        4.88532198       2.51087076      10.11521022       0.19822483      -0.07176963      -1.22437446
O        9.58029233       7.90666086      17.81759964       0.24443859      -0.00008362      -0.73800330
O        2.46462293       0.53443509       3.11668465      -0.79795203      -1.60377645      -0.29366985
O        0.27080546       2.18834798       9.66750390      -0.16002134      -1.14012270       0.00428951
O        7.17529938       0.53514349      17.49934866       0.44680302      -2.44488201      -2.81298367
O        9.00642100       8.27602383      22.84148385       0.20395251      -0.61541015      -0.95731451
O        1.18474810       1.03544183      12.18105119       0.88426233       0.91675578      -0.11932252
O        0.40885380       1.62102475       4.67898369       0.63888057      -1.18567886      -0.75303233
O        8.37642080       8.95318449      15.73811852       0.76641672      -0.09593061      -0.70708013
O        3.12888046       4.18688720      11.64821276       0.87501173      -0.00051476       1.18632210
O        5.83681112       6.37762307       8.76556426       1.16519985      -0.55447801       0.80600012
O        6.70384401       5.48170426      16.30009411      -2.89204432       0.53880913       1.73749837
O        4.04948759       4.09173925      19.22257670       2.34797303      -1.98823468       0.08018785
O        8.44850754       3.33101652      12.47575358      -0.49165083       0.06838710      -0.88777229
O        6.49795541       0.86183468       8.89429541      -0.87518991       2.54478469       0.26604998
O        1.38085753       6.91915426      15.41981604       0.72340314      -0.89758514       0.75209331
O        3.17960519       8.95615982      19.14080168      -0.32225484       0.97171750      -0.54064171
O        8.12386097       3.56016194      15.44000221       1.75960734      -5.68169995       0.48770761
O        5.66778101       2.02194211      18.85987037       3.14176586      -0.58381240      -2.28819415
O        1.80873144       6.41783326      12.00955465       1.39292709      -0.88288277      -0.18686050
O        3.82211148       8.14779580       8.85894108       1.38690501      -0.75578802      -0.32381061
O        7.13907588       5.20624723      13.82197435       0.39295946       0.43689749      -1.11543561
O        4.86324030       2.30681488       7.32073393       0.73280636       1.24984279       1.51951784
O        1.98026101       4.64045567      14.17092112       0.11274424       0.52912889      -1.03131021
O        5.11404096       7.66948033      20.29978256      -0.49613617      -0.70885289       1.26358355
O        0.43657883       2.51708413       7.09801285       1.45970561      -0.20217718       2.15031934
O        7.05481949       0.22643856       6.46052498      -0.16451090      -0.78444020      -0.68642514
O        9.51582235       6.96807239      20.24555461      -0.55047204       0.66929407       1.20911745
O        2.66962839       0.71426498      14.49751100      -1.06180414      -1.94915834       1.29035483
80
Lattice="9.77192453 0.01751879 6.90363604 0.24348012 9.76890588 6.90363604 0.01370155 0.0133883 13.86910312" Properties=species:S:1:pos:R:3:forces:R:3 energy=-574.60532414 source_file=vasprun.xml step_index=840 time_fs=65680.0 time_ps=65.68 file_index=32 pbc="T T T"
Na       8.65052340       3.89658645      20.91730993      -0.28106085      -0.25386478      -0.69492897
Na       8.53965520       1.18306621      10.27031683      -0.00677019      -0.23346861       0.25956357
Na       3.35617267       5.18503669       8.04441393       0.40918334       0.12241532      -0.00863852
Na       3.77269437       9.43674152      14.31067115      -0.05403848      -0.52316783      -0.28257905
Na       2.42499568       2.42136640      15.66146237       0.13232418      -0.08052676       0.18783403
Na       5.75567628       1.00352380      14.48507684      -0.05594863       1.08379550      -0.89012069
Na       1.47296167       9.03128211      17.44517381      -0.19054640      -0.26985274      -0.49406146
Na       0.21937467       6.10009131       5.57959893      -0.13062955       0.01148130       0.24903255
Al       7.12768296       5.20542884       9.34433619      -2.23830570       0.55642652      -0.94496203
Al       4.62039171       2.81591260      11.55242012      -0.29324042      -0.78433811      -0.53697883
Al       2.83056548       4.71091333      18.25910384       2.44056111      -1.28532916       4.16585993
Al       5.31286659       7.10397947      16.15338516      -0.61768114       0.89265643       0.73816990
Al       0.35159912       2.24807704      11.27652571       0.54906088      -0.60545609       1.49295848
Al       8.03604064       9.42404598      22.93982220       0.22422578      -1.10196739      -0.03404489
Al       9.46048893       7.60955814      15.95253763       0.85627732       1.60406309       1.72105549
Al       2.10643737       0.29782582       4.68130537       0.73939982      -1.65401673      -0.38310084
Si       2.61733646       5.68363990      15.47900680       1.51182920       0.37995451      -1.17409693
Si       4.12357108       7.48810728      19.12562118       0.28676796      -2.82871173      -4.40857345
Si       7.26235535       3.95194145      12.25034852      -1.59250136       2.42410205      -0.33396258
Si       5.44619631       2.48143119       8.44866742       2.47447987       1.94370648       1.13184008
Si       0.99570366       7.54836876      12.05708240       1.36591406      -1.11497521       0.36019811
Si       2.42679328       8.91849154       8.56710101       4.39444337       3.00034905       0.42795374
Si       9.10777119       2.41073405      15.28372600      -2.73997927      -2.44014475       0.95094513
Si       7.63571350       0.73321454      19.10559641      -2.88381671       1.07041100       3.05721084
Si       0.31001539       2.77368753       5.44996799      -0.66808721       1.77255509      -3.18581959
Si       7.12472470       9.52808638      15.09512996       0.92961303      -3.31093383      -2.69342895
Si       9.66749338       6.96534358      21.80087284      -1.32809118       0.31777733       3.35617113
Si       2.78676833       0.59639635      12.74893743      -2.82275196      -3.07688789      -0.01178771
Si       7.50465870       5.13468123      15.24883062       1.84044604      -1.24712388      -3.34538067
Si       4.59408661       2.12114716       5.63438038       0.64186506       2.15283672      -1.07351134
Si       2.16571840       4.67325819      12.38174343       0.40786008       0.89414225      -0.87840079
Si       5.44115963       7.58761985      21.94067584      -2.03540773       1.74155056       1.13945057
O        8.33750117       5.85237704      22.12611167       3.36773532       1.74911182      -0.76467358
O        4.09977064       1.37247490      12.46983856       1.43269997       0.27536473       0.19174399
O        1.25159475       4.10412658       4.93570602      -1.86862737      -1.48116176       1.30951741
O        5.78416422       8.56590499      15.15715850       0.63630209      -0.08744614       0.69751350
O        0.84971226       3.67107010      12.11390449       1.07233125       2.31125647       0.60768118
O        6.50672524       8.86545258      22.11558538       0.16466956      -1.45314404      -0.23276694
O        8.91742570       6.06273912      15.34136411      -1.34554167       0.19585698       0.45764808
O        3.57399547       0.93055816       5.31759899       0.02702782      -0.39025597       0.23976293
O        3.05601065       6.24486278      19.06738934      -1.37599837      -1.38738031      -0.63003536
O        3.65582271       6.94927949      15.56402698      -0.06772414      -0.72082318      -0.45738390
O        6.65395386       3.71622762       8.50154928      -1.35810136      -1.09380109      -0.89680672
O        6.00072914       3.06138115      12.53541403      -0.85201691      -1.43322163      -0.04519769
O        1.27343259       7.95773222       8.27344107      -2.78277984      -2.22870954      -1.16111564
O        2.06472413       8.63971474      12.65185385      -0.45769041       0.93079049      -0.30436365
O        8.83255319       1.80290175      19.32717929      -0.40354994       0.10586800      -0.95148557
O        8.20047210       0.97490316      15.00587692       0.45717064       2.89515985      -0.22805444
O        2.81759145       4.58347838      16.63828512       0.33312116      -0.89426551      -3.30469764
O        5.25610717       7.38016080      17.93973484      -0.70942703       0.72828032      -1.14974874
O        7.13111356       4.98834831      11.01682655       0.52416844       0.38045524       0.22399645
O        4.62374532       2.52265234       9.80126147      -0.36003134      -0.14952551       1.19412345
O        0.27808071       8.04214087      10.74200584      -1.06645484      -0.51351579      -0.80875207
O        2.15972602       0.12277125       2.94835760      -0.62276790       0.39317572       0.39234256
O        0.38992935       1.86987197       9.56413964      -0.97406049       1.75206145      -0.77122868
O        7.80194440       9.69197481      24.66523033       0.50147028      -0.57713286      -1.27063000
O        9.53785518       8.43891755      22.80448198      -0.80620383      -2.44003920      -1.98050210
O        1.54805249       1.09402164      11.83060075       0.94025005      -0.88181738       0.27259199
O        0.85338218       1.44124228       4.71049004      -1.93525335       1.78827034       1.06760307
O        8.36416848       9.05245804      16.04421114      -0.38515932      -0.71137259      -0.60004732
O        3.53758800       4.09949229      11.71300874      -2.01881491       1.16130716       0.56262768
O        5.76708317       6.37417671       9.07830720      -0.14682660      -0.38114114      -0.91008729
O        6.08821754       5.58413412      15.79302710       0.69543213       0.45661405       0.50613477
O        4.29361153       3.60231616      18.82144078      -1.42176521      -0.34563099      -0.22638159
O        8.40433974       2.97247836      11.75539750       4.90653515      -2.03428814       0.03397596
O        6.55687186       1.25125394       8.50998276      -0.99659421       1.88781841       0.53095368
O        1.25021192       6.40939132      15.84028731      -3.63356668       0.92351023      -1.54933221
O        3.05368530       8.62791740      19.18736504      -0.93390343       4.86965971       0.24957152
O        7.94034012       3.57772546      15.62307235       1.09700239      -0.64734098       1.19481647
O        6.16559913       1.68513545      19.22281897       0.43127580      -0.44450174       0.30538156
O        1.91450505       6.22432630      11.68994825       0.09986179      -2.21121056       0.91504038
O        3.94450507       8.30516369       8.71179501       1.33387808      -1.80440385      -1.32028819
O        7.34074431       4.88510766      13.54013766       1.45042677       1.57428674       2.33986354
O        4.26725303       2.43299389       7.28378323       1.55465859      -0.39975137       0.29398497
O        2.44236630       4.80577672      14.06594508      -0.34502264       0.02654416      -0.39834787
O        4.91110127       7.09722897      20.37530270       3.73654507       0.26625925       6.54985392
O        9.76989606       2.92178580      13.89868590       1.29830056      -0.12996707       1.40397749
O        7.79053410       9.50751876      13.52809374      -0.28220718       0.28257541      -0.52494071
O        9.71381285       7.01697905      20.13316594       0.04315472       0.31489011       2.08339867
O        2.44874820       0.43059769      14.38078570      -0.21311248       0.39866804      -0.99080641
80
Lattice="9.77192453 0.01751879 6.90363604 0.24348012 9.76890588 6.90363604 0.01370155 0.0133883 13.86910312" Properties=species:S:1:pos:R:3:forces:R:3 energy=-574.72645214 source_file=vasprun.xml step_index=675 time_fs=87350.0 time_ps=87.35 file_index=43 pbc="T T T"
Na       8.28843586       3.39848840      20.93489122      -0.30972481       0.52096685       0.69099792
Na       9.18649420       0.20739124      13.14271357      -0.06771781       0.25702188       0.24650055
Na       5.97709707       3.99374725      17.55080807       0.71539087       0.25293030      -0.37067119
Na       8.39237172       7.43702330      12.32372037      -0.07796727      -0.15005988      -0.35531608
Na       2.24358259       2.73807710      15.72105959      -0.16911996      -0.53305574       0.30727424
Na       6.17367159       1.71753563      13.76816039      -0.34639814      -0.98717455       0.67192271
Na       1.72007100       6.01872292       7.32718116      -0.19496751       0.93079827       0.78283690
Na       3.90482148       7.92981830      14.03749115      -0.37141886       1.72637893      -2.14864449
Al       7.02034587       5.53585479       9.12452555       1.74499084      -1.83844522       0.84169922
Al       4.37869112       3.17990322      11.72426009       2.36539922       0.83732854       0.88698718
Al       2.89554611       4.92085077      18.82418506      -0.53829265      -2.08256351       0.21734501
Al       5.25448376       7.15383828      16.28638975       1.09684647       1.65004269       1.97377756
Al       0.29205636       2.38811173      11.84954065       1.93553660      -2.79958824      -4.38627386
Al       7.65982179       9.65233354      23.15786090      -0.08432082       0.72354993      -1.77857476
Al       9.51939411       8.02852076      15.70368777       3.43906205      -1.31077281       1.32180145
Al       2.04379394       0.60788897       4.58067004       0.51911091      -0.52886683      -0.91487109
Si       2.30066544       5.83375795      15.83799125      -2.29737821       1.11271798      -1.30458743
Si       4.40545299       7.64450067      19.20994311       2.68230025       1.92609389       0.76889300
Si       7.44436717       4.31161109      12.13062135      -2.23450930      -1.86489409       0.78395736
Si       5.40984374       2.77025476       8.66522087       3.56686428      -2.38783223      -0.25215521
Si       0.85581325       7.51939115      11.99414479       2.43039879       2.36509898      -0.38792060
Si       2.58303083       9.34364357       8.43558041      -2.51840974      -1.94588303       1.10557606
Si       8.95720121       2.67654173      15.61253378      -3.26725797       1.30964383      -1.41109823
Si       7.41590710       0.82084343      19.13534598      -2.41237827       1.44113018       0.87838647
Si       0.45772466       3.00495794       5.93042279      -0.65865115       2.22561833       0.21322118
Si       7.00747794       9.67914239      15.10863333      -2.43360048       1.65346560       1.86687253
Si       9.29385885       7.18773259      21.58437200       0.76662291       2.22791918       2.20334281
Si       2.89131390       0.68451647      12.54521005      -0.35325255      -0.89894334      -0.91046427
Si       7.70149341       5.58882830      14.91917443       0.69397129       0.52167054      -1.70862019
Si       4.60437207       2.15708993       5.60140800       2.93108975       2.39139198       1.31873157
Si       2.14668817       4.77256257      12.97424239      -1.63090546       1.80649822       1.35911236
Si       5.27290194       8.04033971      22.23507294       0.61239347      -0.56830316      -0.96978999
O        8.35609975       5.94730959      21.86700247      -0.51729619      -1.08510384      -0.43033495
O        4.18111994       1.64666687      12.46288451      -1.25158123       0.66740298       0.36182855
O        1.52847629       4.27901069       6.13879951       0.36646628      -0.59574892      -2.28521630
O        5.68094820       8.78318425      15.71286549       1.24441582      -0.48557210      -1.92520504
O        1.01965764       3.68175573      12.63849491      -0.47261052       0.32566104       0.07289570
O        6.02053941       9.40650761      22.50122792       2.70908772       1.89543929       0.74993401
O        9.10436347       6.53121761      14.92041736      -1.70535864      -0.38085120      -0.38627199
O        3.72805845       1.02134247       5.03516528      -2.42071283      -1.32425311      -0.63305116
O        3.36642796       6.46942583      19.41200970      -2.15805645      -1.44204539       0.41514902
O        3.72730524       6.66641811      15.54251524      -1.62053631      -1.86966636       2.08668373
O        6.51856443       3.98116732       8.43194753      -0.93260224       0.09589872      -0.33727260
O        6.06559674       3.25497859      12.43829071       2.08267773       3.49018369      -1.47731813
O        1.26034396       8.44545736       7.91425122       0.93809901      -0.07691031       0.33330796
O        2.01396124       8.81958537      12.21684925      -1.80534398      -0.95825885       0.44745801
O        8.65124385       1.77617445      19.46332074       0.60428836       0.24899965       1.04827728
O        7.63116585       1.68975957      15.52417953       0.88875670      -2.03277857       0.59137277
O        2.13176565       4.83108612      17.16307757       1.31258457       1.47634754       0.08565339
O        5.46109587       7.23169671      18.05998045      -0.65221142      -0.56153666      -1.11499628
O        7.84469247       5.15500075      10.82995499      -1.32578218       0.76175820      -2.57683249
O        4.78816541       2.91454046      10.11218101      -1.64996785       0.59361684      -1.78444205
O        0.20822872       7.73551891      10.52856336       0.24462810      -1.05974731       0.44972140
O        1.89261297       0.40826559       2.83168066       0.08545651       1.58010859       0.22901955
O        9.64497460       2.76708198      16.96491840       1.92532118      -0.34669384       4.70053921
O        7.92439938       9.52331142      24.89984362       0.15985194      -0.77827725      -0.60895585
O        8.81128343       8.57228262      22.37558477      -0.44770379       0.03633585      -0.58678140
O        1.55649322       0.90236731      11.57916718      -0.43252914       2.46229313       2.37898334
O        0.77733434       1.84356593       4.89333037       1.87459445      -1.48300778       0.15646874
O        8.49453485       9.28825281      15.59023637      -2.44302813       1.39770889      -0.68098775
O        3.53949623       4.65864049      12.28690285       1.57541024      -1.81264957      -0.89970970
O        5.89234265       6.76053848       9.09907059      -0.80868955       0.38757143       1.01735132
O        6.44336689       5.99036476      15.87185950       1.04968261      -0.85283247      -0.95045631
O        4.29894176       3.73112520      18.94744152      -1.11507388      -0.02350543      -0.35140697
O        8.65059485       3.22387685      12.38148209       0.03483838       1.12470256       0.13735208
O        6.47087898       1.40838637       8.80147617      -0.06701425       0.83433683       0.23884688
O        0.97153133       6.92271718      15.45623489       2.46858581      -1.40332690       0.74626090
O        3.71449819       9.09169984      18.77984175       0.41747194      -2.43780721       0.73207616
O        8.19772074       4.15623380      15.37316184      -0.24426641      -0.90246299       0.33547891
O        6.21564324       1.92351211      18.80874488      -1.49108734       1.16702390      -0.38261424
O        1.79811040       6.37721960      12.73117079      -0.82970017      -0.85363045      -1.28579443
O        3.82002632       8.43512667       8.91006409      -1.60170538      -1.48328138       0.38875472
O        7.27746457       5.59042044      13.19665402       0.59486298       0.11242205       2.83807960
O        4.69255672       2.22396914       7.27064402      -1.02640499       0.89531364      -0.60189121
O        2.02242068       4.69097524      14.65217972       1.38314037      -0.29443055      -0.26793724
O        5.34818296       7.71026360      20.63789004      -1.47420271       0.18816837      -1.71454126
O        0.18959171       2.61183024       7.47006849       1.34302819      -1.97762484       0.17167497
O        6.63876850       0.18283974       6.56710579       0.99747624      -2.23937853       0.37920620
O        9.44607462       7.72868997      20.01307582      -0.72467571      -0.50977383       0.51429161
O        2.87698285       0.53703047      14.23991807      -0.60390779       1.53921359      -1.84979258
80
Lattice="9.77192453 0.01751879 6.90363604 0.24348012 9.76890588 6.90363604 0.01370155 0.0133883 13.86910312" Properties=species:S:1:pos:R:3:forces:R:3 energy=-574.62953777 source_file=vasprun.xml step_index=380 time_fs=78760.0 time_ps=78.76 file_index=39 pbc="T T T"
Na       8.38809416       4.10715787      20.20417304      -0.46839604       0.36255486       0.65008303
Na       8.59066756       1.23912935      10.12191425       0.55730469       0.73903107       0.97331425
Na       6.11857381       3.98074422      17.55984437      -0.21297444      -0.02391555      -0.29719995
Na       1.68932862       8.97859585      17.18776629      -0.17709040      -0.12878172      -0.42593608
Na       2.41390841       2.72657375      15.78678837       0.10538216       0.04849910      -0.10352949
Na       5.90252273       0.77121381      13.49605301       0.85544325      -0.08724688       0.72428210
Na       4.29072761       6.75750987      10.85624628      -0.55094016      -0.05584076       0.71867997
Na       1.28088647       6.14175923       6.84853352      -1.16253537       0.23122264       0.88738708
Al       6.93998148       5.02909598       9.02474342      -0.22370165       3.79734905       1.74432562
Al       4.50505283       3.08615654      11.70031964       2.11580252      -1.32212548      -2.25554377
Al       2.74399332       4.57614769      18.72056796      -1.53996833      -0.88323012      -1.74311383
Al       5.39998444       7.10734385      16.32368409      -1.79114263      -0.03211385       0.10741117
Al       0.27669030       2.16691713      11.59564149       2.92341986      -1.97953930      -2.17773966
Al       7.77477496       9.49552688      23.42554873      -2.07938949      -0.26768771      -0.79020460
Al       9.58965570       7.79589864      15.96769066       0.05433190       1.76182590       3.21945263
Al       2.29070184       0.34371581       4.64606249      -1.10662068      -1.16375617       0.27475887
Si       2.40070923       5.95928986      15.64804701       2.15644597      -3.47060333      -0.29698750
Si       3.95624575       7.41895857      19.37153909       2.40729487      -1.75765111      -2.73037340
Si       7.37389620       4.10153935      12.11363334      -0.55334051      -0.50173926       0.96715058
Si       5.49729180       2.56433850       8.46042476       0.43819549       1.32686647       3.74742982
Si       0.99109760       7.45682603      12.08641875      -0.57945367      -0.85058226       0.48121794
Si       2.44984798       9.23696962       8.66825846       1.56182135       0.84325979      -0.47931543
Si       8.84826651       2.46636712      15.65570626       2.20677398       2.12427593       4.37781833
Si       7.16792847       0.85678989      19.30663524       0.88347489      -1.94956942      -0.28825486
Si       0.27698255       2.78938835       5.94307093       1.39774763       0.13706805      -3.62038393
Si       7.05094020       9.71740438      15.39223428       1.67246085      -1.66535020       1.56212097
Si       9.34079725       7.09289248      21.87858065       1.46360008       1.36015473      -0.65971979
Si       2.87183227       0.59175773      12.65399697       0.85718566      -0.57758785       0.84696926
Si       7.72187589       5.29650880      15.03703297       4.56952392       2.47868989      -1.26015685
Si       4.46233891       1.87788317       5.64475347       0.50573620      -0.09458971       3.08480218
Si       1.84468472       4.43335613      12.72391697       4.87785187       4.09016989       1.31486269
Si       5.22850291       7.79108624      22.30387167      -1.83215819       0.64196825      -0.82128135
O        8.28390448       5.87413616      21.91390808      -0.08456918      -0.67967694       0.13243677
O        4.22447123       1.53749273      12.51488308      -1.45228478      -1.80170913      -0.38307522
O        1.11841523       4.18130043       5.71241366       1.17393547      -0.05940438      -0.67056888
O        5.95241089       8.61204662      15.75143732       0.32972323       0.72624700      -0.22889487
O        0.58879746       3.57087612      12.51880481      -2.85307080      -1.46420910       0.81192518
O        6.19290025       9.06960813      22.30553052       2.03090875       0.21408229       0.71137732
O        8.90652772       6.60011464      15.11448135      -2.52484078      -4.34177933      -1.72957754
O        3.88393359       0.47782395       5.28335826      -0.32891758      -0.56302444      -0.55241773
O        2.92222332       6.17625473      19.39313250       0.40951423      -0.82006888      -0.22981693
O        3.71630289       6.84398352      15.77478857       0.23354474       0.54070717      -0.64998192
O        6.70327178       3.69135064       8.06246996      -1.12704524      -2.25376269      -1.94407013
O        6.01703511       3.36058285      12.59576880      -1.01087616      -0.41909539      -0.61857536
O        1.34365659       8.12113718       8.33907339       0.87501560       0.50308385      -0.73640896
O        2.27214503       8.39425808      11.91756036       0.41505815       1.03675515       0.25671038
O        8.62575216       1.40955958      18.85695088      -1.66845173       0.57582451       2.37421588
O        7.70374141       1.41568394      15.87870736      -1.42261820      -1.29107536      -0.62373176
O        2.52203031       4.76174021      16.80993368      -0.22910045      -0.04974740       2.52242241
O        5.04080143       7.12800645      18.05459844      -0.79737688       0.41878559       2.26171669
O        7.15494130       4.94135413      10.78949360       0.47468103       0.32585820      -1.56372986
O        4.81421124       3.11420972       9.83836944      -0.64623743       0.64599695       0.61804179
O        9.77907489       7.69373222      17.76726385      -0.56758289      -0.44057176      -1.52902845
O        1.94692615       0.61937278       2.91831847      -0.27975133      -0.22232950      -0.70513851
O        0.26261268       2.12639033       9.87231141      -0.93931411       0.65311593      -1.15595335
O        7.17914578       9.51269509      25.10051219       0.05936451      -1.44910814      -1.95265700
O        8.96997957       8.29693634      22.91437524      -0.83487392       1.04212363       0.13994151
O        1.73690930       1.00092495      11.65417620      -2.20149807       1.78143425       0.05161577
O        1.24796553       1.57501421       5.32262204      -1.94710524       0.99472502       0.96432985
O        8.62259877       9.22452574      15.92330349      -2.80512174       2.00714361      -0.55805266
O        3.03807635       3.86139078      11.74849808      -1.84352346       1.53520565       1.54744426
O        5.58686306       6.32391910       9.02616262       0.68319027      -0.08938519       0.51950861
O        6.40077571       5.78236519      15.71298429      -1.87733141      -0.15995020       1.33593680
O        3.91510071       3.16850791       4.95967750      -1.98380436       3.53180185      -1.14541064
O        8.55169961       2.94669904      11.96104021       1.74135856      -0.88122023       0.14572436
O        6.40353690       1.41727345       9.26743539       1.45964849      -2.59412267      -1.78999648
O        1.10433996       6.83828352      15.54098539      -0.83972216       0.16235624       1.26726110
O        2.99503019       8.70537869      19.26722216       0.82626266       0.57444747      -1.14517352
O        8.47792191       4.13131434      15.91975222      -1.89410750      -1.39269642       0.64768195
O        6.01752708       2.00046856      19.03352667       2.11303448       0.74121729       0.35328062
O        1.61175490       5.95811590      12.28023688      -0.07712177       0.08508809      -1.39363320
O        3.77453919       8.41112053       9.24519007       1.45942380      -1.09547700      -1.06538720
O        7.70720729       4.99933517      13.42035692       0.37024952       0.61505176       1.01776047
O        4.47741538       1.98935557       7.36726804       0.19465203       0.27275745      -1.70792707
O        2.33373073       4.81793841      14.36614617      -0.48237115      -1.50975395      -1.56905524
O        4.76046509       7.45284930      20.75087750       0.65870647       0.53615065       0.58136722
O        9.63507706       2.77037831      14.35521126       0.79290125      -1.30000915      -1.77979378
O        7.06725039       0.06901631       6.90512470      -0.32659094       1.77737815      -1.83419372
O        9.84715381       7.54512511      20.35240692      -1.78629488       0.55964801       1.11840415
O        2.65613754       0.48957574      14.27451651      -0.79095387      -0.11973314       2.15619490
80
Lattice="9.77192453 0.01751879 6.90363604 0.24348012 9.76890588 6.90363604 0.01370155 0.0133883 13.86910312" Properties=species:S:1:pos:R:3:forces:R:3 energy=-575.6495662 source_file=vasprun.xml step_index=685 time_fs=93370.0 time_ps=93.37 file_index=46 pbc="T T T"
Na       7.93688809       8.21529678      18.73273674      -0.82434178      -0.06559667       0.06426838
Na       9.27551459       1.81052355       9.68922723       0.03231465      -0.09431204       0.26025124
Na       4.98414506       6.13290881      11.66690873       0.35681990       0.55482912      -0.33351407
Na       1.63206356       9.12684230      17.13398279      -0.19420326      -0.00544382      -0.03069187
Na       8.82056588       3.73964989      20.64235174       0.24924262       0.34104086      -0.16500621
Na       4.80515233       2.05428562      16.15852529       0.14739746       0.53948010       0.18116577
Na       1.52806121       6.30193585       6.90470316       0.35674203       0.12618285      -0.18153135
Na       3.07721212       2.74529376       8.28837203      -0.30620909      -0.10289918      -0.01172679
Al       7.38932312       5.64340133       9.27208888       1.93654998       0.90670498      -0.07431284
Al       5.02072026       2.93461204      11.52547594      -2.22678482       0.91729258       0.50554179
Al       3.18093268       4.70095941      18.56690246       2.96979498       1.48394860      -2.26870071
Al       5.60658446       7.27433936      16.03143877       1.46736381       0.07400167       0.48311592
Al       0.72188006       2.38366669      11.39623859      -0.42222613      -0.09609935       0.65233957
Al       7.67324122       0.15534246      16.06039846       0.16378091      -3.51918467       0.51685887
Al       9.86428517       8.12315199      16.17513006       0.20960570      -1.86492241      -0.73235289
Al       2.52043838       0.67338158       4.79920227      -1.18639840       0.12468707      -0.41347003
Si       2.88286841       5.90635554      15.61735756      -3.99430389      -3.95352580      -1.92260753
Si       4.79943907       7.54777239      19.15793447      -1.59709660      -1.14269280       0.89600009
Si       7.71834122       4.54422594      12.16383970       1.15941023       2.72386947       0.21914967
Si       6.20564154       2.89487554       8.76535137      -1.88310265      -4.04169238      -1.84332104
Si       1.13204588       7.62779641      12.22377920       0.75224448       1.91123490       0.42287586
Si       3.11495446       9.63772396      22.52335925      -2.92055063      -4.19507999      -2.06998116
Si       9.13968366       2.60311659      15.32368304       1.23524297       0.16619040       1.83318280
Si       7.65755693       0.84303763      19.17431865       1.01333183       1.29129264      -1.98826900
Si       0.66333220       3.21877988       5.55465795       0.54665187      -1.77985322      -1.24677001
Si       7.32758674       9.52053592      14.97794815      -3.02371671       1.39134500       6.02958446
Si       9.80299066       7.43622515      21.94387950       0.58049119      -1.66367056       2.84766049
Si       3.20125336       0.63666393      12.63690942       1.31536189      -0.55575469      -0.28980390
Si       8.29335461       5.46345910      15.30313610       1.77501050       2.15782217      -2.31052664
Si       5.01672198       2.60762702       5.86503068      -1.31323754      -0.19355205      -5.63350600
Si       2.45782045       4.85806586      12.62486435       1.10922771      -0.45610566      -1.05497790
Si       5.54263300       7.77057966      22.03035798       3.76092883       2.08278777       0.14466661
O        8.90803831       6.09199866      22.24268759      -1.56018782       0.36205842       0.28896254
O        4.61582025       1.49766880      12.42097615      -1.62923464      -0.46179648      -0.29899188
O        1.86826604       4.29070487       5.70377995      -0.67433580      -0.23491943       0.94973843
O        5.84277298       8.88213933      15.26638862       0.79201934      -0.27400723      -1.04832268
O        1.15380247       3.95562296      12.38392876      -1.88264620      -2.44029461      -1.63938009
O        6.42232302       9.11413313      22.43976783       1.08031514       0.24889533       0.59673184
O        9.71234713       6.41796191      15.31551405      -0.85090294       0.95110820       0.96461990
O        3.53412372       1.66757317       5.82631361       2.82205134       0.82743965       1.26620658
O        3.73522972       6.26451498      19.44832681       0.61050973       0.15645606      -0.71769210
O        4.29207913       6.39128321      15.31284227       3.33003776       2.87191273       0.13909642
O        7.32296242       3.95235837       8.91353035       1.47568948       0.52677629      -0.13850844
O        6.39755461       3.63472290      12.29244622       0.76576430       0.06289095      -0.42808028
O        1.51406465       8.95459815       8.67468733       0.95634544       0.45533720       0.31385963
O        2.30508573       8.79119645      12.33964970      -0.65863745       2.19082040      -0.53732675
O        9.00924750       1.80623273      19.10718939      -0.41342302       0.33330095       0.44765073
O        8.02358237       1.48402729      15.04137901      -0.48155783       0.96814000       0.31950350
O        2.75040296       4.82688636      16.78091358       0.24121508      -0.16101567       2.62365932
O        5.62478854       7.55723905      17.80098550       0.46225810      -0.36005048      -0.87514304
O        7.53849657       5.74699506      10.97449519      -0.56288194      -1.09797118       2.88640322
O        4.92200666       2.72762191       9.75440698       0.84520443       0.37331986       0.32421486
O        9.89749083       7.74845125      17.89481540       0.05329744       0.32255248      -0.75273351
O        3.13408202       0.66268291       3.05556699       0.67877362       0.85991243       2.16863787
O        0.47603319       2.10915177       9.60069136       0.18870368       0.47908871       0.40503051
O        7.74780389       9.70796182      24.73920425       0.56566826       0.49533374       0.22165322
O        9.48039208       8.86225167      22.63145679      -0.67376286       0.00154537       0.36939868
O        1.83639700       1.05238551      11.83561276       0.92960613       0.30117662      -0.47851333
O        1.14929827       1.92090305       4.52223614      -0.66925649       0.58616786       1.70426432
O        8.32154253       8.96972482      16.11605899       1.46483744      -0.43561954       0.05043523
O        3.72081876       4.34543372      11.60343100      -0.28281320      -0.59386167       1.19834154
O        5.87761513       6.41123194       8.99323221      -0.66095889       0.42032320      -0.98673776
O        7.09019834       6.29485796      15.89107155      -1.01390924       0.08301324       0.05541279
O        4.75585685       3.77272549      18.44481880      -1.01882100      -1.36801206       2.50641652
O        9.18062700       3.95354715      11.72418830      -0.14549867      -1.48422222      -1.10619461
O        7.05646336       1.40555225       8.72544819      -1.01562016       1.35353378      -0.67063318
O        1.52331656       6.85389362      15.72345856       0.28503598       1.57235442      -0.92152329
O        3.73910078       8.78881575      19.06414915      -1.28200374       2.53322225       0.54488425
O        8.59232536       4.03019138      15.93872082      -0.23788135      -1.38531336       0.80355737
O        6.39842530       1.92422244      19.03290699      -0.96841728      -0.47703869       1.76800605
O        2.15250542       6.42358375      12.15621049       0.96355585      -2.60148338       0.09256903
O        4.10769989       8.25227835      22.34411480      -4.70275474       1.71363577       0.68499626
O        8.21750052       5.09000480      13.66792267      -1.50424518       0.37297472      -0.66760685
O        5.37651531       3.26522807       7.26784776       0.39010599      -0.33911282       2.13613100
O        2.79329188       4.80417964      14.19228619      -0.31072578       1.18588642       1.41192712
O        5.87528715       7.88343268      20.40987933      -0.71581081      -1.76754657      -1.36119848
O        0.23264042       2.84764809       7.08521595       0.81023842      -0.38946102      -0.68126469
O        7.76377167       0.01846540       6.73881663       0.98374011      -0.05092809      -4.56383049
O        9.76399430       7.55130942      20.35968907       1.17429128       0.46028787      -2.24925498
O        2.84934655       0.78251604      14.25418793       0.82018783      -0.18556075       0.39464673
80
Lattice="9.77192453 0.01751879 6.90363604 0.24348012 9.76890588 6.90363604 0.01370155 0.0133883 13.86910312" Properties=species:S:1:pos:R:3:forces:R:3 energy=-575.60295651 source_file=vasprun.xml step_index=375 time_fs=750.0 time_ps=0.75 file_index=0 pbc="T T T"
Na       0.61665327       2.87871682       2.94123194       0.22076001       0.36421553      -0.74038446
Na       7.58322098       7.77775884      18.98107603      -0.09748245      -0.33868011      -0.14084672
Na       6.99711042       7.50234121      11.65882005      -0.00758846      -0.67149606      -0.01660847
Na       2.54049281       2.45732404       9.34693907       1.18674186       0.18542947       0.10863025
Na       8.67545197       3.57736357      20.83751990      -0.42552639       0.18897292      -0.46259785
Na       5.75168461       1.61378968      14.37060481       0.02725633       0.10844174      -0.11324955
Na       1.42289934       6.43102615       6.38400651      -0.08781435       0.04177334       0.30793552
Na       3.50770737       8.55306823      14.10744760       0.24906861      -0.16434948      -0.05654685
Al       6.80670333       5.19668843       9.04209668       0.16715829       0.57025345       0.64816158
Al       4.90274865       3.16992457      11.72519010      -2.08592700      -1.87347308      -0.22752570
Al       3.14116141       4.45444550      18.51329534       1.38216076       1.21552453       0.47350913
Al       5.64178978       6.69820777      15.96481196      -2.77145506       1.46188328       0.61057258
Al       0.49006133       2.14419956      11.54245043      -0.97230177      -2.89474162      -1.95066193
Al       7.88716473       9.35938316      22.96509532       2.10581344       0.43577642      -2.49067381
Al       9.52503491       7.70837670      16.24249428      -1.05946922       1.42765431      -1.28963261
Al       2.14937667       0.42808223       4.49826484       0.39006083      -0.53523506       0.85679974
Si       2.63163655       5.35095674      15.77818647       0.70782145      -0.18644984      -3.07672528
Si       4.56498928       7.31143008      18.79875593      -0.84580135       1.79981152       1.18436381
Si       7.57137958       4.27144623      12.16472600      -2.06518729       1.94883219      -1.17243755
Si       5.46052633       2.41567405       8.48807039       0.99033919       1.28191638       4.67336327
Si       0.89424592       7.48205975      12.38058661      -3.33489883      -1.60736324      -3.57755763
Si       2.61249985       9.02034674       8.59992404       0.88199328       3.80756135      -0.90439857
Si       9.29952583       2.36459353      15.38406321      -0.81793027       0.33573461       1.69088120
Si       7.37584058       0.61943876      19.03643767      -0.12635708       1.65558850      -2.32005658
Si       0.55402599       2.88162827       5.68145998       0.25140261      -0.46777991      -1.11148468
Si       7.03195579       9.39198235      14.77951238       3.31701570      -3.47360180       1.63666600
Si       9.57683775       6.75855484      22.02841560      -2.08457573       0.40940531       2.57501343
Si       3.03856922       0.46433580      12.59785299       1.77004853       2.39815754      -0.94668541
Si       8.27868420       5.29522478      14.96328087      -2.17616145       2.20900928      -1.65458338
Si       4.47235837       1.92385120       5.97493290      -0.63828820       0.56144440      -4.04297100
Si       2.07333647       4.64262112      12.74663554       3.12808027      -3.13875640      -1.38630846
Si       5.43502820       7.76588909      21.77886323      -1.08181467      -0.77153080       2.22065122
O        8.36315214       5.67342618      22.30942986       1.52703668      -0.13269724      -1.36251680
O        4.29165133       1.66176443      12.55533586      -1.50923516      -1.31721306       0.57314701
O        1.67047444       4.01773594       5.44189024      -1.00143341       1.00885797       0.47249967
O        5.89709258       8.19369707      14.93739132      -0.35444004       0.93637826      -0.14740255
O        0.82837747       3.58810999      12.28601930       0.83770967       3.32268857       2.27095699
O        6.46437323       9.07100419      21.98690710      -1.34151761      -1.03205743      -0.83938987
O        9.45489494       6.33282168      15.18116170       0.92621771      -0.42313140      -0.31478022
O        3.43666617       0.70711657       5.63581030       0.78797154       0.26334191       1.12267972
O        3.34196087       6.30885484      18.76482570      -2.52596377      -2.20120062       0.85768531
O        3.78541815       6.48351500      15.61752128       1.03091849       0.65907230      -0.41360344
O        6.40206653       3.69629351       8.35460236       0.67402284      -0.08936573      -2.46382715
O        6.40127977       3.28856432      12.64685422      -0.58195359      -0.14334739       0.59908844
O        1.26161753       8.25767965       8.82424654       0.91944274       0.55249875      -0.91891199
O        1.86807533       8.68274141      12.15191018       0.10572228       1.02022619       1.04145238
O        8.57172019       1.65532174      18.82443536       1.34989305       1.33625434       1.41568732
O        8.15279442       1.23809736      15.50907171       0.02660569      -0.32389173      -1.13298684
O        3.11006306       4.24734611      16.82411585      -1.58985635      -0.08479165      -0.59898190
O        5.58270200       6.67848289      17.76948501       1.62474073       1.41171730      -1.72008134
O        6.99737774       4.89536838      10.71043305       0.99003545      -0.10805241       3.38274933
O        5.02645090       2.51339943      10.06492174      -0.83373175      -0.10644954      -0.80248626
O        9.66179283       7.33791824      17.88231039       0.38853281       0.22750718       3.36228941
O        2.71861379       0.32303685       2.90724516      -0.35626076      -0.71586916      -1.18539183
O        0.53220352       2.28504395       9.73656129      -0.76330196       0.26781002       1.04036111
O        7.72824538       9.48504594      24.59446517      -1.68170094      -0.52150886       2.05508527
O        9.23739004       8.22104180      22.68524272      -0.00906962      -0.65312277       0.02266818
O        1.71894098       0.89331509      11.70125528       0.77253135      -0.19289355       0.51218643
O        0.92109009       1.63570250       4.63582628      -0.85406625       0.78594024       1.40384158
O        8.32688362       9.02790390      15.84924285      -1.24921074      -0.42303823      -0.96196959
O        3.41390504       4.17609120      11.73610948      -1.23908680       0.94346183       1.26476775
O        5.81379420       6.58929751       9.06463638      -0.64963423       1.85309051      -1.79414903
O        6.97901807       5.76719321      15.76640872       0.89943491      -1.16225939      -0.22532085
O        4.28179618       3.22564387      18.85003746       0.29314930      -0.50263586       1.79967627
O        8.89391269       3.44448904      11.83580664       2.81334195      -1.33447645       0.76313651
O        6.38696050       1.11513405       8.29872976       0.06572091      -0.58553464      -0.96618011
O        1.07938847       5.95373634      15.83525094       0.55193224       0.54487653       0.03655658
O        4.11790290       8.95269043      18.78192319      -0.38352255      -1.54075100       0.02446389
O        8.49197024       3.78853158      15.23053829       0.46053173      -2.54908980       0.64984748
O        5.96377779       1.47124954       5.39933457       0.44359510      -0.67519528       1.12318105
O        1.80435187       6.21071048      12.56985593       1.47703227      -1.18556555      -0.23112769
O        3.79690863       8.02288901       8.30846327       2.73202590      -1.53734595      -0.53605087
O        7.87105373       5.46109687      13.30356468       0.29395880      -0.47747153      -0.76059016
O        4.15226315       2.33441919       7.55231267       0.00245244      -0.32744615      -0.67126362
O        2.52900216       4.43081957      14.33069094      -0.66630668       0.30133583       0.06918873
O        5.36902321       7.17041424      20.23811523       1.25869587       0.47269996       1.12693007
O        0.65098866       2.58757632       7.29981706      -0.37159814      -1.08977328      -1.86738487
O        7.71490131       9.22238625      13.16814305      -1.11958214      -0.47838696       3.48278429
O        9.52727144       7.06962639      20.43387442       0.46145485       1.11238166      -0.88658704
O        2.57267362       0.31785075      14.15764521      -0.77174948      -1.35216542       1.02155667
80
Lattice="9.77192453 0.01751879 6.90363604 0.24348012 9.76890588 6.90363604 0.01370155 0.0133883 13.86910312" Properties=species:S:1:pos:R:3:forces:R:3 energy=-575.12196792 source_file=vasprun.xml step_index=445 time_fs=26890.0 time_ps=26.89 file_index=13 pbc="T T T"
Na       5.94591865       1.85177063      13.59809647       0.65906530      -0.95847294       0.74222761
Na       8.69882534       3.21480697      20.54842155      -0.24364847       0.25014706      -0.32221955
Na       1.75904011       5.38766071       7.66029973      -0.26059131       0.12088034      -0.09344556
Na       1.26461950       8.28297594      17.87968211      -0.23511321      -0.20928977      -0.43029110
Na       7.66874213       7.22046768      18.88297828      -0.06602485      -0.08849575      -0.20112906
Na       1.94005927       2.68086432      15.48531298       0.16623558      -0.98268299       0.50972299
Na       6.24251374       6.79231768      12.86008597       0.01438176       0.29714312      -0.63605058
Na       4.04925761       9.59867604      14.14005270      -0.54839132      -0.08494733       0.22122012
Al       7.02627671       5.20821293       8.59843404       0.37049367       1.76527295       2.09331894
Al       4.74715891       3.18560948      11.57091817       0.10449844      -3.59372907      -3.78616644
Al       2.90774323       4.58542955      18.22502372      -1.78539949       0.21345663       1.63825040
Al       5.40402315       6.80764004      15.71580419       0.39840874       0.02746092      -0.05579494
Al       0.56478895       2.06439038      11.18111235      -0.91956222       1.58460852      -0.32706031
Al       7.75530146       9.48860076      22.84390617       2.02895594       0.64849064       1.84588234
Al       9.46267772       7.89089940      15.89804101       3.94117540      -2.79997382       0.76709121
Al       2.40045286       0.56510878       4.38781982      -0.78032393      -0.66422230      -0.13737298
Si       2.46597802       5.50002948      15.28832244       0.53078834       7.24102177       3.57630543
Si       4.55443732       7.24960234      18.69322940       0.75258152       2.66827564      -1.21881621
Si       7.67979744       4.35853581      11.62683491      -1.39875012      -1.93234149       0.53123993
Si       5.58497231       2.58761193       8.38111452       3.09487888       0.19674041       7.59089312
Si       0.93065620       7.48658581      11.98965219       0.76177693       0.74487188      -2.18068967
Si       2.73524782       9.18671543       8.26168599      -2.55128256       1.89470557       4.24932657
Si       9.37456676       2.33761513      15.10256370      -2.78682999       0.31023837       0.00420896
Si       7.28974929       0.90836585      18.89295753       2.19097683       2.28910137      -1.43134396
Si       0.52807022       2.96671944       5.37365429       1.81827792       0.77458657      -2.79767173
Si       6.96703105       9.46619581      14.86536610       1.14148606       0.69235013       0.09309431
Si       9.57756240       7.05147962      21.86703211      -1.74467731      -0.38671892       0.59151241
Si       2.87725832       0.46659788      12.36856333       1.63772741      -1.59187933      -1.37268827
Si       8.06659125       5.28753602      14.59433406       3.77002940      -0.62839028       2.32645377
Si       4.73531358       2.15135005       5.39545661       0.13745361       2.26324086       0.58547472
Si       2.16579351       4.63165608      12.49335485      -0.87276731      -1.49804933      -4.09712395
Si       5.45155361       7.77988955      21.61607159       1.93139375       0.17941824       1.09730858
O        8.52636663       5.78201650      21.78639363       0.92312494       0.14771362      -1.29375141
O        4.18131813       1.37065466      11.98978076      -0.13706795       1.43475096       1.32175199
O        1.38827139       4.36544679       5.55846119       0.82567693       0.38217905      -1.01424805
O        5.78199202       8.26099359      14.68109582       0.93262122       0.82501198       0.46108243
O        1.00895472       3.54246155      12.20241681      -0.67449632      -1.87958780      -0.21976340
O        6.35488883       9.17828505      21.98934679      -1.99170671      -2.05748797      -2.10835532
O        9.23591238       6.34035547      15.10151075      -0.09617468      -0.76927774      -1.24647596
O        3.87950932       0.76479111       5.24962263       1.90198244       0.91509742       0.99472851
O        3.67431992       5.99202124      18.93426360      -1.84816983      -1.02561711      -0.44243220
O        3.63706896       6.66036448      15.45172330       1.27558999      -1.04237614      -1.35214873
O        6.91014611       3.57648034       8.19064569      -0.95154231      -1.36246457      -1.09607311
O        6.29852558       3.48009253      12.15406819       1.71417391       0.78068671       0.39604976
O        1.26506402       8.51232586       8.34841449       0.30214488      -0.66873121       0.10754012
O        2.06169115       8.81190101      11.91771304      -2.67063039      -3.10428343       1.03425709
O        8.72668070       1.69530764      18.64605730       0.22205443      -0.32983556       1.08340294
O        8.47076073       0.95653631      15.05330843      -0.79564604       1.07452714       0.72042993
O        2.49964961       4.60112959      16.52055992       0.32696725      -3.09783429       3.01796803
O        5.65028750       7.12870539      17.39124812      -1.22312591       0.53905621       2.20694679
O        7.31612442       5.26006479      10.36052960       0.58253571      -0.35602427       1.39623135
O        4.78246449       2.91210490       9.82946605       0.91590481       0.22750541      -2.56350597
O        9.64899496       7.23889767      17.57739784       0.44934625       2.12010574       1.39794097
O        2.81560656       0.30348584       2.78712224      -0.32320016      -0.58986840      -4.17195948
O        0.60257246       2.38262234       9.42947504       0.65551739       0.13100620       1.02898013
O        7.29802269       9.68891560      24.62006813      -0.16026395      -1.49461860      -2.73445724
O        8.92048368       8.16390921      22.86324878       0.98911338      -0.44615198      -0.46493226
O        1.48458652       0.66450515      11.56564576       0.77035933      -0.08018562       0.14798707
O        1.50061215       2.03065692       4.41565182      -1.46092569       0.65933962       0.24657882
O        8.39133411       9.03548131      15.54479213      -3.96551587       2.15829838      -0.81580208
O        3.55351390       4.25649000      11.81746644      -1.24381845       1.93049777       1.21837895
O        5.76587676       6.41115530       8.62302089      -0.48652799       1.27384531      -1.45227194
O        6.74324058       5.69827527      15.25457443      -4.91195963       1.82608211       0.77969399
O        4.06644448       3.41615883      18.47454067       1.52439021      -2.32930742       0.85069632
O        8.86269165       3.21535401      11.50032725      -0.03266510       0.54978267      -0.12369394
O        6.28539286       1.09510109       8.70595128      -0.41944203      -1.23379578      -0.36229012
O        1.18149138       6.50042608      15.69760869      -0.52034719       0.44705140      -1.38046885
O        3.52066698       8.64588471      18.63465015       0.58850535      -0.44870171       0.71673541
O        8.36020744       3.79286124      15.13422587       1.73965805      -3.01513277       0.01927206
O        6.38659433       2.28877770      18.85826861      -2.56573744      -0.71887600       0.73049358
O        1.64159855       5.97540257      11.84792713       0.14834562       2.81909460       0.74608992
O        3.99403365       8.31639486      21.91825338       0.45683846      -2.53637567      -0.41976515
O        7.97972848       5.18791883      13.02195979      -0.06078670       1.28505833      -2.85478005
O        4.74556101       2.42624930       7.15321061      -3.70630238      -0.71607521      -6.36511439
O        2.29438484       4.63581017      14.05474805       0.03380153      -1.99245742      -0.29197377
O        5.52777443       7.34818341      20.00492671       1.12895762       0.83910688       0.56040053
O        0.35370589       2.25182100       6.75365347      -0.01347980      -0.54118148       1.91732302
O        7.05799873       0.13753863       6.40023636      -0.19194935      -1.00409475       1.43785470
O        9.73051317       7.53962200      20.25341182       0.69756137       0.06648101       0.27881127
O        2.51983321       0.44712237      13.97830130       0.07769005       1.71108605      -1.44514763
80
Lattice="9.77192453 0.01751879 6.90363604 0.24348012 9.76890588 6.90363604 0.01370155 0.0133883 13.86910312" Properties=species:S:1:pos:R:3:forces:R:3 energy=-573.53819224 source_file=vasprun.xml step_index=810 time_fs=63620.0 time_ps=63.62 file_index=31 pbc="T T T"
Na       8.05018879       3.65378387      20.17346017       0.14272005       0.49578943       0.34980297
Na       7.11525008       7.27248117      19.27907896       0.03166234       0.54172830      -0.26753798
Na       9.84685229       6.34266640      24.43076197      -0.02377509      -0.14565449      -0.26197092
Na       4.50757884       8.04529477      12.94626210      -0.35424908       0.09166388       0.29545571
Na       9.49960147       2.01808040       9.33249663      -0.03094591      -0.41577016       0.38492903
Na       4.79758215       2.01006084      16.13457036      -0.17197421      -0.11342124      -0.04610145
Na       2.51449324       1.78214435       9.25464838      -0.23651431       0.04050082      -0.18761393
Na       1.01232283       6.11802911       6.48193130       0.40189887       0.16569756       0.34777635
Al       7.06380702       5.13407655       8.95384141       0.40908021       2.40348857      -1.08972478
Al       4.44801553       2.94923274      11.51363557      -1.70279797       1.84990358       1.31992415
Al       2.59145149       4.52599964      18.37200505       1.73399633       0.29765070      -0.39154716
Al       5.44214784       7.20141159      15.97576167      -1.26352778      -2.73679197       2.24952419
Al       0.15354366       2.19051939      11.52706573       0.07279540       0.63688829      -0.15639444
Al       7.73672600       9.23060552      22.78502211       1.51884447       0.49984985      -3.01931027
Al       9.72929163       7.72927602      16.01765398      -0.34856348       0.84274132      -1.62909963
Al       2.16608481       0.42556580       4.82080308       1.47677631      -1.85815053      -1.97877689
Si       2.51464236       5.67515489      15.42559625       0.30687943       1.27765496      -4.63724647
Si       3.93092804       7.54037099      18.89781314       0.29330674      -3.25231644       0.92174289
Si       7.37753819       4.09514952      11.94367543       2.95837867       3.38349402      -0.45862158
Si       5.69424493       2.34348259       8.69014635      -0.61401090      -2.17312993      -1.27314385
Si       0.75899409       7.46291266      12.04280686       0.90543243       1.58726305      -3.43308578
Si       2.85850096       9.42209395       8.76525880      -2.41375050      -1.67255065       0.44955185
Si       9.07726216       2.32721684      15.34078926      -1.71716172      -1.67994257      -0.29879321
Si       7.07279787       0.77742753      18.68239371       3.60983516      -0.62959520      -0.96344987
Si       0.28899225       2.84121370       5.71092547      -1.57990557      -2.75520856      -3.01842374
Si       7.19826597       9.55190046      14.78360817      -0.27358902      -3.73171355       1.13842713
Si       9.36691925       6.90917632      21.69527530       3.08367844      -2.49128774      -3.45776196
Si       2.55591211       0.68672060      12.76083117       0.40725112      -1.96241741       2.01178393
Si       7.95539363       5.22952190      14.87078112      -0.35181472       1.61974931       0.94068114
Si       4.50347807       2.01213370       5.63336606      -0.14907527      -0.75297467      -0.44501122
Si       1.87989455       4.58570033      12.52977701      -2.12816068      -0.01248042      -0.37588213
Si       5.20977108       7.59857462      21.86103981      -0.70514996       2.37187312      -2.86831769
O        8.58470935       5.46312329      21.62232328      -2.29419911       0.52544908       1.04943823
O        3.76198204       1.64194634      12.41857343       0.87291668       0.68209065      -0.41016548
O        1.03102038       4.13868019       5.18736683      -0.09454240       1.89088405       0.37964490
O        5.79830094       8.42709195      14.91231228       2.18199890       3.85071012      -1.45929186
O        0.47391040       3.67828353      12.47738566       0.36235830      -0.88109829      -0.19241594
O        6.49757226       8.63853220      21.65368619      -0.62954692       0.58375665       0.53773811
O        9.33018767       6.22958351      15.00421505      -0.26815693      -0.66336567       0.63465936
O        3.44893831       0.83764118       5.89918915       0.05846196      -0.84830976       0.16342228
O        2.83255254       6.25455292      18.75228014      -0.09413208       0.94444763       0.67453599
O        3.66942884       6.79949889      15.39857644       2.24171496      -0.29316240       0.74986033
O        6.48925474       3.63355287       8.52631425       1.44134385       1.71886967      -1.15212482
O        5.88861717       3.83648049      11.99424635      -4.22837088      -1.69888503       0.00058061
O        1.39478625       8.68550936       8.74612605      -0.31250954      -0.61105991       0.10959700
O        2.22502803       8.42341688      11.95392602      -2.29095256      -0.32671678       0.65481641
O        8.34909005       1.81039397      19.01799296      -2.61392472      -0.07567786      -1.15005187
O        8.01632055       1.07974874      15.10151170       0.60451223      -0.31162590       0.68676361
O        2.22008262       4.80342279      16.66791325       0.20685948      -2.57117128       2.22160400
O        5.13880302       7.46885720      17.89185689       1.88007105      -0.38475820      -4.26926588
O        7.83203663       4.63716379      10.38975259       0.71422678       1.15286160       2.94142105
O        4.62745280       2.39571572       9.90222149      -0.08963294      -0.86343120      -1.98504264
O        9.47017131       7.88554602      17.67112173       1.55950541      -1.21407176       3.40288468
O        2.88050558       0.74281734       3.01936920      -0.14782172      -0.39107394       2.31672498
O        0.25410201       2.06125732       9.70199949       0.86829988       0.32378652       2.26561745
O        7.62670210       9.43433249      24.42625936      -0.72174963       1.03816382       2.26432736
O        9.07554100       7.94852288      22.78484049      -2.13798170       2.29953049       2.05817493
O        1.03013584       0.98746491      12.37717842       1.41211728      -0.77647457      -0.69379547
O        0.98784060       1.58674544       4.88815448      -2.51299368       1.79271995       0.15089322
O        8.39942883       8.79832151      15.64363528      -1.65647467       1.46391145      -2.72013357
O        2.95808101       4.06194442      11.52366648       2.49657579      -1.52794973      -1.70184964
O        5.83935703       6.43958568       8.77722816       1.90017049      -4.18691840       2.03835961
O        6.74275487       5.87567395      15.79485148      -0.47512653       0.26900624      -0.41813661
O        3.82415977       3.34881422       5.10098549      -0.73875247       1.49839853      -1.40086645
O        8.41298128       2.89590340      12.08373431       2.90330924      -1.53039769       1.37712605
O        6.83352399       1.10902507       8.91051148      -1.36940357       0.47290216      -1.53527353
O        1.16630373       6.48001252      15.08398022      -1.40650110       0.84012731       0.65911200
O        3.31992214       8.95893445      19.02691819      -2.45490384       2.86851264       0.43018758
O        8.12641080       3.64498609      15.38651769       0.07288375       1.52260712      -0.09736788
O        5.64332644       1.39310340      18.32124011      -2.05115236       2.26176289       0.89027511
O        1.17401282       5.92850891      11.91744628       0.97409862       0.38430184      -0.11169174
O        3.83326260       8.10450142       8.76600468       1.61229388       0.29367820      -0.43331899
O        7.63667207       5.22703889      13.23753917       0.51265877      -0.87743736      -1.07650162
O        5.12851330       2.27925088       7.08096262       0.70630478      -0.45573387       1.90448068
O        2.59833045       4.78300804      13.95040115       0.62762948       0.04902269       2.27566182
O        4.78976432       7.19037271      20.24984847       0.63541148      -0.08840364       2.95563543
O        0.45142561       2.55051706       7.25463940      -0.13216834       0.00159300       1.39097817
O        7.25212765       9.74731137      13.09155316      -0.63931628      -1.28272781       4.20764927
O        9.48255890       7.54927204      20.14717827      -1.63310699       0.60074255       2.35799849
O        2.56814748       0.62269230      14.46582641       0.86972941       0.81558682      -3.12286293
80
Lattice="9.77192453 0.01751879 6.90363604 0.24348012 9.76890588 6.90363604 0.01370155 0.0133883 13.86910312" Properties=species:S:1:pos:R:3:forces:R:3 energy=-576.01575017 source_file=vasprun.xml step_index=110 time_fs=94220.0 time_ps=94.22 file_index=47 pbc="T T T"
Na       7.76944690       6.79586438      18.51409503      -0.09143014      -0.13456742       0.00682130
Na       7.70134370       1.20363244      12.78598234       0.32213477       0.48557414       0.20347196
Na       5.34614681       9.04828330      13.19881551      -0.24047895      -0.48324557      -0.15485504
Na       2.20681079       9.27005961      16.61073777      -0.07258446       0.27007672       0.24094083
Na       9.43814952       2.75896960      21.48584796      -0.18896302       0.19744140      -0.27055264
Na       4.68301491       1.81420189      15.30304519       0.02771860       0.14581088      -0.07161099
Na       1.15802672       6.84491736       6.50308650       0.10314845      -0.45279514      -0.24350867
Na       3.11353872       5.88183946       9.95354960       0.25514213      -0.09811623      -0.31204488
Al       7.32764655       5.43956447       9.14059034       0.69117609       1.48144667       2.31746834
Al       4.67910327       2.81488594      11.52776620       2.21732573      -1.26285875       0.41207370
Al       3.33921727       4.89436285      18.34768511      -0.50126911      -1.73532753       0.83986353
Al       5.70149178       7.41732824      15.95828018       0.49272600      -4.00315195       0.07344644
Al       0.57374828       2.50757313      11.53236627      -0.77059994      -0.53289056       1.96289707
Al       8.60100245       9.52080665      22.93692258       0.84516951       1.09398990      -1.78911971
Al       0.29256115       7.86995191       9.15471243      -2.31241521      -0.76215797      -1.62296121
Al       2.22465474       0.70094715       4.62545913      -0.84690380       1.69381883       1.08101111
Si       3.05368578       5.85365700      15.25404415       3.64513676      -1.43717015       0.23579074
Si       4.72754703       7.66439303      18.90270853       0.67895485       1.38913417       0.34305006
Si       7.37751642       4.54877918      12.29722289       3.48885809      -1.32861901      -2.25378646
Si       6.04152709       2.60635108       8.62611136      -0.43801312      -1.37304080      -0.44896150
Si       1.01376704       7.46986622      12.10355663       3.71701243       2.34080325       2.24699405
Si       2.88507895       9.40792995       8.58989028       1.90723554      -6.14192298      -3.52717516
Si       9.44761058       2.86810192      15.59015485       1.63747407      -1.03564830      -1.37967083
Si       7.56337549       0.86185774      18.86434871       4.06046729       4.10325689      -1.12759665
Si       0.72645542       3.49958955       5.72751052      -2.22745839      -3.00398589      -0.38365063
Si       7.64384838       9.69691373      14.91884740       3.28102981      -2.92677090      -0.68192511
Si       9.90444416       7.06925787      21.80560655       2.45696371       2.29182414       2.34448157
Si       2.75031952       0.45975129      12.67310282       2.73265114       0.37445509      -2.11513688
Si       8.04027219       5.46557091      15.30473429       0.81862554       1.29364686       1.41844950
Si       4.84020517       2.22993217       5.54621903       0.01141154      -0.52068036      -0.24213655
Si       2.48977614       4.73282980      12.61725665      -1.07464711      -2.29522622      -0.68049255
Si       5.92111237       8.05640349      21.79656075      -0.23317546      -0.33365721      -0.13257885
O        8.94529630       6.05997649      22.51941227      -1.21225589      -0.83716011      -0.32401277
O        4.06931238       1.45028635      12.48975808      -0.01424478      -0.06297219       0.47500035
O        1.81650002       4.62150006       5.46318448       1.20302461       1.78451124      -0.57815731
O        6.67738511       8.41647703      15.03884307      -0.48000230       1.02708907      -1.44351088
O        0.97285866       3.94724686      12.60018505       2.08658827      -0.27695384      -0.26448478
O        7.17573721       9.05131973      21.97210886       0.88488099       0.28793907       0.56630993
O        9.45915104       6.41287749      15.08986767      -0.96411948       0.14921141       1.14749426
O        3.78857037       0.96438352       5.58262689      -0.57784132      -0.58332322      -0.41783816
O        4.23841654       6.17078503      19.08569859      -0.01586599      -0.15632844       0.06806045
O        4.56150211       6.41676590      14.85202779       0.17734835       3.11743711       1.83956632
O        7.10309526       3.84931785       8.58181424      -0.56755594      -1.58672367      -0.24497304
O        6.28901034       3.35858399      12.29560842      -1.27878034      -1.04506714      -0.02728885
O        1.92120420       8.04052667       8.64610754       1.93523298       0.34035560      -0.35224166
O        1.81773500       8.98077930      12.18756409      -0.85660505      -2.62170333      -0.18125239
O        8.76325559       2.11765349      19.25446621      -0.13380356      -1.12721176      -1.59477432
O        8.76039589       1.38886375      15.28400468      -0.20627675       0.00117970       0.64521006
O        3.04528069       5.25203123      16.71298271       0.00652758      -0.33878202       0.60969336
O        5.42184535       8.15196002      17.48900347      -0.79948273      -0.50662034       0.93113119
O        7.38394391       5.45772934      10.94345301      -1.03525797       0.27644428       0.44583192
O        5.02565725       2.31842786       9.88141342       0.08701039       1.36648274      -1.03256012
O        0.19762363       7.37383323      10.79805771      -1.86104964      -0.35534560      -1.59840217
O        2.41639022       0.59188193       2.79297203      -0.16631630       3.71762287       6.01819788
O        0.76017248       2.94557301       9.90375005      -0.39621289      -0.42217022      -0.54451857
O        8.31684556       9.64633289      24.61098994      -0.63206676       0.01194851       0.68236588
O        0.34524906       8.55126979      15.67656398      -2.26281253      -0.68617291      -0.29009090
O        1.59724429       0.94566408      11.69737047      -1.20272427       0.72200529      -0.49193545
O        1.01450987       2.02689790       5.00146163       1.60295825      -0.61176500      -0.21061297
O        9.14729383       9.27326640      15.48273331      -0.50325439       0.24517764       0.08466513
O        3.64679316       4.12958097      11.56678284      -2.58489728       2.12725511       0.56840344
O        6.07996909       6.63446771      22.65040092      -0.70452190       1.24750248      -1.48676031
O        6.97503376       6.06697619      16.48083276       0.31387902       0.73249436      -2.05840465
O        4.20052691       3.33763651      18.46698059      -0.02817029       1.18579234      -0.05696298
O        8.96890006       3.75923702      11.98142516      -0.94389833       0.72121646       1.25953842
O        6.88014309       1.13159158       8.83919177      -0.65656691       3.29518570       0.20584313
O        1.72313836       6.61749325      15.09806939      -2.48645738       1.82436089      -1.04679579
O        3.45541055       8.67720846      19.10502047      -1.47142464       0.75308681       0.32090544
O        8.30477495       3.96579296      15.88314521      -0.18247390       0.00079626       0.41820590
O        6.20626397       1.66872436      18.63365863      -1.17211318      -0.12046930      -0.74410329
O        2.23960038       6.24453612      12.06080475      -1.35015196       2.14141040      -0.08164071
O        4.55884537       8.91200712      22.23599802      -1.50484366       0.28557334       0.80405871
O        7.62187650       5.11628587      13.78979796      -1.38061093       1.18080699      -0.80198029
O        5.37814706       2.60686791       7.05180732      -0.05424583      -0.06407193       1.53357665
O        3.08222604       4.71825939      14.11210217      -0.55032735      -1.98127036      -0.82316622
O        5.83731014       8.00260162      20.10485501       0.09993632      -0.80946466       0.14466144
O        0.63567510       3.23702217       7.36785235      -0.64976984       0.34895900       0.12788913
O        7.55417101       0.18692725       6.39412222      -1.15374871      -2.28808546       3.20279016
O        9.65190698       7.36107143      20.22904327       0.22807876      -0.53538361      -1.43526259
O        2.38097616       0.46920363      14.21962729      -0.96018230       0.80086617      -0.26356434
80
Lattice="9.77192453 0.01751879 6.90363604 0.24348012 9.76890588 6.90363604 0.01370155 0.0133883 13.86910312" Properties=species:S:1:pos:R:3:forces:R:3 energy=-576.24382935 source_file=vasprun.xml step_index=430 time_fs=34860.0 time_ps=34.86 file_index=17 pbc="T T T"
Na       8.40031994       9.12616800      18.33025673      -0.65009041       0.96027653       0.18731713
Na       6.37720290       4.16658859      17.55795772      -0.51783214      -0.11279167       0.18131750
Na       4.03465727       5.77291437       9.76321758       0.04470264       0.00755644      -0.04710370
Na       1.94116636       8.95289181      16.70897658      -0.33316182       0.04889078      -0.26235049
Na       5.94522854       1.09942067      13.46926487      -0.06100043       0.46451241       0.41713578
Na       9.39567333       3.44710556      20.78090678      -0.52173940       0.12686775       0.30998280
Na       0.92395273       6.87605079       6.54952300       0.51413739      -0.77580830      -0.93638821
Na       3.99801618       8.51856615      13.50342451       0.42437649       0.40982210       0.00793488
Al       7.57139160       5.31024169       9.01906768      -0.39624852       1.17943540      -0.11539267
Al       4.60352847       2.76155178      11.36869363       1.45954943       3.29352284      -2.85752360
Al       2.65630677       4.63023131      18.12767057       3.40640765      -0.35579803      -0.39156143
Al       5.69181674       6.86395285      15.75676315      -0.42460386      -0.55452578       0.47860329
Al       0.45839173       1.90641404      11.15807806       0.51909783       1.86156989      -0.01554069
Al       8.06494172       9.52460623      22.62846086      -2.94927629      -2.59745231       0.33708502
Al       9.75069296       7.75760784      15.89480255       0.56917326       0.26436130       0.39987225
Al       2.29739173       0.37292974       4.24750323       0.85681767       4.05792655      -0.35114694
Si       2.79326306       5.88129783      15.02282140       3.05173325       1.56503714      -1.43159958
Si       4.50312333       7.07791804      18.79035017      -3.82323188      -1.07690958       0.59056443
Si       7.45516616       4.28437195      11.96984823      -0.60074293      -1.25022817      -0.50454106
Si       6.06104962       2.72729252       8.31961835      -2.53025179      -1.61813309      -2.03693173
Si       1.20444847       7.50618452      11.83983947      -4.09964116      -1.90181757      -2.69099919
Si       2.86411401       8.99599608       8.32274168       3.65553697       4.12287579      -0.33064118
Si       9.35296847       2.31376494      15.13717231      -0.71201684      -0.83642838       3.12852982
Si       7.41064292       0.75542761      18.64602079      -4.31626338      -1.49157271       1.25130548
Si       0.33988591       2.69406751       5.25672477      -0.22909481      -0.81999813      -0.19665755
Si       7.41105312       9.49785775      14.66181570      -3.12738055      -0.33767754       0.68520263
Si       0.25616858       7.12471015      14.83909491      -3.81304691       1.30834826       0.66672640
Si       2.95366726       0.19355491      12.18941681       1.33415458       0.71040558       3.75984569
Si       8.25556887       5.08171138      14.95996869      -1.53701288       2.81071598      -0.59697519
Si       4.54552894       2.19807015       5.69619304       0.25106034       3.40245639      -1.99157016
Si       2.08617487       4.58307567      12.08498471       0.35077013       1.06673632      -1.35299394
Si       5.66268013       7.57763523      21.69100331      -0.02257651       2.52585809      -2.42344256
O        9.13686691       5.76740037      22.07405304       0.89991171       0.77776185      -0.41297720
O        4.11457099       1.32581147      12.00084389      -0.39354182      -1.69947258       0.59331791
O        1.32578618       3.91141019       5.02452023      -0.60212534       0.56519117      -0.20972422
O        6.00231985       8.50299796      15.24851174       2.73548713       2.00822494      -1.31544936
O        0.85906323       3.49913482      11.98701234       0.57942291      -0.02321812       0.18826277
O        6.46907011       9.06065701      21.60379325       0.93257825      -1.66763663       0.54139999
O        9.45304729       6.16189197      15.27267603      -0.41816045       0.24352712      -0.90779786
O        3.46202728       1.05967516       5.49374423      -0.84220745      -1.91314334      -0.45567707
O        3.06151119       6.14749785      18.84283941       0.83263549       1.99392895       1.67753724
O        4.29755819       6.62689206      14.71981000      -2.32314792      -1.38089596       0.14333005
O        7.03736638       3.95184062       8.03083793       1.34063907       0.69739066       0.19951642
O        5.93276809       3.50479457      12.21401383       2.86692990       1.10766337       0.80443175
O        1.57794128       8.15390382       8.27195223      -3.38332933      -1.71478405       0.26049891
O        2.30795701       8.58334152      11.66060237       1.66613668      -1.54843863       1.48374148
O        8.67332232       1.69131193      18.71502554       0.33587957       0.64533452       0.64719639
O        8.20646633       1.13470627      14.95999691       0.49924499       3.77853119      -1.47784482
O        2.55802700       5.14208529      16.35348882      -0.22322480      -2.27379513       2.33440031
O        5.10999420       6.63023976      17.44201265       2.56653878      -0.32283255      -2.69024344
O        7.56162603       5.42350803      10.77141716      -0.14716855      -1.73237854       0.93031363
O        5.42511586       2.65150144       9.75152725      -1.21892558       0.16911130       1.74149705
O        9.75368012       7.82944407      17.59623246       1.63498177      -0.33155336       1.67573556
O        2.81742062       0.47272387       2.53342398      -0.80609211      -2.10580755       0.44562120
O        0.61964495       1.75025556       9.45619160      -1.23387701       1.04286251      -1.94770400
O        7.54884051       9.54484375      24.25360359      -0.23235161       1.40024891       1.62135854
O        9.33609185       8.41027904      22.63981752       2.25949087      -2.63122405      -1.59740111
O        1.57027903       0.69330995      11.57329832       0.71119165      -1.70496081       0.37339252
O        0.84559663       1.28336291       4.67545657      -0.31061446      -0.50207134      -1.20929953
O        8.61339496       9.05004745      15.65356768      -0.14104791       0.00673081      -1.26490162
O        3.42041114       4.11528146      11.24960084      -0.61949016      -0.44004713       0.50358920
O        6.21470638       6.50440348      22.70503077       0.55758390      -0.83913125      -0.16615815
O        6.79264240       5.46084955      15.60992371       0.29653865       1.07879355      -0.08582137
O        4.23877597       3.65553136      18.74323405      -1.51103097      -0.29046688      -1.50360712
O        8.58410934       3.06939020      11.67733929      -0.69514256      -0.18052815      -0.39905521
O        6.91904891       1.33724386       8.06459378       0.13107281      -0.48485812      -0.24807321
O        1.82432763       7.26434459      15.15149914       1.20606309      -0.73451985       0.24321612
O        3.78103908       8.57292421      18.47911040      -0.24322765       0.52502036       0.16611132
O        8.59049027       3.77670875      15.74972550       1.91355119      -4.77527169       0.16056625
O        6.01694702       1.81878994      18.89741317       2.64342489      -1.55510090      -0.72384759
O        1.62855115       6.04240767      11.21143273       1.45422660      -1.91063121       2.07885597
O        4.11286713       7.90584370      22.15289589      -0.00098260      -0.78258787       0.56855102
O        8.12615603       4.90965796      13.34107005      -0.33812915       0.42861777       0.12310852
O        4.68852024       2.82751629       7.17825323       2.35536767      -0.91041858       2.75993574
O        2.48827295       5.00932131      13.64888148      -1.07988756      -0.15668140      -0.47034227
O        5.58516895       7.00873183      20.00400103      -0.20640266       0.85738988       1.96174351
O        0.30286252       2.35541777       6.84953375       0.61138057       1.02751915       0.06368599
O        7.46007414       9.39058355      12.99070303       0.86917034       0.44003925       0.54436112
O        0.30204722       7.43545028      13.19860282      -0.22017126      -0.06090913       0.47042968
O        2.87917285       0.13964683      13.90638881      -0.47525526      -0.55351435      -2.06747437
80
Lattice="9.77192453 0.01751879 6.90363604 0.24348012 9.76890588 6.90363604 0.01370155 0.0133883 13.86910312" Properties=species:S:1:pos:R:3:forces:R:3 energy=-575.08905015 source_file=vasprun.xml step_index=310 time_fs=76620.0 time_ps=76.62 file_index=38 pbc="T T T"
Na       8.46687968       3.81877374      20.94092809       0.19840914       0.01533572       0.19303755
Na       8.24956199       1.19377284      10.67650009       0.31919988      -0.08541310      -0.09072479
Na       5.77389127       4.51382250      18.06710472       0.63776509       0.60287794      -0.32526792
Na       2.42064782       9.10149875      16.00736017      -0.32606472       0.39740345       0.22094984
Na       2.30031140       2.36366890      15.64228776      -0.25902891      -0.16671433      -0.03389287
Na       5.67264492       1.64544216      13.75469999       0.50729764      -0.76901471       1.04733168
Na       6.53567349       7.66471466      11.79766920       0.13367615       0.08821388      -0.08206435
Na       1.80544313       5.60442621       7.73678839      -0.22246957      -0.04918841      -0.61908976
Al       7.01300092       5.44536889       9.47936146      -0.62278113       0.94913950      -1.54540255
Al       4.51953818       2.79668436      11.45498472      -0.44339550       0.17688104      -0.79530675
Al       2.54808809       4.50080869      18.43660920       0.92165221      -1.78963758       5.44870129
Al       5.08313702       7.21579302      16.07019258      -0.10613476       2.15437363       0.59227510
Al       0.43804325       2.02667573      11.78824180      -1.10780665      -0.84358439       0.77006267
Al       7.88640466       9.75615662      23.00777619      -0.17821878      -1.57376620       0.89420140
Al       9.44940499       7.64044962      15.94121052      -0.78818649       1.12318017       1.37491053
Al       1.87587342       0.26520592       4.71986389       0.01209443      -0.56631045      -1.49739694
Si       2.36103268       5.68265221      15.42714573      -0.56016921       2.03198626       3.43909649
Si       4.05521687       7.14075801      19.19945025       0.95693945       0.25668353      -0.06212393
Si       7.26253731       4.15810459      12.18667235       2.99071249      -0.79254093       0.66811882
Si       5.57712986       2.48689999       8.62001458       2.02985411       0.23935060      -2.10433290
Si       0.72099325       7.24349324      12.08913104      -1.08516900       4.16521633      -0.29553949
Si       2.24917779       9.00382147       8.56520465       1.04517156       2.81125268       0.21968101
Si       8.82408682       2.58479368      15.87522931       1.34686129       2.98696886      -2.03187341
Si       7.25096941       1.06742825      19.23545923      -0.04260752      -1.38325532      -2.57315855
Si       0.17034405       2.80408780       5.98243308       1.61053345      -1.87932648      -3.24374065
Si       6.98535309       9.55536485      15.00603149      -3.85518228      -0.04846253      -0.21493924
Si       9.36461213       7.33122811      21.95515051      -0.70313973      -2.24657389      -2.05121548
Si       2.72433165       0.41839669      12.59025100      -1.49235021      -1.90154302       2.88698112
Si       7.70221036       5.41675494      15.16948555       1.43789046       0.95717650      -1.66863279
Si       4.43885613       2.02614373       5.42957851       1.61014275       2.21533152       2.35558285
Si       2.18935380       4.41745817      12.75454152      -1.72498434       1.30949675       1.77238262
Si       5.30625884       7.80253096      22.18768442      -2.17005413       2.11073901      -2.70014601
O        8.26075892       6.12961621      22.28884485      -0.28018303       0.22384201       0.12303242
O        3.76274863       1.60522803      12.48086843       1.83515282       0.29049934       0.58538831
O        1.42041470       3.81281316       5.87299375       0.61347119       0.75564125      -0.49729086
O        5.50782738       8.95512176      15.57214075       0.76789151      -1.01421690      -0.54845488
O        1.07456648       3.26066818      12.94612171      -0.55744582      -0.75769350      -0.88047668
O        6.51746603       8.95211350      22.09796967      -0.63592238       0.06966726       0.34719976
O        9.10673430       6.27543687      15.03480724      -1.56265289      -2.39269905      -1.13823484
O        3.50131190       0.80204434       5.14048284       0.33853020      -0.48384696       0.09682488
O        2.91311810       5.98498606      19.25117370       0.55632665       1.24759341       0.83335385
O        3.29449441       7.14290293      15.52625376       1.55924890      -3.02626842      -0.08925845
O        6.64466878       3.79705372       8.99045165      -1.52978753      -0.87840166      -1.47698938
O        6.23326028       2.90607970      12.06529364      -1.60270089       0.46012938      -0.40587852
O        1.26095309       7.75127991       8.35107580       1.21049945       1.03878650      -0.13033900
O        2.12656127       8.31009731      11.87124800      -2.89512785      -2.21955088       1.48160707
O        8.67617458       1.60478100      19.64430106       1.68360136       2.44548385       0.87126352
O        7.64656777       1.62805332      15.55552115      -2.60693645      -1.97036564      -0.07864947
O        2.11584016       4.88574298      16.96136471      -0.29251412       0.93825961      -6.90146399
O        4.97612136       6.86996641      17.82006587      -0.69687993       0.01317893       1.28981249
O        7.36822287       5.36389029      11.15972598      -0.91839622       1.10925816      -0.17773735
O        4.52575618       2.28247372       9.76116202      -1.08176125       0.42363496       2.09145698
O        9.46368996       7.47097291      17.68553811       1.44651507      -0.56448598       1.17589065
O        1.65179153       0.30527705       2.90575162       0.00757725      -0.36702367      -0.79530571
O        0.14409373       2.36558945      10.09427950      -0.02299331       0.20603372       0.79346204
O        7.70935323       0.20362274      17.89169550      -1.86836392      -0.59569274      -0.64203593
O        9.34342424       8.69431960      22.76173761      -0.69511031       1.27558091       0.59489205
O        1.50481451       0.65154553      11.62452961      -0.99826967       0.41312683      -1.06693716
O        0.61083018       1.34549958       5.18008305      -0.87039737       1.25584701       1.15242009
O        8.18789359       8.84137468      15.64938513       2.58088962      -0.81354404       0.54462524
O        3.44116231       4.13381632      11.87694954       1.49620291       0.14780409      -1.65037045
O        5.67833532       6.67318191       9.33449114       0.77767809      -1.93994933       1.78134268
O        6.59781674       6.37175897      15.83154854      -0.82975100      -1.29579750      -0.47756385
O        4.01766757       3.36527151      18.47956638      -2.27057823       1.15481951      -0.23091736
O        8.74212285       3.31721149      11.82754824      -1.26351915       0.41928378       1.56125823
O        6.83457612       1.33137042       8.66012534      -0.75353492       1.09068713      -0.19118299
O        0.93519235       6.44533886      15.28005003       1.35339304      -0.84878508      -0.10590485
O        3.58629892       8.72605268      19.19455199       0.10051093      -0.53345067      -0.55230643
O        8.14973297       4.10968095      15.98142926      -0.28638270      -1.32030674       1.29996787
O        6.10057942       2.31458367      18.84061069       1.11465476      -2.96100375       0.83488087
O        1.21925321       5.76598375      12.41378785       1.96415613      -2.42006556       0.18232485
O        3.79576410       8.55431999       8.80040174       2.38395963      -1.24635359      -0.57834325
O        7.20669471       4.89493922      13.64827344      -0.24921133      -0.25983401       0.45201951
O        4.70323215       2.25182544       7.15903145       0.50969640       0.48972182      -0.04242268
O        2.84535494       4.48335255      14.38916079      -0.91425982       1.22158132      -0.54750789
O        4.86620998       7.05808452      20.65445433       0.94949196       0.53028412       1.17291067
O        9.55196287       2.46931876      14.36776019       0.09658560       0.59303919       1.57188954
O        6.92432296       9.62776478      13.30186106      -0.14016041       0.39781888       0.62154119
O        9.36293835       7.61848821      20.31984424       1.48938414      -0.06550649      -1.33640502
O        2.05554455       0.40242028      14.22687486       0.96462955      -0.73291428      -0.80431100
80
Lattice="9.77192453 0.01751879 6.90363604 0.24348012 9.76890588 6.90363604 0.01370155 0.0133883 13.86910312" Properties=species:S:1:pos:R:3:forces:R:3 energy=-576.08975919 source_file=vasprun.xml step_index=435 time_fs=44870.0 time_ps=44.87 file_index=22 pbc="T T T"
Na       9.10916400       1.20766570      10.23803536      -0.30015587       0.15783212      -0.22506812
Na       5.88481434       3.92617167      16.97731805      -0.21926953       0.32857472      -0.02896318
Na       3.95846975       6.48325939      11.09571728       0.98868150      -0.17049009      -0.86607225
Na       0.70312207       8.25641013      18.26571229       0.06147545       0.62964554      -0.47862865
Na       8.74365098       4.57388606      19.97762392      -0.03623467      -0.04542411       0.37585949
Na       6.30682283       1.19393457      13.91771617      -0.19375276       0.06870120      -0.42328311
Na       1.65691634       6.01815872       6.89098122      -0.05601269       0.80227949       0.94455334
Na       3.76551759       8.62971963      13.56256535       0.02624422       0.12823684       0.63957786
Al       7.03874635       5.43836994       9.03196287       0.92431121       0.05719462      -3.45594232
Al       4.78598797       2.91529659      11.52079513       0.96105159       0.39512370      -0.35377277
Al       3.28524241       4.61376723      18.82029762       0.39097313       1.56190311      -0.83407724
Al       5.46045330       7.16262382      16.02663230       1.88734240      -0.29124664       1.98598454
Al       0.59116165       2.25114402      11.69372698       1.71114983      -0.48533744      -2.12648756
Al       8.08480695       9.60495798      23.25676893       1.25581796      -1.07135599      -0.82762009
Al       9.89096685       7.72113218      16.01957915      -1.79883274       0.28537399       1.19774492
Al       2.15551734       0.52541572       4.30300294      -0.81625740      -0.68385362       1.54969683
Si       2.79975558       6.00795677      15.80087241      -0.45982747      -2.55832966      -2.49944855
Si       4.79743053       7.34602588      19.23405522      -2.18910816       2.23587762      -0.62115811
Si       7.65302004       4.29306471      11.86681095      -2.22227214       1.73797856       1.49628633
Si       5.98076950       2.47458612       8.42500374      -3.19960778      -2.17049242       2.65296467
Si       1.05814270       7.46822627      12.05915334      -2.44479604      -3.94706665       3.60725432
Si       2.53226985       9.53659746      22.15196290      -0.48054790      -1.81193556      -0.58671477
Si       8.96011259       2.58152451      15.51423497       2.23522849       2.85069820       1.95295391
Si       7.76486607       0.72713930      19.25813860      -2.42821622      -0.21256827       1.91664238
Si       0.48436639       3.11654037       5.64690224       1.17473606      -1.32828489       1.32725879
Si       7.39492901       9.41070925      15.18275840      -0.49581862       1.39090039       0.43654063
Si       9.76779918       7.10716588      21.99785966      -2.27490897      -0.84959794       1.03736100
Si       3.11328915       0.48385444      12.54346023      -1.16812583       0.17388528      -3.39685829
Si       7.93558859       5.34104010      14.95030078      -2.39037938      -1.04998581      -0.96033370
Si       4.78027249       1.76566626       5.57300985      -0.03290551       4.13464729       1.91885918
Si       2.46325294       4.81607441      12.90824462       1.21186695      -4.71055125       1.12534477
Si       5.53415994       8.11745026      22.05467171      -1.07234636       4.72113664      -2.07978669
O        8.44748483       6.08474868      21.80104074       0.33352034      -0.28697395       0.62943279
O        4.45234631       1.45926757      12.43180829      -1.41293122      -1.33828199       0.31725327
O        1.65023269       4.30316375       5.69357660       0.22158501      -0.98042432      -1.31339439
O        5.96387984       8.69516298      15.44334753       0.78410111       0.64749821      -0.72088796
O        1.29577191       3.76274543      12.32144616      -0.18148558       0.71589455       1.23343864
O        6.51038020       9.32075757      22.57684253      -0.20867612      -0.30233077      -0.03710005
O        9.12789499       6.36130699      15.21000805       1.34050328       0.02750074       0.49289139
O        3.73251847       0.59172803       5.09845206       0.54658434       0.92133469       0.20651076
O        4.00101244       6.03301059      19.73303289      -1.14887915      -0.63732631       0.68244079
O        3.92108145       7.07826574      15.35346136      -2.38266417       0.40201849      -0.91698678
O        6.70422827       3.83230355       8.20724897       1.59132323       3.35520804      -0.09937207
O        6.44923722       3.19003510      12.21008385       1.27575806       1.20238322      -0.56920115
O        1.54574407       8.14826781       8.10341999      -0.78529269       0.24956398       0.46872806
O        1.94269030       8.59465619      11.65712763       4.57027472       5.63032379      -0.84634105
O        8.95009864       1.72125121      19.45623326       0.83736646       2.24607470       0.76829347
O        8.15620017       1.26296796      15.26399001      -0.72101770      -2.10584121       0.62735070
O        3.16250796       5.26250212      17.11724556       0.72436252      -1.50232177       2.89580612
O        5.43028784       6.98181332      17.82479635       0.81137541       0.43861232      -1.03846776
O        7.39601878       5.39581382      10.65033864       0.09079487      -1.34765952       2.79650416
O        4.99163180       2.49481289       9.78825122       0.54137456       0.90784883       0.43100395
O        9.77840334       7.27720080      17.82534046      -0.54603210      -0.90359149      -1.88021921
O        1.68361421       0.53906541       2.64887011       0.08780084       0.92988131       0.17961327
O        0.12817209       2.70140892       9.97129214      -0.77800143      -0.83753696      -0.10489089
O        8.32630495       9.51604486      25.00719557       0.33726360      -1.29547586      -2.93879932
O        9.36455825       8.34043064      22.95892905      -0.37334496       0.70859371       0.01119011
O        1.75818253       0.84122504      11.56759471       0.58164535       0.89824316       0.54951011
O        1.07436342       1.59535755       5.19205123      -0.74992165       1.78642081      -0.40050562
O        8.56578424       8.96840134      16.20459222       1.39545901      -0.87692231      -0.81534687
O        3.92335382       4.36549472      12.24845055      -0.18322989      -0.34972735      -1.05030069
O        5.88087049       6.79023267       8.89220562      -0.71608927      -2.86950739       1.15138592
O        6.44223915       5.82664988      15.45699616       0.61614080       0.31641318      -0.25573309
O        4.57885810       3.45920720      18.84643359      -0.34087388      -3.45902602      -0.05441515
O        9.00924258       3.51244216      11.46239875       2.34602364      -1.51575834       0.90217866
O        7.10742804       1.25861300       8.66497226      -0.77040225       1.17838305      -0.10718245
O        1.22268493       6.29683808      15.84967252      -1.20372121       1.74555090       0.39424712
O        3.53406206       8.64347920      19.04891629       1.17117756      -0.99510515       0.44624800
O        7.75931329       3.79188411      15.75124947       1.84505651       0.75222868      -1.64645362
O        6.27220413       1.42809723      18.90943888       1.00646981       0.01085920      -0.11843505
O        2.22149624       6.23698830      12.26800452      -1.40282957       2.41402130      -0.53999994
O        3.98413769       8.88622369      22.39990237       2.63349112      -1.84495414       0.26988962
O        8.07777335       5.23674395      13.25376232      -0.76494889      -1.33609386      -0.18052236
O        4.78543954       2.17839050       7.28965953       0.55998453      -1.76064805      -2.81235003
O        2.69855674       4.82189000      14.56571325      -0.02968745       0.50994951      -1.28332485
O        5.72485985       8.18275340      20.32371747      -0.08826508      -1.20298160       1.93573679
O        0.14482457       2.97222204       7.30830950      -0.71357840       0.15790624      -1.43198500
O        7.72604573       9.52353377      13.58906007       0.21334338      -0.80106664       0.02361469
O        0.42462474       7.57778862      13.63012117       0.88266382       0.32410628      -2.54646914
O        2.41336980       0.75235068      13.96965737      -0.39655182      -0.17209624       1.93293398
80
Lattice="9.77192453 0.01751879 6.90363604 0.24348012 9.76890588 6.90363604 0.01370155 0.0133883 13.86910312" Properties=species:S:1:pos:R:3:forces:R:3 energy=-575.26228899 source_file=vasprun.xml step_index=755 time_fs=73510.0 time_ps=73.51 file_index=36 pbc="T T T"
Na       8.96058950       3.75224369      21.23515127      -0.07781316      -0.23927549      -0.11435833
Na       8.53325773       0.84051509      10.04891109       0.16454492       0.36666052       0.48348098
Na       7.23675538       5.58656257      18.31773390      -0.02669449       0.45019320       0.01029916
Na       6.75769475       7.65853698      11.20721274       0.28174171      -0.02465578       0.44677285
Na       3.67720122       2.44480200      16.02469496      -0.10243368      -0.16893664       0.02030918
Na       6.07803836       1.26483581      13.59212216       0.50376739      -0.17854532       0.12777071
Na       2.80984547       0.86409139       8.62352161       0.06750113       0.03989670       0.05108004
Na       2.20462165       5.91975399       7.72102778      -0.26459651      -0.03272244      -0.41433406
Al       7.09512808       5.48422901       9.15277148       1.07613141      -2.64603674       0.22686794
Al       4.38714792       2.62347663      11.64762525      -1.01791933       1.18676053       0.07122993
Al       2.99991560       4.56754345      18.24966043      -0.52823507       1.30668899       3.42522740
Al       5.41335672       7.03810723      15.98361324      -2.07549919       0.54207211      -4.08982769
Al       0.07134141       2.29490237      11.53911898       0.22232101      -0.78333394       0.78112031
Al       8.07258486       9.59927880      22.89176252       0.56942250       0.69522379       0.24274105
Al       9.49168168       7.46899865      16.21565929      -0.84917548      -1.50738756      -0.36155134
Al       1.82126612       0.46079233       4.61475081      -1.48921760      -0.24753148       0.86660255
Si       2.68701604       5.46717615      15.35891908       3.16239538      -0.97086908       0.40049294
Si       4.27060037       7.47383842      18.93712585       1.77015768      -0.42757247      -0.49172705
Si       7.06731633       4.41762720      12.27790041       0.40967247      -0.32058723       0.55831509
Si       5.60669203       2.43736948       8.62735756       1.83099603       0.47335103       0.95473920
Si       0.61036487       7.22039362      12.17085472      -2.61024952       1.23620976      -0.02075974
Si       2.58703257       8.95562111       8.67777420      -1.94062065      -3.09368450      -2.22673665
Si       9.13668235       2.41875803      15.12589513       0.47946904       1.20090535       0.78321620
Si       7.27837574       0.84516384      19.17331124       1.14717241       1.22178887       0.27458824
Si       0.29229374       3.12587743       5.38896415      -0.85289405       2.76745429       1.85373994
Si       7.18365088       9.27844772      14.86655764      -0.53804582       2.47421636       0.01463492
Si       9.77023395       6.88034988      22.10272940      -0.01793047      -0.60173322       7.07377329
Si       2.54174859       0.28913846      12.59453378       0.54278341       0.77390591      -1.45795977
Si       7.76428217       5.26324030      15.04234089       2.21213409       2.63274823       0.35590398
Si       4.25152038       1.93684155       5.90471691       1.75786572       0.75088071      -2.79520085
Si       1.98137387       4.44517977      12.52962743      -2.60710502      -0.75090766       0.69642996
Si       5.56921377       8.12202344      21.79030132      -2.87779600      -2.43241630      -1.17845659
O        8.85265832       5.65150294      22.61986840      -2.05554096      -1.21631577      -0.54871541
O        3.88184041       1.39420431      12.83357308      -1.16765185      -1.23391227      -0.61812808
O        1.31940075       4.30097580       5.01628820       1.09532791       0.43187910      -0.67534954
O        5.80122473       8.56312784      15.01563271      -1.58835632      -1.68255351       0.98412696
O        0.41096371       3.78285886      12.44510198       2.00512116      -0.86036845      -0.69507095
O        6.41501983       9.38857339      22.22323780       0.26163162       0.96785453       0.31493698
O        9.36212223       6.12614191      14.93898474      -3.26264909      -0.90414064       1.85642723
O        3.04693078       0.84454495       5.87990763      -0.51200783      -0.09040116      -1.05273241
O        3.66052726       6.06465759      19.43115528      -1.38544301      -1.02612404      -1.08075955
O        4.01482730       6.29004476      14.98623346       0.72987215       1.35658489      -0.23207505
O        6.42051298       3.86405154       8.30994746       0.21392535       0.11362827       1.47846944
O        5.86212341       3.24775190      12.30941027       1.57867452       1.24858582       0.63234568
O        1.39865443       7.73979058       8.98558103       2.08666335       2.44950584      -0.03775708
O        1.12234699       8.75838131      12.07367667       1.47413327       0.62002707      -0.48135760
O        8.45357523       1.97812323      19.55946828      -1.50298842      -0.65225692      -0.54725917
O        8.36029272       0.99987553      14.69180795       0.57064681       1.38982263       1.39163237
O        3.36292888       4.56484215      16.59841568      -0.95701250      -0.58031057      -0.69770542
O        5.19548667       7.23771001      17.59058459      -1.29948255       0.83856515       3.56995323
O        7.29635163       5.29770833      10.94043240      -2.19213303       1.44482066      -0.89496779
O        4.65463863       2.29477982       9.97822236       1.00013298      -0.61926472      -1.40218829
O        9.07568924       7.15553886      18.01799545       1.20502232      -0.11264930      -0.89923835
O        2.37698636       0.32662701       2.87292501       0.02643958       1.36655442       1.59356868
O        9.66599973       2.54915403      16.71999946       0.10200161      -1.00359409      -1.93686944
O        7.74263615       0.27757881      17.75046448      -0.27879959      -1.34425217      -2.36685638
O        9.09445441       8.22231124      22.77347302       0.82149356      -0.47443306      -0.06492930
O        1.32930234       0.99168898      11.73563295       0.76481240       0.18196160       0.66732389
O        0.51960850       1.83093288       4.55527477       1.41395300      -3.92555473      -1.77010084
O        8.36731854       8.74651805      15.75723085       1.48092189      -0.23655462       1.10976904
O        3.14804361       3.89713079      11.55181346      -0.52544841       0.07354917       1.23615022
O        6.13512935       6.78564483      22.52060062      -0.11778158       0.83475641      -0.02861050
O        6.70838581       5.96853368      16.15608976       3.53069094      -2.59946252      -1.10826726
O        4.04694895       3.32394693      18.87650990       0.00303742      -1.86530159       0.88467107
O        8.47333659       3.56318803      12.09524372       0.16903217      -0.64634430       0.90612219
O        6.78318085       1.18308266       8.51478103      -0.70374228       0.07831231       0.03046013
O        1.47258104       6.25098629      15.95717099      -2.98887544       3.00437548      -0.51014929
O        3.28908490       8.72540581      18.58040301      -0.63867568       1.31597106       0.69776523
O        8.07477994       3.69020728      15.16124064      -1.03820039      -0.56574954       0.13113679
O        5.69680947       1.32677705       5.09145857      -1.14978836       0.32267809       1.69704025
O        1.44062451       5.88782593      12.03315235       2.75975723       0.81084271      -0.94469581
O        3.92247398       8.07404072       8.45510221       2.12957469       0.09095903       0.64043260
O        6.94382500       5.50360878      13.66636798      -0.14036953      -1.70845931      -3.49320443
O        4.48458954       2.20297608       7.48769139      -0.54235712      -0.24295835      -0.57724616
O        2.10094758       4.37863530      14.25694859       0.99743648       0.09932337      -1.74022749
O        5.37208324       7.96906528      20.11811409       0.51234246       0.47542548       1.30293440
O        0.48259350       2.91401984       7.03777475      -0.56514543      -1.39843009       1.51592978
O        7.62722719       9.36537807      13.31094162      -0.25860515       0.17769847      -1.11509654
O        9.77123692       6.93485787      20.60759734       0.41633799       1.00749256      -5.37763445
O        2.41495835       9.47335532      20.95219523      -0.81632465       0.63135415       1.68781343
80
Lattice="9.77192453 0.01751879 6.90363604 0.24348012 9.76890588 6.90363604 0.01370155 0.0133883 13.86910312" Properties=species:S:1:pos:R:3:forces:R:3 energy=-573.70711897 source_file=vasprun.xml step_index=575 time_fs=51150.0 time_ps=51.15 file_index=25 pbc="T T T"
Na       2.75902397       2.14884252      15.91603707       0.04199889       0.56562864       0.08405684
Na       6.96319475       4.35111754      17.64985815      -0.27594411      -0.05784794       0.12208066
Na       2.06071272       5.78654547       7.42558870      -0.33016659       0.17064650       0.01416392
Na       3.65626240       9.35664441      14.83286716      -0.24825790       0.19748732      -0.39726166
Na       9.17023346       2.81637874      21.05069754      -0.37302294       0.45380377       0.75011299
Na       6.35209952       0.62984518      12.97469955       0.42621278      -0.03015586      -0.00221127
Na       9.75791776       8.65590141      25.28395788       0.15501381      -0.20785058      -0.32301732
Na       5.69278272       6.69724336      12.00914459      -0.14627649      -0.11738466       0.15704860
Al       7.09640412       5.29167763       8.90208066       0.42909458      -1.92907499      -1.28527863
Al       4.68838266       2.56707187      11.70842353       0.09917523       1.12451537      -0.39172140
Al       3.03452094       4.64661296      18.34565208       2.20583365      -1.91061977       0.64075012
Al       5.50435430       7.18343000      15.43051982       0.87792796       0.99775905       1.12269083
Al       0.44128978       2.39561255      11.27862392      -0.36031980      -1.48781720       0.27554940
Al       7.96992891       9.50302548      22.69461360       1.08314093       0.03831121      -0.58071937
Al       9.51905555       7.40757012      16.06584411       1.84463614      -0.96433077       1.49541130
Al       2.02784026       0.24740916       4.75951740       1.69801299      -0.00921752      -0.65369987
Si       2.83393470       5.58291172      15.32014869      -2.01665308       0.02123400       2.13011601
Si       4.56108282       7.64387482      18.52705276      -3.70314359      -2.29839544      -0.38733735
Si       7.40746728       4.16456596      11.75324730      -0.34817185       0.78355875       2.71961429
Si       5.67110256       2.25151667       8.69659799       2.28268233       1.20150428       0.75611397
Si       1.02495980       7.25594801      12.32140850      -0.83886639      -2.32974370       0.00856142
Si       2.51915782       9.04945134       8.57140204       0.76738819      -2.68442211      -1.50250482
Si       9.28837846       2.36191454      15.03345075      -1.99555061      -1.65658294       2.20281442
Si       7.43194325       0.80247740      19.02883957      -1.00203828       1.18846834       0.97535424
Si       0.56607630       2.96321836       5.45411131       0.88577941      -1.08259611      -4.98634207
Si       7.24887911       9.19177224      14.71721351       0.11031797       3.26901859       2.15516667
Si       9.75103155       6.84608453      22.05873153      -1.42690851       2.79647697      -1.65333833
Si       2.46127730       0.24334371      12.63177634       1.73719605       4.13247027       0.59320630
Si       7.88589932       5.10548374      14.79314110       1.29699580       5.16272322      -2.35047843
Si       4.48554334       1.92058494       5.98859095      -0.83084636       0.61687655      -1.12234270
Si       2.57744813       4.57845303      12.69502140      -2.89455696       0.49662617      -0.75991338
Si       5.51804359       7.84709211      21.47486183      -3.11697186      -2.80975501       0.19705815
O        8.84834963       5.57179691      22.28277997      -2.83629710      -1.29359766       1.18959861
O        3.99423951       1.18004081      12.56131639      -1.69441101      -0.10341494      -0.49895079
O        1.56288572       4.24352838       5.22466581      -1.12365080      -0.43635935       0.69694379
O        5.86363817       8.50570691      14.24776231      -0.98273424      -1.23457792       1.20784433
O        1.26737783       3.82046226      11.92188921       0.19038859      -1.14700433       0.42798981
O        6.48074957       9.06895719      21.70874233       2.03762301       1.37740633       1.86238557
O        9.37772464       6.06695065      14.86502197      -1.63123471      -1.88816060       0.88646283
O        3.39497450       0.70771819       5.86235284      -0.03315989       0.09328632      -0.67764626
O        3.78220703       6.13893054      18.51742317       1.75820379       3.05893696       1.75609449
O        4.08154825       6.52912838      14.89775291      -2.57537571      -1.30494107      -1.01617795
O        6.65743023       3.55240553       8.51476812       0.65295775       1.07712874       0.02485094
O        6.39098852       2.92211806      12.22405084      -0.01007595       0.37727034      -1.01786574
O        1.17087702       8.20251124       8.60452904       0.80084917      -0.43839570      -0.81540654
O        1.85594000       8.55149421      12.38909986       0.63860966       2.60261293       1.07471260
O        8.53741610       2.02744441      19.12867651       1.04475659       0.56022558      -1.58990471
O        8.49824840       0.95350596      14.64263966      -0.83069952       1.17314195       0.64726219
O        2.99988417       4.69762136      16.67311406       0.22886995      -0.80668932      -2.07378404
O        5.18412567       7.80909603      17.04213456      -0.39925242       1.24197494       0.91055531
O        7.04170165       5.35246343      10.62297136       0.35699093      -1.63432152       2.28731095
O        4.70666533       2.40121952       9.97389685       0.21782958      -0.80383680       1.15655831
O        0.33517503       7.03905041      10.93919969      -2.48009973      -0.17402793      -3.81867204
O        2.79740890       9.77311444       9.91890310       0.65621744       1.73006980       2.17062574
O        0.22899135       2.05079041       9.55102475       0.27232089       1.03197981       0.83565632
O        7.65697679       9.78972617      24.47617022       0.12508810       0.36387156       0.31293816
O        9.38154955       8.38444536      22.79255522      -0.86338803      -2.29011704      -0.48850698
O        1.07956448       0.77196609      11.87138106       1.84165201       0.01541369       0.32405072
O        0.89383823       1.48859833       4.48973242      -1.00813398       4.04139328       2.22724830
O        8.26681187       8.46435471      15.68165768      -1.43193135       0.49545776       0.54728510
O        4.00495149       4.16784713      12.12388058      -0.03701884      -0.28858541       0.08463703
O        5.85407132       6.36211349      22.21641390       0.01534128       2.52768013      -1.59151264
O        6.78897778       6.10823350      15.61514652       2.04757435      -3.64992000       0.02757938
O        4.15983672       3.21080565      18.91357715      -0.79951925       1.20499973      -0.52112045
O        8.86675157       3.44582981      11.87983368      -0.66336002       0.33231653      -1.10709303
O        6.77387198       1.01291685       8.50508795      -0.77980816      -1.69536923      -0.10451926
O        1.43390047       6.52957822      15.63243709       4.32346286      -0.76787528       0.45035720
O        3.21081818       8.59627261      19.15153199       1.05686503      -2.99178705      -2.34058081
O        8.13788695       3.63846508      15.40252912       0.19440503      -1.20582136      -0.02940046
O        6.03647790       1.61095536       5.61864484       1.51770492      -1.58471885      -1.36586678
O        2.25177502       6.18797930      12.49170579       1.70591629      -2.18378320       0.48689607
O        3.88626299       8.07643551      22.07816727       1.24210180       0.00030377      -0.95120147
O        7.43693619       5.27875331      13.14851773      -0.14953531      -1.46991272       0.37850049
O        4.54847980       2.20070574       7.58128902      -1.63535926      -0.17571429      -1.27821199
O        2.39269023       4.28888485      14.37764164       0.54073321       0.22045716      -2.23142223
O        5.59303452       7.84920329      19.72133867       0.99916729      -0.19028769       2.37437031
O        0.54322111       2.82944714       7.01274675       0.35640389      -0.48103016       2.21305592
O        7.97831457       9.49066888      13.34763481       1.65874527       0.96841097      -4.25787008
O        9.71320646       6.88742476      20.38408041      -0.14057725       1.16150330       0.94411457
O        2.19675456       0.32389944      14.25545892      -0.43594876       0.93538263       0.26489346
80
Lattice="9.77192453 0.01751879 6.90363604 0.24348012 9.76890588 6.90363604 0.01370155 0.0133883 13.86910312" Properties=species:S:1:pos:R:3:forces:R:3 energy=-574.68869319 source_file=vasprun.xml step_index=865 time_fs=5730.0 time_ps=5.73 file_index=2 pbc="T T T"
Na       8.28500008       6.56844954      18.42912804      -0.75894339      -0.16640971       0.21862410
Na       6.56475754       0.35431348      13.13111272       0.83415214       0.63635215      -0.03965012
Na       2.76209472       2.24106039       8.68844467       0.58569803      -0.13121068      -0.15528602
Na       8.82777549       8.07650527      25.20301619       0.25589220      -1.34124586       0.26417710
Na       0.15641256       3.96096628      14.23561301      -0.69425149      -0.78095364       0.53132765
Na       3.62450745       3.04537714      15.90721671       0.19748704      -0.48727013       0.31244455
Na       2.49591980       6.10469522       7.59443844      -0.07144434      -0.00720619      -0.13998986
Na       3.75032636       7.83324427      13.43214023       0.74948751       0.46249273      -0.07304689
Al       7.49985968       5.42497167      22.66189015       1.86882147      -0.10003487      -1.58677274
Al       4.90496036       2.83237293      11.47622785       2.39329132       1.14860613      -0.29762427
Al       3.29854242       4.82152433      18.68452287       2.39045757      -1.20394346      -1.59975215
Al       5.85261339       7.06536167      15.96954879      -1.90679537       0.80332630       0.09060940
Al       0.93192800       2.24817880      11.42631007       0.31855009       0.35746118       0.13580833
Al       7.94200884       0.07367555      16.13097711      -0.84184001      -2.58002607      -3.30973175
Al       9.87018980       7.48629360      15.60857079      -0.76996885       2.46681460       1.17045617
Al       2.71049135       0.56216440       4.26551882       1.97184637       0.24735545       0.91175431
Si       2.84493061       5.85092441      15.61606816       0.72127923      -0.68492007      -0.91302810
Si       4.78682654       7.37763024      19.16462865       4.02435568       0.49448626      -1.82310528
Si       7.89077336       4.37872295      11.74965592      -1.85007449       0.70191691       0.52056734
Si       6.14758760       2.65135638       8.34150027      -0.50095552      -0.64265578       1.42817692
Si       1.26737695       7.69523775      11.85053737       1.12867137      -3.27095357       1.79850100
Si       2.75191450       9.42178595      21.97074257       1.68928838      -0.62411514       0.27514928
Si       9.54606240       2.53562751      15.20303787       0.63303588      -0.94407415      -0.69653032
Si       7.71504633       1.17307734      18.98645834       0.15312309       2.89381324       0.39097998
Si       0.87125262       3.06544323       5.46684503       2.97889924      -2.79432835       0.39058699
Si       7.29627303       9.52065023      14.81328282       0.58138643      -3.40778530      -1.32615817
Si       9.89512059       7.18924209      21.75209856      -2.49349956       0.39022001       0.95535081
Si       3.40439889       0.40204296      12.31493268      -2.56271437       0.11003684      -0.83088066
Si       8.18542326       5.18615605      14.56661915      -0.33556986       6.39635363       0.84524058
Si       5.02208548       2.39751303       5.53183874       0.88121495      -3.55845897       0.46122660
Si       2.51510509       4.62954126      12.67525798       0.95209729       3.06731396      -1.22221000
Si       5.75550456       8.16491186      21.87091903       1.46999731      -1.17207993       0.16395010
O        9.05862396       5.82365923      21.63050777      -2.48311252      -0.28487895       0.28130254
O        4.76608170       1.23473786      12.32444286       0.43530679       1.44693602      -1.03355571
O        1.86813291       4.31883465       5.54625271      -0.95937894       0.85612610       0.68625556
O        5.98949905       8.66900522      15.19943888      -1.09663673      -1.29889068      -0.32030577
O        1.24489514       3.75345279      12.45225704      -1.78765237      -2.74265501      -1.45299962
O        6.51203207       9.62000273      22.24368721      -0.00666261      -1.90483275       0.32336880
O        9.72209424       5.91227713      14.90545070      -0.47351114       0.15755527       0.23456924
O        4.33972311       0.89682259       5.27929912      -1.70876884       0.39477282      -1.28940602
O        3.94954884       6.11574098      19.67842577      -0.20415082       0.01480801       0.48297797
O        4.17645944       6.62966751      15.21510138       1.08656320       0.80562813       0.47098803
O        7.22820557       3.86013992       7.94204810      -1.25757449      -1.24326133       1.04718179
O        6.53688124       3.45557424      12.05311676       1.11821025       0.65742335      -0.18182151
O        1.41329979       8.47077988       8.02063157       0.82985847      -0.51286397       0.29182422
O        2.41519089       8.80679775      11.95323502      -0.01109682       0.50189826      -0.90556972
O        9.28062927       1.69889684      19.02708892      -2.34744860      -0.35330614       1.50904369
O        8.59141581       1.21043890      15.05947635       1.11900215       1.22994856      -0.60163636
O        2.99311224       5.06704479      16.98808460      -0.32844801      -0.13461760      -0.08657936
O        5.62416863       7.09664865      17.75710576       0.25099549      -0.48684750       0.19385232
O        8.10765910       5.21412738      10.38566496      -0.78744324       0.12215009       0.50967705
O        5.21601102       2.84653630       9.73572234       0.20539017      -0.29992901      -1.05429984
O        0.27690260       7.57495209      10.61255165      -0.35446437      -0.09435745      -1.62005780
O        2.82814622       0.63013565       2.44003964      -0.60944292      -0.11582278       1.39309823
O        0.62385532       2.47411637       9.68758751       0.16153752       0.74819247      -0.39152038
O        7.78758207       0.17487950      17.75709130      -0.66015042      -0.51312175       0.46779606
O        9.08780247       8.18059713      22.83934495       0.58149264       0.95244332      -1.01285989
O        2.13806699       0.97242035      11.46324510       0.94662350       0.80867270      -1.47526826
O        1.64773319       1.78532018       4.73690099      -1.85813478       2.01256273      -0.07683219
O        8.48482878       8.55290752      15.41934989       0.19457664       0.49278271      -0.91819109
O        3.72937547       4.09657906      11.75932839       0.29677290      -0.64331385       0.74766982
O        6.38391882       6.69404718      22.49932722      -2.19868324       3.09041078      -0.63080752
O        6.98822759       5.84187739      15.58708698       1.96811775      -1.11459073      -1.45663875
O        4.59861709       3.51964507      18.39863771      -3.41822777       3.24990122      -0.36495072
O        9.23222008       3.43396624      11.70076517      -0.15055150      -0.59643984       1.10483806
O        6.89802659       1.12039165       8.56080455      -0.59281475       6.46050447       2.57150263
O        1.44332015       6.59500205      15.51307463       1.65167727       1.26749741       1.02810673
O        3.86742978       8.61992081      18.76616035      -1.17656450       1.13971404       0.54632811
O        8.41786667       3.75921612      15.06555381       1.16517056      -4.25275036       0.37144944
O        6.59185761       2.42290658      18.82016357       2.23466839      -1.38481836       0.59129856
O        2.11201939       6.14330812      11.94892224       0.24111816       0.81307754       1.01044879
O        4.09039611       8.28337083      22.02834256      -0.02746022      -0.03105401      -0.41030828
O        7.97623984       5.66768809      12.97418409      -0.08118610      -2.64763581      -0.37096767
O        4.88449088       2.59348820       7.22064334       0.88274469       0.26998619      -0.76350105
O        2.69590376       4.71018783      14.34781393       0.15705454      -0.49345210      -0.31605245
O        6.11350969       8.01504188      20.16154411      -2.43906395      -1.08294790       0.56118852
O        1.07036582       2.52167534       7.08149581      -3.51237515       0.56086736       1.54643715
O        7.04148256       0.34990599       6.33049707       1.01375694      -2.43468511       0.97662937
O        0.40905651       7.61921606      13.30338758      -0.02016403       1.34287545      -1.11566212
O        2.69490327       0.63015295      13.75727497       0.01181751      -1.02019889       2.05701272
80
Lattice="9.77192453 0.01751879 6.90363604 0.24348012 9.76890588 6.90363604 0.01370155 0.0133883 13.86910312" Properties=species:S:1:pos:R:3:forces:R:3 energy=-575.67489861 source_file=vasprun.xml step_index=675 time_fs=35350.0 time_ps=35.35 file_index=17 pbc="T T T"
Na       8.31890298       1.65394224       9.90770096       0.59398529      -0.01354518       0.56001577
Na       5.93401654       4.12182114      17.05362213      -0.00536312      -0.12764881       0.19311690
Na       3.78338793       6.23360149       9.76710933      -0.08694473      -0.19708869       0.49692092
Na       1.86665152       9.39051946      16.36116589      -0.44296750      -0.01347205       0.42802831
Na       5.77056871       1.68572081      14.02972191       0.27448411      -0.50747915      -0.22066120
Na       8.62718778       3.90085207      20.17157127       0.20723681       0.01221614      -0.14961303
Na       1.27155692       6.66140767       6.44589226       0.10089808      -0.81085108      -0.92856201
Na       3.86300286       8.69644432      13.34338869       0.44702009      -0.56722737       0.31615962
Al       7.34520560       5.04403373       8.83831756      -0.43522342       1.40132810       0.50914920
Al       4.82060903       2.86240047      11.36368880       0.76532122      -1.15435845      -0.01895134
Al       2.87819470       4.41542061      18.53608870       1.08103095       0.79740965      -1.65880651
Al       5.48559617       6.79393968      15.58784439      -1.78916589       0.59350650       1.17892145
Al       0.75135236       2.12402323      11.31283749      -2.36025811       0.10595877      -1.47221660
Al       7.93830283       9.62177601      22.74045422       1.12787124      -3.61114473       1.02300757
Al       9.80962077       7.74644049      15.81053276       3.11651123      -1.33904261       0.88476419
Al       2.25539730       0.39057955       4.25021228       2.27241865       1.67322001      -1.36389648
Si       2.55960177       5.56414440      15.52127031       1.07160726      -1.05826827      -1.52030786
Si       4.50183886       7.26764095      18.66855042      -2.49671391      -2.64747299      -0.91149653
Si       7.53927269       4.24117384      11.88090050       1.28696632      -0.43299801       1.33623322
Si       5.97272663       2.37163785       8.33636794       0.88316854       1.73464761       3.10944932
Si       1.27271269       7.25536922      11.97931279       0.96552079      -1.39040049      -0.74398796
Si       2.67022365       9.29996428      22.00185186       6.04239625       0.19132559       1.32399582
Si       9.18177786       2.33331846      15.12361023       0.23962571      -1.41218498       1.66704277
Si       7.56886698       0.72188901      18.78348350       1.52419754       0.39387634      -0.42158156
Si       0.47400339       2.76908884       5.45771652      -1.78246366      -1.50270792       0.49429395
Si       7.30426182       9.19997519      14.78149843      -1.03924717       2.34978538      -1.42444249
Si       9.72059520       6.91613706      21.88564721      -2.39188306      -1.35129175      -3.64233380
Si       3.34104333       0.29898887      12.22526877      -0.03734918      -0.06240639      -3.25718155
Si       8.11848963       5.25658708      14.76203476       0.29310334       0.44766432      -1.88666933
Si       4.81953428       2.09933554       5.54918311       0.35717933      -0.64751927      -1.88866661
Si       2.26414439       4.30349855      12.56167732       1.35159919       4.12140106       1.31571631
Si       5.57956314       7.57631406      21.64560962      -0.18717724       4.21635630       0.56819789
O        8.62526447       5.72633285      21.73721808      -1.12976154      -0.28431215      -0.06446299
O        4.78368900       1.04783355      11.77707857      -1.38465795       0.47464787       1.20974784
O        1.32997651       4.17559607       5.62712696       0.30126133      -1.08238289      -1.26019574
O        6.05624877       8.18531403      14.72188684      -0.15783775       0.35197801      -0.11203078
O        0.84463908       3.75613771      12.07608659      -0.92374853      -1.01012280       0.23225432
O        6.64688051       8.89393691      21.88158222      -2.07230563      -1.67659168      -0.96376833
O        9.33552387       6.32665503      14.99245994      -0.69079248      -1.36867724      -0.40045214
O        3.83982212       0.78854783       5.21910434      -0.48917243       0.95788839      -0.00231540
O        3.37400500       6.01081768      18.96320979       1.02032770       1.78834437       0.73812573
O        3.60434248       6.81866277      15.13742895       1.23795324      -0.69215954       0.45824916
O        7.16629934       3.46258406       8.01860991       0.03426052       0.04228174       0.33955307
O        6.06400606       3.76275212      12.26743003      -1.26614464      -0.94455803      -0.25944833
O        1.51097283       8.31113093       7.78250989      -3.53018829      -1.12857415       0.92477950
O        2.02863514       8.72480107      11.85634257       0.41367801      -2.05548603       2.30802768
O        8.90008109       1.69825395      18.74042151      -0.58792728      -0.35055114       1.47154646
O        7.93940722       1.26325031      14.92097637      -0.17602906       1.64694693      -0.03835303
O        2.90302659       4.56346691      16.71170323       0.13784581      -0.27670419       1.61743336
O        5.40939249       7.05888049      17.37149663       0.67223571      -0.89607293      -1.38765255
O        7.97786593       4.86603689      10.49012545      -1.08840576       0.27032145      -1.36304003
O        5.24728670       2.94155922       9.71032170       0.68135454      -0.47993853      -1.68911037
O        0.63014626       7.33707651      10.50036681      -1.07029654      -0.53384965      -0.78824661
O        2.46618898       0.60349804       2.43825738      -0.70730001      -1.48155948       0.50735445
O        0.24320901       1.75197716       9.54073731       0.79609770       1.17885042      -0.32359499
O        7.85384188       9.40408010      24.49879913      -0.45933084       1.00006759      -0.37557411
O        9.30620352       8.20787980      22.63089959      -0.39318310       3.24204700       0.05418580
O        2.05337765       1.06837154      11.53031784       1.13480856      -1.18622607       0.25245895
O        1.09655559       1.58221161       4.51299254      -1.52385586       2.64625680       0.27639254
O        8.52538946       8.74519525      15.67963616      -1.23630170       1.95873126       0.17125077
O        3.33105642       3.60984824      11.63775698       0.62531635      -0.73921780      -0.06412117
O        5.92518280       6.36583122       8.80586807       0.97637549      -2.24756207      -0.83423640
O        6.60635826       5.45708425      15.31856003      -0.74294781       0.78336361       0.61340526
O        4.46496284       3.50763313      18.62346498      -1.38692653      -0.92210443       1.10251084
O        8.48742231       2.84715837      12.03977449       2.38245585       0.32102164      -0.42368142
O        6.69240644       0.94245091       8.59558345      -0.21946301      -1.26774999       0.07994135
O        1.08400122       6.18162931      15.77047104       2.82101435      -0.59152561       1.17572970
O        3.44794071       8.48465121      18.38452021      -0.05060578       3.11094142       1.07436934
O        8.46271711       3.82675655      15.47088949       1.22506238      -1.49918746      -0.62993210
O        6.33461910       1.79300464      18.72092815      -1.37703816       0.85893035       0.27175374
O        2.48280135       5.94196361      11.92058727      -1.83149887       1.21231203       0.64327626
O        4.07571721       8.10335486       8.48588516      -0.88734444       0.25698561      -1.04733125
O        8.00127426       5.23668928      13.09461992       0.53190801       0.15972159       1.04143757
O        4.95591241       2.40978789       7.16586469      -2.25051269      -0.80159540      -2.78373998
O        2.65434637       4.43361109      14.23103732      -1.16646134       0.22159034      -1.92348365
O        5.41877345       7.51511571      19.93278510       1.20756085      -0.17185833       3.43207407
O        0.37391717       1.99214800       6.91898708       0.16603972       1.49120248       0.59304426
O        7.56670377       9.72851424      13.23496850       0.44996070      -1.23037372       1.41026820
O        0.28260653       6.86812473      13.25313292       1.22940197       1.57487637       0.08665037
O        3.11700207       0.28268614      13.80287763      -0.19670621       0.18420317       0.75574348
80
Lattice="9.77192453 0.01751879 6.90363604 0.24348012 9.76890588 6.90363604 0.01370155 0.0133883 13.86910312" Properties=species:S:1:pos:R:3:forces:R:3 energy=-574.75417204 source_file=vasprun.xml step_index=675 time_fs=53350.0 time_ps=53.35 file_index=26 pbc="T T T"
Na       6.44325760       4.03202228      17.90896898      -0.13933702       0.15830095      -0.07999056
Na       9.32116170       2.95323367      21.37753608      -0.69682138       0.25383001      -0.21949693
Na       0.96015034       5.79152578       6.86219773      -0.09709279       0.36090696       0.48495252
Na       3.93198468       8.91948174      14.11897746      -0.02907198       0.52040668      -0.23500642
Na       3.17335402       2.37171926      15.86283644       0.06954139       0.24409013       0.28612384
Na       7.24414956       0.83048353      13.03268686      -0.57470860       0.15922547      -0.69014584
Na       0.42992341       8.13083286      17.62954021       0.64619004       0.65795040       0.85560939
Na       4.19120465       5.64266119       9.43982799      -0.23646403      -0.28494229       0.29420996
Al       7.19305632       5.19357270       9.04550942       0.91759233      -1.08479388       0.71793911
Al       4.49087370       2.87913094      11.28143848      -0.48599493      -1.39920342       1.42008185
Al       2.72554355       4.72871896      18.48362027       0.50658951      -1.53584355      -1.39337211
Al       5.25003366       6.79293207      15.95640306       1.32873032       2.15587330       1.52075556
Al       0.09672009       1.91188682      11.42225849       0.54701049       1.96565389       0.01009588
Al       7.99837805       9.40415359      22.78388024      -1.48843516       2.73524482       1.16869119
Al       9.47240714       8.14581114      15.81688774      -0.71638393      -1.07825268       0.57030283
Al       2.15302702       0.16351267       4.28132233       0.11057089       1.26321878       3.10470966
Si       2.61527234       5.86570198      15.27699515      -1.02707517       1.49696202       2.50163508
Si       4.26758996       7.21972107      19.04804727      -0.90151973      -3.67832440      -2.77230259
Si       7.14569895       4.05697397      12.11620987       2.35462241       3.31199177      -0.46803541
Si       5.57867404       2.64266264       8.27719478      -1.02534549       0.07422291       1.95509740
Si       0.66811808       7.44178189      11.84314603      -3.72340417       0.13304035       0.18512968
Si       2.84918432       9.01839513       8.29235483      -1.19346076      -3.26545141      -0.16310639
Si       9.23581134       2.33417267      15.06956712      -0.06785724       0.15666732       4.82330293
Si       7.24928846       0.75188022      18.90149516      -1.17820536       0.67827584       1.47353166
Si       0.42252114       2.67623556       5.42293353      -1.48210901       0.22874561      -3.86824933
Si       7.01318083       9.47309169      14.90238650      -0.62552052       2.10553342       0.04882005
Si       9.58576468       6.97980060      21.92102251       2.71954629      -3.37314117      -3.29168985
Si       2.68010596       0.24295208      12.26281210      -0.71947516      -0.34457852      -0.85870776
Si       7.72687518       5.26911633      15.00558075       3.23950338       0.48306500      -1.15940530
Si       4.32980785       2.08204598       5.36980377       2.07053318      -0.53027727       2.36164684
Si       1.96063294       4.51642276      12.48861480      -1.09737355       1.75434203      -1.63315160
Si       5.66052152       7.80753177      21.53494005      -1.94126047       0.20403182       1.39833441
O        8.84709426       5.47459421      22.34512182       2.00049316       1.83439389      -1.32837640
O        3.84976425       1.17047756      11.63271552      -0.16834728       0.68011538       0.81502004
O        1.18464415       4.09453434       5.35010055       0.92232770       1.04982128      -0.16865191
O        5.92189795       8.44618609      15.49349848       0.13865580      -1.97012751      -0.29456046
O        0.73446993       3.48072509      12.32866247      -0.09500945      -1.16133774       0.18513014
O        6.33920531       9.23154169      22.06338121       0.49755970      -1.82569310      -0.63281664
O        8.79247800       6.50888222      15.25749596       0.37913851       0.54617701      -0.83408981
O        3.53173595       0.66626495       5.51053594      -0.99614509       0.66044493      -0.71346248
O        3.20495403       5.98961619      19.56403329       0.88495180       0.47951039       0.10945723
O        3.78868376       6.98629388      15.04497584      -0.18025017      -1.99320073      -0.47141739
O        6.80348982       3.65591358       8.34754416       1.38050209       0.17303804      -0.91990739
O        6.03213265       2.98266604      12.32651858      -3.19460556      -1.30402907      -0.19329445
O        1.33613923       8.30052765       8.29697782       1.08742232       0.14802332       0.01203392
O        1.73114103       8.56546235      11.97029026       2.25648781       1.85479363      -0.09144990
O        8.37902215       1.94484550      19.29743022      -0.71273784      -1.36164894      -0.43182733
O        8.06539521       1.25285916      14.99582625      -1.55061851      -2.17057607      -0.40328288
O        2.82303784       4.95609315      16.66891079      -0.91630371       0.72130920      -1.04294856
O        5.03115311       6.60080317      17.71560965      -0.83152761       0.54433491       0.56714471
O        6.94074421       5.00188067      10.77403086       0.09477953      -0.29543485       0.77930216
O        4.65684629       3.09722814       9.60819427       0.21860502       0.16667603      -1.71420826
O        9.35113327       7.86073620      17.53262321       1.63185032      -0.82665093       2.04150990
O        3.17262600       9.75637897       9.70035980       0.49764281       0.48903050      -1.90660696
O        9.79651540       1.85433105      16.60324736       0.27063121       1.42386290      -2.15390890
O        8.03936715       9.57523917      24.62119915      -0.34083194       0.44538568      -1.10651546
O        8.96029887       8.00379842      22.84245756      -3.20920995       3.31381193       1.15542745
O        1.16907735       0.58641393      11.54901775       2.65309254      -1.91233783       2.32416665
O        1.12410830       1.60948637       4.32895404      -1.18561945       1.06560434       0.69173189
O        8.50934569       9.62524371      15.56788295      -0.39117285      -1.23807121      -1.13711303
O        3.28493175       4.11455015      11.71219533       1.07161321      -0.27521196      -0.57135997
O        6.16704312       6.43039726      22.32902069      -0.92265882       2.24822549      -1.67660309
O        6.40940749       5.52129814      15.84495038      -0.57434329      -1.43016466       0.23700670
O        3.81155402       3.28846762      18.30030035      -0.15626565       0.04611704       0.08633176
O        8.49421468       3.12912857      12.04747203       3.03827326      -1.49573741       0.20703925
O        5.98495157       1.10696653       8.50838185       0.57868874      -0.53032311      -0.68832889
O        1.38612077       7.23218130      15.73601686       0.37255409      -4.32425178      -2.40861585
O        3.21655011       8.35759386      18.85372236      -2.80869480       3.99765944      -0.73874815
O        8.66643881       3.89914219      15.48122874      -0.54235186      -0.31016464      -1.50141504
O        5.84073042       1.66330320      18.60954570       0.80258311       0.15840914      -0.57352882
O        1.40136366       6.03562613      11.86727085       1.45916418      -3.26923121       0.18393777
O        3.94230781       7.67303941       8.09771862       0.25498226       1.96694596       0.41083384
O        7.45081520       5.20273902      13.38014575      -0.63622311      -1.42292510      -0.73504128
O        4.74985113       2.85675138       6.90497880      -1.35105651      -0.92424735      -2.46543254
O        2.47378976       4.72160404      14.06068109      -0.84454204       1.05406090       1.32434793
O        5.39149789       7.92805695      19.87774304       3.46632500       0.06466449       3.36387432
O        0.41712116       1.99884222       6.85696860       0.11077318       0.22330214       2.21210357
O        7.00783472       9.49588759      13.19021280       0.68957349       0.26584362       0.96655205
O        9.65696083       7.49745117      20.26252232      -0.88970816      -1.06262657       2.20057897
O        2.59444050       0.29637891      14.00096328       0.67857511       0.96647145      -1.31878543
80
Lattice="9.77192453 0.01751879 6.90363604 0.24348012 9.76890588 6.90363604 0.01370155 0.0133883 13.86910312" Properties=species:S:1:pos:R:3:forces:R:3 energy=-573.91399982 source_file=vasprun.xml step_index=845 time_fs=75690.0 time_ps=75.69 file_index=37 pbc="T T T"
Na       8.36498352       3.96721859      20.26325703       0.02733650       0.31128756       0.50605560
Na       8.60303695       1.33692826      10.34768735      -0.77643563       0.08415882      -0.70632372
Na       6.35293133       3.15420857      17.36737349      -0.16811326       0.54485413      -0.43966744
Na       9.37534909       7.79971560      12.59602448      -0.11981863       0.06532637       0.12044903
Na       2.36147221       2.51820130      14.31699231       0.09287076       0.37385488       0.50600292
Na       6.35674607       0.47096062      13.54725834      -0.48054256       0.13422696      -0.24418081
Na       3.44820706       8.88398041      13.87661774       0.42523070       0.12833654       0.60950596
Na       3.00527512       5.71814647       8.20496968       0.26797221       0.11627542       0.12898672
Al       7.01305895       5.25357672       9.10506363       0.45218292       1.07827919      -3.71934320
Al       4.61779557       2.89635646      11.48937923      -2.08812425      -1.51379420      -1.64555205
Al       2.88000971       4.69948248      18.90091164      -1.48764720      -1.54220531      -3.00406657
Al       5.20326626       7.14788461      15.96189063      -1.27254762      -0.57118209       2.47581056
Al       0.52109126       2.14863789      11.56413026      -4.25780407       3.99424551       1.84315009
Al       7.80007253       9.65493758      23.27746461      -1.16223303      -1.62118960       0.48666572
Al       9.42325287       7.80097689      15.96247089       1.76693911      -1.41073296      -2.72352098
Al       1.97329585       0.39898608       4.42781233      -2.46089106       0.92751408       0.02493684
Si       2.28416909       5.99802250      15.60728649      -0.30879223       0.23153420       1.55392041
Si       4.32482918       7.34074689      19.10631238       1.22231108       1.59616849       0.72322311
Si       7.13269258       4.20943534      12.22218303       4.71023728      -0.38725410      -3.04820969
Si       5.74942805       2.63230405       8.61787609      -1.07976023      -1.93362175      -2.06196278
Si       1.08609211       7.35356731      11.89275358      -0.03694646       0.18728304       3.32966846
Si       2.51174815       8.98121882       8.34982724      -0.68345090       0.53943943      -0.10493976
Si       8.91161412       2.63463021      15.62425516       0.48974052      -1.45647175      -0.93883538
Si       7.37775970       0.72194070      19.28731539       1.11799471      -0.12369268       0.53014577
Si       0.37791412       2.73640733       6.06895357      -3.44536743      -1.66615299      -4.26211170
Si       7.18410573       9.46541283      15.25215121      -5.40559206       1.47234395      -1.96476772
Si       9.31275342       7.14762923      21.76397745       0.44887626      -2.93832278      -1.80332502
Si       2.76611958       0.25851606      12.37197681       1.18179714       2.30075338       1.93994508
Si       7.47688467       5.46327257      14.85808622      -1.71047186      -0.14621792       0.86328732
Si       4.49294476       2.13997932       5.66749080      -0.77026802       1.62177834       1.18556582
Si       2.05901557       4.66523980      12.61996847       1.10445420      -0.48135737       0.45338935
Si       5.43162679       7.89370904      22.06577465      -0.41485096      -1.28158458      -1.02176984
O        8.32765503       5.79998578      21.70821589       0.12526319       0.72496174       1.41819537
O        4.02843067       1.35322942      12.23911602      -0.35931237      -1.96175560      -0.76281913
O        1.58433926       3.70646823       5.96234684       2.68445936       2.88037608      -0.86575863
O        5.71391474       8.63859994      15.27755569       2.25864596       0.85125761      -0.55181343
O        0.79537315       3.67438194      12.59324488      -1.21802249      -1.35098362      -0.96888103
O        6.18332108       9.25443192      22.56255027       0.41038395      -0.26852485       0.10317505
O        8.57260495       6.66758330      14.85180275      -0.35000042      -0.05116913       0.46409361
O        3.34242600       1.03953405       5.31564894       0.50426418      -0.12690769      -0.05811420
O        3.43752802       6.10082600      19.67090923       0.47437556       0.23293312       0.87657374
O        3.50567952       7.10234758      15.42394258      -0.28598290      -0.63430696      -0.70701564
O        6.82934197       3.73822939       8.24694275       0.27242288      -0.73424838      -0.58597091
O        6.24507233       2.90204443      12.00311898      -0.31340759      -0.05127047       0.90909384
O        1.22910929       7.83315026       8.03966690       1.42409709       1.93371799       0.35585491
O        1.83417519       8.73611112      12.44479614       0.78072459      -0.18693964      -2.46743404
O        8.48928376       1.89595648      19.35400785       1.52274442      -0.13018675      -0.81752684
O        7.63231933       1.58740488      15.95184707       0.68376478       0.38866534      -1.06169521
O        2.51935351       5.19223264      17.01915269      -0.10857529      -0.49019791       0.81111738
O        5.26348701       7.33846658      17.81618565      -0.23817440      -0.73473283      -0.78585979
O        7.40799845       4.90158174      10.66265196       0.01766912      -0.80595021       4.62344000
O        4.65621029       3.12726406       9.64170560      -0.58103011       0.09919196       3.75213497
O        0.33320870       7.57851724      10.54458842      -0.16938852      -0.57925740       0.93411969
O        1.85277207       0.38049063       2.56652042       0.42091144      -1.31846445       2.06405265
O        9.72607719       2.60292557      16.96471344       1.00143306       0.65458559      -0.37602238
O        7.87945041       9.28659804      25.08616696      -0.17795990       1.30485346      -1.10653001
O        8.48997652       8.31482254      22.40783910       0.26911272       1.96573076       0.14295139
O        1.36688173       0.82287812      11.77189843       2.59965743      -3.35174212       0.33522405
O        0.33555836       1.53623798       4.77827937       2.91996024       0.64890303       2.19250915
O        8.40369724       9.13258892      16.08952160       2.53528547      -0.79157666       2.66128411
O        3.26902451       3.68498324      12.21058882       0.53625348       1.34995291      -0.06111966
O        5.58140024       6.21553428       8.63810968       0.44970077       2.82576659      -0.29270646
O        6.06398907       5.62437794      15.81748046       2.47708496      -0.08940835      -1.56968923
O        4.20646816       3.58964242      18.65507148       1.15315786      -2.29163382       1.22139137
O        8.58582630       3.46036672      12.80682972       0.04698739       0.64382556      -0.64324916
O        6.62139097       1.19039707       8.97934899      -1.25649754       1.95664994      -0.32901586
O        0.84879560       6.93720044      15.84788563       1.57838598      -1.21646824      -1.11164050
O        3.18529809       8.49004490      18.93654644      -1.17048733       0.24559935      -1.04734279
O        8.23027608       4.11553972      15.50794100      -0.53017045       0.45507822      -0.69340943
O        6.02642016       1.68101970      19.07426954      -0.38839775      -0.91583165      -0.27935147
O        2.10313348       5.97043782      11.65046790      -1.33446251       1.87337597       0.65429565
O        3.93014062       8.14492528       8.78349868      -3.86630639       0.54372261       0.07334915
O        6.85265662       5.38285795      13.27068543       0.10712557       0.24930361       1.71501054
O        4.57802183       2.35869823       7.36190886       1.05325147      -0.52705262      -1.88447152
O        2.20642196       4.90412488      14.25525780       0.12495168       1.74670260       1.66098329
O        5.17805280       8.14056228      20.36661973       1.02176292      -1.46182169       1.02882174
O        0.27020552       2.04998211       7.49620454      -2.00105531       0.12465730       3.34212907
O        7.72614919       9.56332344      13.72171027      -0.56413246       0.45097782      -1.25887521
O        9.80386433       7.19848008      20.11761630       0.33600082      -0.33025242       0.05112492
O        2.53947020       0.40074623      14.09506531      -0.07578005      -2.34858632      -0.71553260
80
Lattice="9.77192453 0.01751879 6.90363604 0.24348012 9.76890588 6.90363604 0.01370155 0.0133883 13.86910312" Properties=species:S:1:pos:R:3:forces:R:3 energy=-572.66719036 source_file=vasprun.xml step_index=865 time_fs=87730.0 time_ps=87.73 file_index=43 pbc="T T T"
Na       8.60058723       3.72706163      21.58732961       0.18681792      -0.42131117      -0.51279752
Na       1.19570175       9.66524603      14.69097173      -0.31278819       0.36545595       0.21155325
Na       6.35166749       4.71200952      18.03806819      -0.09845852       0.02100326      -0.17004909
Na       7.85826062       7.41506205      11.96669305      -0.35308521       1.08803797       0.57281006
Na       2.67427003       2.46285316      15.35416633       0.28374913       0.53692527       0.19388940
Na       6.84588287       1.12292448      12.55572467      -0.13463806      -0.03885843       0.45483034
Na       1.23052250       6.60152926       6.71339975       0.00993430      -0.29976083       0.66073700
Na       3.83979102       8.31647209      13.37601206       0.64605588       0.31719391      -0.33360633
Al       7.07058975       5.59238346       9.50738674       0.03730640       0.30083445       1.98047538
Al       4.63613983       2.89823941      11.38669859      -3.24204101      -1.24011700       0.37464238
Al       2.44749273       4.79444745      18.53770257      -0.82922474      -4.46719580      -2.47758011
Al       5.34076139       7.25006025      16.15301882       0.64206958       0.53471458      -0.78186192
Al       0.25922180       2.51032062      11.87862812       1.29864075      -1.72597807      -1.68712549
Al       7.96642430       9.61946562      22.83841011      -0.07623386       1.79309660      -0.58425237
Al       9.48543875       7.99856681      15.97801277       0.47549799      -2.64694942       1.63602088
Al       1.91490054       0.74832165       4.88201352       3.45551066      -0.02646935      -2.14806440
Si       2.63028088       6.01299372      15.64549898       2.40938098      -1.09471559      -1.85371085
Si       4.15985805       7.36352210      19.14942188       1.43922011      -1.03070114       0.99853093
Si       7.11742889       4.29578093      12.49450858       2.77563748       5.64349062       0.38040155
Si       5.56645567       2.87280177       8.52767528      -2.84098957      -2.74087552      -0.34576973
Si       0.67463593       7.49193095      12.15871805       0.32483125       1.63182484       2.74595556
Si       2.65178042       9.27917433       8.70797512      -0.90240215       0.44855084      -1.66101473
Si       9.02002069       2.80170609      15.69783598       1.90961100       2.45386376      -2.23809275
Si       7.12708859       1.03626973      18.84974061       0.10972618      -0.35539470       2.87858145
Si       0.10718988       3.22703676       5.81298404      -0.19862786      -2.16404825       4.56462497
Si       6.98264877       9.70258054      14.83914175      -2.70342879       0.46654817       0.93674854
Si       9.47057249       7.03856657      22.12774987       2.42672869       1.15280179      -2.36492330
Si       3.06748531       0.58685087      12.59256250      -5.34342503      -0.24758626       0.38741404
Si       7.77984480       5.46070373      15.22250683      -0.33189884       0.75944637      -0.36510780
Si       4.39989097       2.27884303       5.60898701       0.08095057       1.85486904       0.75923578
Si       2.18349083       4.83239295      12.80809760      -0.30582036      -2.84300897      -0.83750975
Si       5.38964056       7.94991802      22.00988508       0.06537457      -2.09332817       0.43393402
O        8.68483360       5.74846669      22.58034196      -1.33032705      -0.36638736       0.57858751
O        4.43002368       1.35553824      12.48668321       1.10229667       1.51490018      -1.14679570
O        0.72456611       4.54780947       5.34107288       2.84910914       3.81564850      -2.37115902
O        5.66992249       8.76599835      15.30944207       1.37076526       0.82771020       0.13005054
O        0.69639142       3.98661751      12.62792937       1.25503812       1.85604196       1.66018029
O        6.47198413       9.18240029      22.00994465      -0.25515036      -0.49124602      -0.88175585
O        9.24222279       6.27556251      15.33784632      -1.28210645      -0.06092608      -0.81527413
O        3.77001016       0.83659283       5.55081715      -3.10866871      -2.29937547       0.56161267
O        3.12445821       6.09819069      19.17990212       0.58487923       3.83299288       2.13086349
O        3.90417198       6.94016763      15.05527154      -0.64229012      -1.01778836       2.45111198
O        6.54109826       4.06951805       8.94745035      -0.05342013      -0.26419305      -0.63038718
O        5.84811146       3.46912869      12.43339526      -1.84371168      -1.24373403      -0.47185001
O        1.27140794       8.30077025       8.37485173       1.75332004       1.72776860       1.08303594
O        1.29110544       9.14067502      12.28823564       0.16235836      -3.38585193       1.61992676
O        8.47436125       1.87622878      19.30367654      -1.04238652      -0.50124082       0.25331603
O        8.43492419       1.43134560      15.20956396      -1.11504584      -4.42026045       0.03359287
O        2.81615572       4.85423430      16.73442578      -0.54000097       0.90027286       3.23628638
O        5.06652404       7.24293426      17.85833408       0.52425657      -0.81340166      -0.64823941
O        7.51491522       5.47466412      11.35130965      -1.02511446      -1.71570213      -2.06586097
O        4.56867577       2.26277445       9.72637903       0.96373094       2.16123241       0.51893173
O        9.55308615       7.65840639      17.80539596      -0.84129446      -0.16314720      -2.69912085
O        2.58753738       0.62478638       3.11032225      -1.75913246      -1.67049440      -1.54642701
O        9.76280485       2.94641192      17.07262457       0.04155838      -0.34042007       0.89978806
O        7.21712868       0.11773956      17.55572662       0.30775906      -0.38295074       0.67550639
O        9.32247832       8.48419916      22.87132643      -1.47258761      -0.06396512      -0.45708604
O        1.48874163       1.19867229      12.06885165       2.45401774      -0.24471686      -0.16003633
O        0.76536511       1.90268409       5.24761401      -0.43392666       0.36210983      -0.29146490
O        8.33591967       9.08744005      15.41968192      -0.29237373       0.98490970      -0.17162745
O        3.21506749       3.88377357      11.75538461      -1.42262953       2.52563769       2.16941622
O        5.86251311       6.80326128       9.27457743       0.82855992       0.72441327      -0.87248433
O        6.76558222       6.15118099      16.28981386      -0.61904006       0.01341820      -0.13167671
O        3.34685764       3.25486017       4.84465274       0.47882370       0.40973179       0.12694488
O        8.27101185       3.12008891      12.43986193      -0.24905857       0.21579952       0.12265046
O        6.54272207       1.57190202       8.38058481       1.71654456      -1.64959579      -0.93611281
O        1.31098363       6.86649260      15.55676652      -1.12914732       1.09611211       0.49926516
O        3.56566704       8.82200324      18.97280456      -1.51838771       0.99804887       0.28252368
O        7.72235506       3.81067460      15.48167664       0.25316016       1.28186356       0.68994242
O        5.92420044       2.13981090      18.75199205      -0.67034784       1.17886708      -0.02936696
O        1.97651711       6.45232323      12.37429523      -0.26358151      -0.06848451      -0.32082036
O        3.83650648       8.16439216       8.63979210       0.03165696       1.10904295       0.59355192
O        6.94075855       5.58989992      13.74312787       1.74302503      -2.00126446      -0.44337169
O        4.59572360       3.03174092       7.11538339       1.61514392      -0.33115024       0.65158020
O        2.48603997       4.83869930      14.53184121      -0.62488247      -1.76849074      -5.63770028
O        5.08405422       7.14752828      20.54265110       0.39997170       1.18876425      -0.00016211
O        0.34908409       3.31650456       7.53651921      -1.31663072      -1.06137152      -0.53294995
O        6.78095982       9.66600925      13.21823616       1.88431248       1.18309879      -2.85801283
O        9.39145997       7.16560230      20.42160253       0.99484512       0.63061322       0.23780095
O        2.53035426       0.41249265      14.16604360       0.66189870      -0.15118350       3.04704755
80
Lattice="9.77192453 0.01751879 6.90363604 0.24348012 9.76890588 6.90363604 0.01370155 0.0133883 13.86910312" Properties=species:S:1:pos:R:3:forces:R:3 energy=-574.89631607 source_file=vasprun.xml step_index=395 time_fs=46790.0 time_ps=46.79 file_index=23 pbc="T T T"
Na       7.52318355       7.28302225      18.37044921       0.22612077       0.08366793       0.23997742
Na       3.97443813       2.67471221      15.37193361      -0.09776119       0.07059668       0.29512564
Na       5.26398205       6.21066857      11.88700386       0.41687996      -0.26023115      -0.09932958
Na       3.03962872       8.55741884      14.19549820       0.14754242       0.07112235       0.24411569
Na       8.82610508       3.69010931      20.85323468       0.04372934       0.11420413       0.19967712
Na       9.63618971       0.40692582      10.41770429      -0.37699413       0.22088542       0.09543717
Na       0.44180365       8.25884835      18.17664559      -0.02859950       0.02151090      -0.20232576
Na       2.53614841       3.14135224       8.84788821       0.17157607       0.15005158      -0.44625886
Al       7.32919816       5.51607951       9.07660849       0.53859312       0.29134370      -1.14942200
Al       4.74631996       2.74405833      11.32619585       3.11493202       3.93905854      -2.24212116
Al       3.10557725       4.51833944      18.45655612       1.29794149       1.24699374      -1.22160143
Al       5.63007123       7.60181733      15.84552381      -0.75795314      -3.77093861      -2.96926744
Al       0.40411487       2.13792168      11.73715748      -0.54696951       1.68708845      -1.75304486
Al       7.63986941       0.02812100      16.11674392       1.38413529      -0.82866943      -3.13629999
Al       9.64994480       7.62510168      15.80522898      -0.08536014       1.00718783       0.09232877
Al       2.47578632       0.41768610       4.68648251      -1.90362503      -0.78450322       1.18725836
Si       2.92651324       5.68333174      15.42533456      -0.17332751       1.74693367      -1.94456924
Si       4.57297083       7.57585960      18.83336589      -1.07491394      -0.18261373       0.18682949
Si       7.71500833       4.08075203      11.94043568      -0.00026034       2.53345833      -0.41557644
Si       5.80787155       2.76287110       8.40442113       0.00214945       0.48811162      -0.90664476
Si       0.96475620       7.36547961      11.99988173      -2.50581502       1.71680512      -0.69038083
Si       2.67149588       9.28658420       8.38197477       0.25460342      -1.17343818       1.01702517
Si       9.36788814       2.82613189      15.64342848      -2.80780280      -2.54218245      -1.00198300
Si       7.58232714       0.75657909      19.10005682      -2.28114364      -0.09507078      -2.40108167
Si       0.70346292       2.84637671       5.74469716       2.01421242       1.48893860       1.05278519
Si       7.40994927       9.60590901      14.87864349       1.31733263       2.29366330       1.23032559
Si       9.66897655       7.06471025      21.66398842       1.27168154       1.92762976       2.61371351
Si       2.74710705       0.59526371      12.51973032      -1.23118121      -3.98989113      -0.08142873
Si       7.83833211       5.42378886      14.86022934      -0.70268963       0.99335730       0.01312763
Si       4.70794065       2.03919715       5.67447909      -1.46687466       0.86846977       0.88830076
Si       2.49579891       4.58548073      12.53882747      -2.18930318      -0.94022912      -0.91563062
Si       5.47686051       8.14856430      21.77709806       2.79157349      -2.48297098       0.79131524
O        9.09786191       5.60678643      22.16061717      -2.12940073       1.23051982      -1.11460556
O        3.74462821       1.72137639      12.06009014      -0.96439303      -2.53756025       1.05899328
O        1.77634020       4.21700991       5.67476847      -1.06911176      -2.63214567      -0.69671961
O        6.01948422       8.86369043      14.75021290      -0.98448136      -0.92985333       0.00516055
O        1.22245854       3.42157652      12.54782894       1.82759499       1.87726799       0.71172125
O        6.36610364       9.53243963      22.06657075      -0.93559310      -1.33034576       0.22983872
O        9.03535063       6.47843402      14.63653558       1.15637100       0.71682750       0.64002591
O        3.71563756       0.73022854       5.85565229      -0.58608691      -0.00828843       0.25642147
O        3.59697707       6.28680874      18.68826747       1.28454494      -1.52561537       0.35557793
O        4.19398721       6.65745955      15.33285884       0.07066407       2.04821853      -0.60968718
O        6.99052514       3.89049982       8.44014031      -1.02628863       0.19552589      -0.39107016
O        6.45303568       3.13508575      11.74824152      -1.49993799      -1.32989252      -0.52816591
O        1.33908944       8.35300789       8.29432131       0.61805622       1.15854156       0.22535930
O        1.97710647       8.55716247      12.16110786       2.17651181       1.75120378      -0.42373528
O        8.49907067       2.04740694      19.21283718       1.92375223       1.36987446      -0.43732776
O        8.34406002       1.49789790      15.45879723       0.65878655       0.91255361       1.11069803
O        3.02562308       4.72613997      16.63469366      -0.68582390      -2.42847955       1.95754629
O        5.48132540       7.93783187      17.42243501      -0.97337938       0.83574623       5.90108414
O        7.81538771       5.26883782      10.68322859      -0.55295594      -1.30621717       3.63011072
O        4.63903523       2.75772230       9.51094029      -0.07656389      -0.23484819       2.01039262
O        9.73057062       7.45203569      17.63204562       0.08244952      -0.16538065      -2.12752236
O        2.65459149       0.27838930       2.97267522      -0.49257689      -0.05364623      -1.76149758
O        0.62754974       2.62213611       9.99123475      -0.56917359       0.41322166       0.10726174
O        7.94869997       9.52757498      24.69599019       0.30573118       0.85820234       1.94494621
O        9.20929775       8.45181601      22.58495840       0.07125664      -2.01853682      -0.94382307
O        1.22741478       0.68381596      11.92442602       0.94348874      -1.24554939       0.14938041
O        0.90414660       1.31430236       5.17454513       2.33473117       0.75548024      -0.37912760
O        8.59557671       9.14206647      15.96060043      -1.74846328      -0.63733159      -1.30481842
O        3.90220157       4.29743112      11.73882639      -1.21964260       0.48752503      -0.72336095
O        6.10876267       6.80936816      22.72793106      -0.05788924       1.12728289      -0.74672541
O        6.67572002       6.18751313      15.69131577       0.91817966      -0.03847353       0.30666335
O        4.14410372       3.00430918      18.38270974      -0.77917792       1.12555988      -0.35046736
O        9.15423906       3.27769794      11.89299495      -2.76372269       1.07887428      -0.69743468
O        6.68847856       1.38989218       8.50120087       0.66625880      -1.22337147      -0.94900895
O        1.59043549       6.64994804      15.29317902      -1.39517637       1.27061993      -1.22071041
O        3.24600552       8.62597793      19.07788026       1.70750999       3.08413221       0.18299309
O        8.31824741       4.09582805      15.60456357       1.41503390      -1.14284161       1.74132915
O        6.03160750       1.34001638       5.19069529       2.16763249      -0.53946995      -0.05981196
O        1.64689135       5.98478316      12.08521143       2.66387798      -3.96003769       0.39575832
O        3.87285595       8.15194454      22.06135695       0.41813431       0.99364045       0.09640074
O        7.29979912       4.85227820      13.44556971       0.20770508      -0.43146306      -2.99697874
O        4.76130221       3.01733839       7.06168368       1.40407877      -1.62632271      -0.37648433
O        3.10323649       4.77973091      13.99955008      -0.36862866      -0.04504494       2.12876982
O        5.74056079       7.50471911      20.18638481      -1.74226422       1.23432178      -1.49228806
O        0.49257883       2.82030022       7.36396966       0.67092985      -0.00199044       0.85030370
O        8.10427350       9.61080811      13.39056605       0.28472459      -1.14860610       1.91845930
O        9.55832833       7.62166945      20.04408918      -0.02075225      -1.66318750       2.48978762
O        2.67239742       0.69869054      14.16328027      -0.10187942      -0.17837081       1.35271684
80
Lattice="9.77192453 0.01751879 6.90363604 0.24348012 9.76890588 6.90363604 0.01370155 0.0133883 13.86910312" Properties=species:S:1:pos:R:3:forces:R:3 energy=-575.31718777 source_file=vasprun.xml step_index=215 time_fs=40430.0 time_ps=40.43 file_index=20 pbc="T T T"
Na       9.04685429       1.68174889       9.76551085       0.25531131      -0.37193717      -0.29058600
Na       3.15797619       2.53520630      14.86933402       0.05183176      -0.54182813      -0.11537294
Na       6.04309200       6.88238391      11.81765653       0.17197369       0.06644084      -0.10728754
Na       0.91894389       8.11295872      18.07005237      -0.55231376       0.29284959      -0.63501261
Na       6.13178579       0.29539710      12.20364656       0.16876555      -0.37854868       0.52608385
Na       8.97657145       4.62786876      19.24861393      -0.71469292       0.13569408       0.15420848
Na       1.93675998       6.28008110       6.71305778       0.23225888      -0.42233642       0.02091594
Na       3.34326932       0.44521977       7.99163096       0.30176983       0.25425751      -0.21385550
Al       7.14698161       5.20686514       9.00077005      -0.36030967       2.22851482       1.64391395
Al       4.63018896       2.61995811      11.18298354      -1.15600259      -0.69881971      -0.69165268
Al       2.99841578       4.43111945      17.95661529      -0.13505930      -0.80063991       0.34840529
Al       5.72843782       7.02573831      15.81324406      -1.91182712       2.60355538       0.66514712
Al       0.72257162       2.07082960      11.38375349      -1.27265545       1.68571542      -0.17527841
Al       8.23392741       9.59985252      22.66467125      -1.89809907      -2.73490679       0.32002064
Al       9.94418795       7.42446772      15.72721430      -3.03383277       1.28751962       1.47891465
Al       2.20770010       0.48719936       4.52391533      -2.74613392       0.03908050      -0.14689212
Si       2.85126537       5.50731348      15.18626273      -1.84001307      -2.37948066       0.65931016
Si       4.57762286       7.28383996      18.72776894       0.60959989      -0.53059021       1.82916259
Si       7.51472845       3.84250209      11.84524511      -2.85098839       3.44706968       0.18628135
Si       5.78622237       2.39745544       8.22840061      -2.93212235      -1.26349785       1.19428549
Si       0.91210809       7.29072600      11.84716645      -0.62440247       1.65391473      -1.08462709
Si       2.93495610       9.15299192       8.47603901      -0.20724425       0.65223485      -0.51963423
Si       9.26277652       2.44016080      15.21796641       3.04956735       0.84138568       0.20302523
Si       7.70216415       0.82664923      18.95444355      -0.04298589      -0.56042339       0.38323090
Si       0.51217482       3.21769154       5.42125758       2.32738084      -4.76437988      -0.12805251
Si       7.38803996       9.37617150      14.76694297       0.85307439       0.85125714      -2.79966144
Si       9.74156637       6.98224267      21.76299871       0.22869774      -2.31838060       1.73349385
Si       2.75608037       0.12917925      12.51448302       2.59494811       1.22376951       2.58639972
Si       8.08745927       5.20965316      14.70073472       1.61188653       0.02748685       0.31292072
Si       4.61661959       2.04343638       5.43512234       0.00231072      -3.48072830       1.47598652
Si       2.39730244       4.66562776      12.22444449       3.56514995       0.87517892       0.43132293
Si       5.71575295       7.73932371      21.54128920       0.17744647       4.45558693      -0.93005452
O        8.64531251       5.82809799      22.24484428       1.49832983       0.06800408      -1.04996371
O        3.87472269       1.24834558      12.20160872       2.05960608       0.67877925      -1.14940311
O        1.36138419       4.46304852       5.08983991       2.99019037       3.46472220      -0.54838570
O        5.95374122       8.66920262      14.98119903      -0.37184927      -1.07924022      -0.06534306
O        1.17240669       3.70486153      12.28450922      -2.32093483      -2.35789961      -1.69988233
O        6.69263024       9.08179236      21.75467183       0.41252821      -0.23847948       0.13894119
O        9.47135830       6.12409293      14.62805548       0.77002957      -0.18781940       0.18124560
O        3.54679320       0.65050574       5.50111839       2.93782413       2.16244547       1.12919769
O        3.76629690       5.91843781      18.66433977      -1.20886966      -1.34966730      -0.40963219
O        4.17482826       6.33016626      15.33062691       1.45349281       0.77446954       0.23017033
O        6.64090894       3.68242136       8.49649301       0.26525767       0.65928644      -0.37348607
O        6.28331282       2.73712076      11.80846579       1.23181264      -0.02217647       0.62211235
O        1.63421599       8.19306935       8.42756315      -0.19013186      -0.91639926      -0.08590776
O        1.40161550       8.88263058      11.92047777      -0.08125526      -1.56491766      -0.53411074
O        9.00258916       1.91423539      19.23001178      -2.55644694      -0.76624334      -0.80252386
O        8.54973027       1.07602037      14.81445142       0.09219294       1.66544547      -0.53181270
O        2.57023555       4.13851159      16.17900997       1.32994836       2.27551730       2.31341993
O        5.38999241       7.67756202      17.46770087       0.94471136       0.31230450      -2.46799625
O        7.06940392       5.09599038      10.87581279       0.17395184      -0.35671778      -2.09761268
O        4.67794262       1.98343836       9.48470175       1.62717613       0.56108564       0.23799630
O        9.65787053       6.86181322      17.41954761       2.22395679       0.64785461       1.75359174
O        2.78521492       0.32320132       2.91013011       0.35254518      -0.96094380      -2.39449484
O        0.63970981       2.28643613       9.60668392      -1.91225957       0.19934275      -0.65983466
O        7.86374853       0.04748887      17.49461659      -0.17386786       0.99050307       0.84437007
O        9.47172230       8.30331802      22.60363399       0.14640751       0.85165747       0.36641417
O        1.45495389       0.58603287      11.83475656      -2.07925669      -0.92450887      -2.36647833
O        1.21108361       1.98136559       4.56436657       0.43889393      -0.85749037      -0.41812535
O        8.58935475       8.86419135      15.67689811       1.40315726      -0.70465683       0.60453191
O        3.61961138       4.03513663      11.34822546       0.13091687       0.03459837       0.12139967
O        6.12687094       6.65236391      22.51762582       0.77415716      -3.94822726       2.30571770
O        7.07383111       6.10430671      15.50703719      -0.22086332      -0.66940957       0.23830116
O        4.33760921       3.25920105      18.35065373      -1.69150646       1.25542770      -0.98795694
O        8.94138652       3.23966083      11.43378559      -2.05432356      -0.23996662      -0.09048639
O        6.93879608       1.29270993       7.96511009       0.88618023      -1.87922001       0.76318069
O        1.51329338       6.40357713      15.42690413      -1.30016628       1.33616458      -0.93160938
O        3.40722554       8.32426839      19.25368265      -1.46244838       0.88276203      -0.94799445
O        8.15458835       3.70437591      15.36941028       1.46641726      -0.92738312       0.44286976
O        6.16556850       1.52890227      19.17148990       2.37584268      -0.76794390      -1.43748607
O        2.29999538       6.28710411      11.80683439      -1.77794646      -0.18582336       0.55086241
O        4.15717471       8.17719587      21.86705576      -0.19169240       0.21626869       0.80801689
O        7.74246170       4.92579494      13.15969381      -0.76315434      -1.65800939      -1.35706346
O        4.64846113       2.37657155       7.04250113      -0.10512071       1.00357646       0.44309333
O        2.84719028       4.58695104      13.84275278       0.33692145       0.74506849      -1.56342963
O        5.72544063       7.45855584      19.91907915      -0.22263151      -0.65587810       0.00623204
O        0.56629933       2.64872939       6.95080943      -1.87610636       1.21616131       1.47592521
O        8.00884787       9.23681755      13.07557666      -1.10738992       1.33054624       0.95209433
O        9.68625182       7.12814840      20.13663081       1.06689213      -0.80577277      -1.35380001
O        2.47353990       0.43800191      14.11676875       0.34683850      -0.64667784       1.47824185
80
Lattice="9.77192453 0.01751879 6.90363604 0.24348012 9.76890588 6.90363604 0.01370155 0.0133883 13.86910312" Properties=species:S:1:pos:R:3:forces:R:3 energy=-574.56043859 source_file=vasprun.xml step_index=470 time_fs=62940.0 time_ps=62.94 file_index=31 pbc="T T T"
Na       9.33925506       2.45614494      21.94033907      -0.18436480       0.37451726      -0.18107289
Na       7.51844930       5.99803399      17.85917989       0.16450793      -0.30467208       0.38882019
Na       9.16194854       6.71909693      12.30296263      -0.03881018       0.05204563      -0.29661005
Na       3.95650359       8.67635966      13.34597723      -0.43227054      -0.33038122       0.39746285
Na       6.88309394       9.51502854      18.02120977      -0.24012597       0.22643887       0.11932644
Na       4.78850573       1.31128600      16.07849763      -0.38818420       0.69508136       0.06951839
Na       2.43982701       2.92123625       8.77075642      -0.57755985       0.16554151      -0.49232085
Na       4.92826765       5.95240107      11.00019358      -0.38878752      -0.09748646       0.30181943
Al       6.97081478       5.45971064       8.81276313       2.27540948       0.70053846      -0.19826338
Al       4.49630268       2.78147726      11.08330327       1.21567375      -0.79064007       3.96563042
Al       2.92575527       4.33222961      18.23504897       0.58519706       1.33526126       1.72594771
Al       5.29377408       7.35479226      16.06436855       0.72757070      -0.98248207       1.37471269
Al       0.22470367       2.21819779      11.48226398      -1.79702044       2.10905118      -1.09867758
Al       7.65204646       9.49465611      22.70577684       1.42054968       0.76459300       0.60789196
Al       9.38665136       7.76820731      15.70126530      -0.26515047      -0.56996707       0.74030870
Al       1.88737639       0.31117169       4.38722051      -1.51826641       2.90196384      -0.80388317
Si       2.51136258       5.82227958      15.50647839      -3.55164584      -0.09365676       1.27575396
Si       4.25400485       7.38867494      18.99180983      -0.07895302      -3.83541031      -0.02336715
Si       7.36021759       4.37272477      11.87184445      -0.20833465       1.25638977      -2.32145168
Si       5.75174732       2.59646777       8.16087429      -3.05895969       3.66144445      -1.07741422
Si       0.94390798       7.10491521      11.63615064      -0.57797869       1.17022563      -0.67894370
Si       2.28199443       9.50435869       8.23749609      -1.18437356       1.08794156       1.39976632
Si       8.88642996       2.73065759      15.44844991       0.53255391      -0.79114313       1.15187032
Si       7.34462824       0.47107900      18.58176677       2.28801168       2.75771830       1.34875379
Si       0.43646791       2.93617929       5.56783821      -0.68437033       4.24735081       2.65307205
Si       7.05181668       9.42179873      14.71346797      -0.45882619       2.80106657       0.15871852
Si       9.39484180       7.06779137      21.31834180      -1.48099971      -1.53163334       1.42917826
Si       2.71197483       0.33245891      12.33735975       0.35994325       3.72739001      -1.70629648
Si       7.59810640       5.40404416      14.79615399      -0.77776124       0.15095168       0.46487613
Si       4.53134063       1.81500550       5.25775106      -0.56640373       3.71565215      -1.31484790
Si       2.14239075       4.49900783      12.66293406       1.47980021       0.65059222      -2.03498037
Si       5.00008227       7.94272270      22.06083016      -1.96302007      -3.82283115      -0.30151536
O        8.37921207       5.77296956      21.49981336      -0.63999376       0.41236444       1.25373007
O        4.15421278       1.12543846      11.87150832      -0.98195745       0.31127277      -0.98048445
O        1.79972362       3.91044933       5.74277871      -1.17559485      -0.90875164      -1.64704215
O        5.60537650       8.71111748      15.00753379       0.11065656       0.63572702      -1.25878331
O        0.84236067       3.58506585      12.49104930      -0.11161471      -0.39724042       0.29825259
O        5.95284746       9.02668432      22.65617197       0.93204356       2.59512632      -0.46314224
O        8.90733258       6.34786526      14.77191505       0.43976137       1.00179914      -0.48546391
O        3.22890631       0.84687939       5.38367468       1.18290391      -0.80354813       0.33137092
O        3.64777713       5.92383154      18.71030348      -0.09562434       0.10866285       0.22626640
O        3.75477902       6.86254096      15.59397703      -1.79166180      -0.65505303      -0.50468966
O        6.85719412       3.78294433       8.22455928      -1.19408742       0.14590799       0.56989692
O        6.17522068       3.26168159      11.90091994      -0.95562880       0.25488058      -1.57951514
O        0.70027093       8.85284186       8.06548647       3.26665745       1.12317164      -0.54294055
O        1.93398900       8.41971334      11.59173598      -0.58986275      -0.21955895       0.48674729
O        8.30127382       1.92454058      18.84773536      -0.75468815      -2.37877719      -0.34668666
O        7.88051893       1.47404594      15.74599479      -0.51973945      -1.10043316      -1.29335125
O        2.10710435       4.79154396      16.79778284       0.50164363       1.45752701      -2.67357625
O        5.42234273       7.58880134      17.90493666       1.45707429       1.23009751      -2.21201668
O        7.52788662       5.70026848      10.61608653      -1.56379320      -2.98434789       0.77935061
O        4.63191145       2.67153178       9.39810777       0.20972353       0.10094171      -1.47327625
O        9.78941708       6.93128240      17.21658655      -0.02851579       0.80082692      -0.55507685
O        1.99240055       0.82038237       2.66797018       0.24758973      -1.55280034      -1.31036363
O        0.29179555       2.73136376       9.71880150      -0.41120324       0.02480252       0.23065518
O        8.13247049       9.19863514      24.37560352      -0.73196667       0.32665047       1.66185819
O        8.47149750       8.32749488      21.81665790       1.62724736      -0.35758968      -1.39965910
O        1.35762354       1.02686347      11.61676735       3.35748734      -3.34222839       0.82767033
O        0.59554531       1.56991740       4.91644641       1.05681396      -4.10823073      -1.78380596
O        7.97544008       8.93037483      15.92548113       1.15193519      -1.16626096       0.38736867
O        3.50078699       4.10209285      11.71814210      -0.58850936      -1.03622315       0.24043782
O        5.51210055       6.49908685       8.96977340      -0.67342847       0.75197810      -1.21361079
O        6.42993540       6.05180303      15.77414086       0.60202590       0.21240235      -0.67358819
O        4.18941076       3.11841672      18.06853546       0.38085134      -1.97790692       0.71844535
O        8.79683374       3.71199162      11.88329091       2.42602542      -0.91282790      -0.43842215
O        6.61421349       1.33928613       8.21591708       2.18397844      -5.32774983      -0.25818584
O        1.04804531       6.80315986      15.23902145       1.20919511      -0.22731017      -0.27863778
O        3.20436133       8.53124960      19.21239956      -3.09516752       1.46114963      -1.74688046
O        7.84392195       3.99378566      15.59166514       0.00123591       0.71562825      -0.60601228
O        5.78716307       1.04038378      18.22983123      -0.26502262      -0.33378596       1.95355214
O        2.01504514       5.98669884      11.92554221       0.64900528      -1.25330882       0.13040155
O        3.41840684       8.39054110       8.70589256       0.79069345      -0.38000292      -0.85639696
O        7.23527880       5.36363588      13.16182543      -0.59146023       0.29550013       1.71781742
O        4.70848882       2.62266020       6.74531060       1.68378346      -1.51622171       0.56720847
O        2.57808140       4.89634408      14.16554526       0.50145791      -0.67651909       0.29604199
O        4.83362218       7.53723335      20.47037861       2.60033944       0.22064055       2.94560100
O        9.72426825       2.92266925      14.06334468      -0.08871569      -0.94635949       0.57903677
O        7.69752704       9.52134959      13.19213619      -1.19816455      -0.81912752      -0.10800045
O        9.56255368       7.04224194      19.67534858      -0.00634299       1.09271858       0.57390643
O        2.61957164       0.73323001      13.91359550      -1.16578407      -1.31323013       2.85967300
80
Lattice="9.77192453 0.01751879 6.90363604 0.24348012 9.76890588 6.90363604 0.01370155 0.0133883 13.86910312" Properties=species:S:1:pos:R:3:forces:R:3 energy=-575.65966497 source_file=vasprun.xml step_index=800 time_fs=89600.0 time_ps=89.6 file_index=44 pbc="T T T"
Na       7.49220743       8.59798443      19.34511569       0.07562739      -0.11767347       0.39995942
Na       9.44387488       1.77728726       9.67921659       0.13009601      -0.00074457       0.18018226
Na       4.07825290       6.29663130      10.66691513      -0.11343682      -0.13845469      -0.05748992
Na       1.65516051       0.32232309       9.03681567      -0.12813991      -0.21872967       0.17703403
Na       7.97324326       4.00202950      20.02943902       0.27563579      -0.26845149       0.01755555
Na       5.79830011       2.82868858      14.49695316       0.10230793      -0.44574523       0.73733274
Na       1.45699095       6.57115578       6.93943925       0.27139120      -0.09010742      -0.64042596
Na       5.02376591       8.48464155      13.31517363      -0.30722958       0.21247326       0.36446298
Al       7.62447683       5.50382461       9.21285301      -1.20147578      -0.37093243       3.01697847
Al       4.77951363       3.16583528      11.76054934       0.74486280       3.73363213      -2.23670643
Al       3.11852688       4.85937611      18.44496398      -2.20906617      -1.33998967      -1.33702760
Al       5.79220103       7.25943058      16.26748550      -3.33618706       1.70608946       0.00657079
Al       0.52551746       2.26853923      11.65778099       0.78802116      -0.55450551       1.41989584
Al       8.19295705       9.73501775      22.92642798      -1.41239261      -2.34229276      -0.36313552
Al       9.91870796       8.04733817      16.16923576       1.13736926       0.07336378      -0.39909016
Al       2.56809560       0.64511635       5.08017102       0.65730781      -0.75365523      -0.77942645
Si       3.08101104       5.96440392      15.44871850      -3.01174463       2.23312179       1.31617791
Si       4.27626797       7.57285613      19.23776699       0.37562353      -5.29341926       0.16193601
Si       7.71184969       4.38344510      12.36421110      -1.74410490       3.38733167       1.51342511
Si       6.29615999       2.82345515       8.67881996      -2.99334154       4.33919011       1.24255869
Si       1.16399455       7.74014684      12.26077044       1.77739978       1.18690584       1.44468197
Si       3.11050130       9.62359773      22.65720174      -2.06122549      -0.68814220       2.13926663
Si       9.25836151       2.72318585      15.57882452      -1.93318957      -0.18817247       0.12229645
Si       7.37501107       1.00769304      18.99061085       2.51121219       0.27090943      -0.26654610
Si       0.64176563       2.99014472       5.95486453       1.24383406      -2.08478618      -0.63282991
Si       7.33894355       9.72410509      14.95553913       0.21348991      -1.67566924       0.85809356
Si       0.19960741       7.30668788      15.29103538       4.19886127      -1.11124308       1.23650490
Si       3.16021620       0.77800068      12.95483546      -1.51455827       0.20698740      -2.36369786
Si       8.22851684       5.69430037      15.28237262       2.65495270      -0.70453003      -2.70040982
Si       4.90534332       2.64396686       5.78111974      -0.97982783      -2.96847183       4.63226702
Si       1.96167879       4.92113075      12.60968204       3.34272034       1.14208318      -0.74940615
Si       5.60621358       7.85728533      22.11749480       3.51881725       1.49680276      -0.74106423
O        9.14105158       6.02965811      22.56981225       0.61898422       0.37532468      -1.09603159
O        4.36445043       1.81726177      12.56936640      -0.98008266      -3.53299491       1.77618565
O        1.71571179       4.08858312       5.47530236      -1.14488923       0.03254913       0.20313693
O        5.93502359       8.96252263      15.55117581       1.93230129      -0.23934100      -0.71339556
O        0.87399202       3.79178404      12.53335114      -1.52379471      -0.20292065       0.22548054
O        6.94801461       8.99544928      21.81699399      -1.99235341      -1.58163229       0.34954592
O        9.77496069       6.42751894      15.34918917      -1.57181819      -0.31876039       1.63001479
O        4.00376297       1.21994798       6.10212095      -0.54664129       0.62938145      -1.54019272
O        3.11906459       6.26371758      19.34643131       2.06483382       4.40325083       0.70657210
O        4.54231832       6.51448181      15.16528534       2.20912473       1.36320754       0.53494152
O        7.45441884       3.98008942       8.40977366      -0.26882993      -0.79525360      -0.10487484
O        6.23839943       3.76276053      12.61908158      -0.51202206      -0.01199712       0.34750945
O        1.75042385       8.65314181       8.65551779       0.38524649       0.01694009      -0.45821436
O        2.67426669       8.58341798      12.57554258      -2.13745465       0.86009065      -0.79973166
O        8.80806323       1.81046439      19.35372505      -0.94036181      -0.44610507      -0.75801049
O        8.28153507       1.42001294      15.29306606       0.75766912       3.03472789      -0.62811291
O        3.01247769       5.00624999      16.69298469       0.28321916      -1.38637911       1.22483117
O        5.27754487       7.33146437      17.99593718       0.65697053       0.16998199      -1.12935782
O        7.89988423       5.03507479      10.95862694      -0.37648788       1.24313372      -2.02517277
O        5.51892808       2.99503153      10.15526391      -0.05528903      -0.04228338      -1.46937363
O        0.21275388       8.31855782      11.08427510      -1.00308268       0.22737468      -0.91159786
O        2.87006736       0.60972048       3.26436605      -0.65466519       1.14792939       2.62580520
O        0.38916315       2.59663079       9.97284873       0.37209170      -0.59701622       1.42750755
O        7.33989664       0.17920453      17.60558116      -0.39354469       0.40505407       1.69272790
O        9.55656068       8.64838034      22.90856898      -0.48326817       2.21831862       0.94184228
O        1.80198713       1.01362561      12.00642786       0.23113936       1.39555350       0.86432135
O        1.03473638       1.49609486       5.22734779      -0.48242291       1.28460438       0.41074916
O        8.83420511       9.03014900      15.20795614      -1.74145894       1.21639436       1.28470713
O        3.37636430       4.38809388      11.99162407       1.85174618      -1.13759567      -1.47276304
O        6.18378413       6.63795971       9.21306319      -0.50575298       0.02500916      -0.62866457
O        7.29817043       6.58954826      16.20266980       1.25458151      -1.08771646       0.43426584
O        4.28889350       3.68375600      18.70836765       0.46795294       0.89436085      -0.80017825
O        8.81084635       3.27251586      12.53352510       2.30456958      -1.84299345       0.57838826
O        7.05671082       1.46652782       8.72476454       1.91906183      -3.00000887      -0.24664303
O        1.85702774       7.14708435      15.89311007      -0.44722562      -0.04443523      -1.52284155
O        3.60810190       8.96221912      19.16158366      -0.66792978       3.85511265       1.92822435
O        8.21397973       4.06030623      15.68281866       0.77471721      -0.13843085      -0.01228454
O        6.32613770       2.23361002      19.04064493       0.87866271       0.29715340      -0.89011935
O        1.73497351       6.33803364      11.63683165      -0.48294666      -1.92100240       1.13226781
O        4.38428374       8.64610155      22.89948319       1.61099823      -2.08052032      -1.24214750
O        7.91835399       5.65789844      13.62694754      -0.32817463      -1.27790214      -0.30360101
O        5.28381107       3.17506609       7.41252860      -0.40299009      -0.95640505      -1.53208876
O        2.52723813       5.48709597      14.03980537      -1.64173139      -1.22935956      -1.27704855
O        5.26759751       7.31046622      20.56126519      -0.19991127       0.79765916       1.16031582
O        0.68061120       2.62503851       7.59632780       0.58115592       1.12568298      -2.00236330
O        7.10641832       0.05805690       6.42814537      -1.35511750      -0.75140943      -0.10515808
O        0.21895292       7.57022174      13.68378958       0.71458572       0.13691072      -3.04031182
O        3.08194360       1.02624090      14.63701140      -0.06847583      -1.16422513      -2.47813330
80
Lattice="9.77192453 0.01751879 6.90363604 0.24348012 9.76890588 6.90363604 0.01370155 0.0133883 13.86910312" Properties=species:S:1:pos:R:3:forces:R:3 energy=-574.54962811 source_file=vasprun.xml step_index=445 time_fs=28890.0 time_ps=28.89 file_index=14 pbc="T T T"
Na       5.97865425       2.71527713      14.71445281       0.08375732      -0.30708345      -0.26353898
Na       6.68360657       4.72003677      19.56347846      -0.45992957       0.16918569       0.33920696
Na       1.92270339       6.08384415       7.22737052       0.33071169      -0.55001366      -0.25813604
Na       1.71012494       9.56122095      16.52451882       0.04874961      -0.10309486      -0.36690651
Na       7.76076899       8.85706541      18.44986448      -0.05237692      -0.20513957      -0.00664837
Na       1.82081999       2.75735226      14.99143616      -0.21423778      -0.45270128       0.46522368
Na       8.19148852       7.12706233      11.95180428      -0.31891456       0.37733360      -0.13971989
Na       4.22549919       8.00598520      13.29236074      -0.36043761       0.78246914      -0.52893936
Al       7.38279959       5.22855474       8.89358266      -0.81246187      -0.77479385       1.40713366
Al       4.71923686       2.54583288      11.56670514       0.11506579       2.07205764      -3.93978622
Al       2.85619720       4.60685793      18.18700667       1.14288115      -1.81226544       0.28495096
Al       5.57262604       7.01452548      15.73588925      -2.29508394      -0.92546798       0.25939846
Al       0.37169351       1.89711691      11.59281067      -0.61786723       2.14515035      -1.11212868
Al       7.90338380       9.44300097      22.68643214      -1.73932460       1.54157404      -0.21317172
Al       9.63890084       7.40893886      15.85521439      -1.39971335       3.68175595       2.13010929
Al       2.15755695       0.67433495       4.63622029       1.33754289      -2.37158568       0.78048800
Si       2.66492914       5.62300325      15.13497887       0.20352877       0.51552473      -0.28590460
Si       4.14023495       7.30803942      18.62485163       3.33513543       1.58654117       2.41546246
Si       7.50237492       4.24489591      11.88945175       1.58446558      -0.58493060       0.27882695
Si       5.77591048       2.33460125       8.34190168      -0.82038696       0.93741628       4.28594883
Si       0.87213343       7.41011840      12.04792604      -0.23509726      -0.35110250      -2.27141637
Si       2.60654366       9.19362855       8.60685307       1.07124636      -0.95208824      -1.60319407
Si       9.10360975       2.52221103      15.43255183      -3.65597305      -2.45458523      -1.15172560
Si       7.30310280       0.64092058      18.97055070       0.90372217      -1.14152386      -1.86910710
Si       0.64994760       2.99637573       5.57138136      -2.66300317       3.92229647       0.93554099
Si       7.06384751       9.20594611      14.65226540      -0.90096800       2.59143380      -0.16246821
Si       9.65125577       7.00436743      21.75605931       2.23659652      -2.34289229       0.27387702
Si       2.82096348       0.40176755      12.62565461       2.66628103      -0.21278215      -1.54780661
Si       8.10653224       5.15810337      15.00200360       0.41173574       2.28314554      -2.52463199
Si       4.64256984       2.22410773       5.61959998      -1.63456510      -0.09833355       1.11262069
Si       2.17658000       4.49523063      12.15700613       1.23438895      -0.48593488       1.66837096
Si       5.37488840       7.68804445      21.58234340       4.09260648      -2.23118839      -1.98264190
O        9.10853355       5.61042306      22.39210773      -1.57267500       0.64654796      -0.42576883
O        4.09388070       1.46252267      12.69173016      -0.95088662      -1.93927996       0.78762630
O        1.89879373       4.10213631       5.70610892      -2.78375221      -1.20427620       0.12795257
O        5.67574318       8.56031724      15.03856678      -1.66734597      -0.07273246      -0.63878872
O        0.82310121       3.58450143      11.98519477       0.56865699      -0.65021823       0.19091053
O        6.57091401       8.78482245      21.69434575       0.27618997       0.59169861       0.18199068
O        9.61605651       5.83475052      15.30751579      -1.14321741      -2.01485996      -1.53419003
O        3.75537506       0.82664103       5.75290827      -2.34668320       0.47570051      -2.28407902
O        3.19223510       6.11773988      18.84740463      -2.20936552       0.06906385       0.34919118
O        4.08330916       6.39217033      14.73452129       0.32025856      -0.52490159       1.84090493
O        6.83685596       3.59054199       8.48957965       0.19552470      -0.14436609      -0.18808882
O        6.30322111       3.17043159      12.10598038       0.26404880      -0.04746822       0.20932829
O        1.38476831       8.06502994       8.46289690       1.96184407       1.24362422      -0.23184377
O        1.76968531       8.77760147      12.26956589       0.33422418       0.10577523      -0.25499925
O        8.84979319       1.15273901      19.31942131      -2.36000943       0.19369575      -0.10812095
O        7.82454958       1.41161532      15.12305651       1.11837397      -0.67877081       0.47936330
O        2.55049180       4.62340034      16.46991485       0.24107332       0.55808667      -0.69727798
O        5.09446174       7.20603074      17.39483029       1.07067816      -0.37844053      -1.83018697
O        7.40996241       5.38091155      10.75248709      -0.84606824       0.29849080      -1.10479070
O        4.59476040       2.15540611       9.61577073       2.61487994       0.08982304       1.38231847
O        9.65050739       7.71392050      17.60884067       0.31408133      -0.50178922       1.21901525
O        2.51958398       0.54402910       2.86909656      -0.45838289      -1.08722992       0.00245369
O        9.79619419       1.95443086      16.73420835       1.21110409       0.05706347       0.44321395
O        7.41919175       9.49325885      24.46870029       1.18362082       0.64432012      -0.59720246
O        9.27619172       8.44900826      22.22628459      -0.44307315       1.77722474       1.68956021
O        1.62833884       0.76973061      11.65335833       0.07598811       0.14536932      -0.46303682
O        0.95236636       1.90309324       4.52171367       1.50215164      -2.62750261      -0.71125169
O        8.14314039       8.41012109      15.38942645       4.30217737      -2.10060185       1.83283506
O        3.65855279       3.95294663      11.71458427      -1.74807612       0.63258246      -0.38375102
O        6.15971448       6.21913702      21.99396153      -0.96585626       1.35436567       0.47974635
O        6.91311163       5.98787051      15.61334488      -0.42621999       0.23177001       0.27269118
O        4.25583548       3.51925624      18.56923474       0.02083091      -0.33593079      -0.49866830
O        9.01611340       3.61843481      11.68562224       0.96533319      -0.75038656       0.75308681
O        6.75790160       1.01922983       8.17573822      -0.14701631       0.20400146      -0.36207277
O        1.52432661       6.86270790      15.24950168       0.69227744      -0.36374694      -0.31274374
O        3.54876293       8.78559034      18.74157431      -1.17472916       1.19257326       0.52875689
O        7.97800864       3.80959035      15.80433645       2.04781037      -2.83083545      -0.14265067
O        6.09491238       1.77423905      18.93049192       2.55790521      -0.39854875      -0.02099301
O        1.83195280       6.03348077      11.69053230      -0.37120164       1.43322337       0.42577550
O        4.11822600       8.36286787      22.29509602      -2.78222012       0.11202227       0.69443595
O        7.84767405       5.09599989      13.29521874      -0.19575132       0.56321585       2.40123685
O        4.71504311       2.71863977       7.20669368       0.08887629       0.09721809      -2.55198937
O        2.46604439       4.53924355      13.90246060      -1.09094453       0.40295030      -0.76764890
O        5.21645359       7.20218251      19.92374882      -0.44993562       0.92919593       1.29840764
O        0.17890941       2.53752280       7.09529193       0.11305838       0.54860394       1.19954399
O        7.28856988       9.13065886      13.04707123      -0.23765965      -0.01065989      -0.58442568
O        9.54010722       6.98545230      20.12450115       0.49538519       0.38412607      -1.12109669
O        2.30470502       0.33109921      14.12344062      -0.78646156      -0.56702951       2.59723081
80
Lattice="9.77192453 0.01751879 6.90363604 0.24348012 9.76890588 6.90363604 0.01370155 0.0133883 13.86910312" Properties=species:S:1:pos:R:3:forces:R:3 energy=-576.38141492 source_file=vasprun.xml step_index=740 time_fs=39480.0 time_ps=39.48 file_index=19 pbc="T T T"
Na       9.51118917       1.17511936       9.88988900      -0.91136978      -0.05746530      -0.89564578
Na       5.47150124       3.72472394      15.40463585      -0.09501431       0.25945264       0.20360684
Na       3.53937065       5.68182155      10.15195695       0.52964059       0.24046075      -0.52360471
Na       1.75650523       0.26580003       9.25343817      -0.19938175      -0.14497883      -0.26464016
Na       6.62208455       0.73326930      13.09126859      -0.02226478       0.01260194      -0.04617207
Na       8.44568153       4.31840009      20.38433631       0.19876906      -0.18447583      -0.28065233
Na       0.52290727       6.46027367       6.03759599       0.39890668      -0.18687268       0.00596477
Na       5.10530605       8.92218715      13.23551120      -0.23217973      -0.86814339       0.38830371
Al       7.01080679       5.43218537       8.90403659       0.60195425      -1.14343859       0.87062278
Al       4.78827233       2.74871864      11.37567883       0.80838304      -1.18977912      -0.22526590
Al       3.08514750       4.45240755      18.28038877      -1.88669812       0.69447916       0.00950172
Al       5.62159237       7.09829900      15.99787708      -0.86435391      -0.31012102      -1.46931322
Al       0.59915060       2.30502791      11.41087130      -0.54780552      -4.21634813       0.50554796
Al       8.01794557       9.39240085      22.77772526      -1.57824618      -0.66749578       1.58077475
Al       0.22474559       7.72515056       8.92130249      -0.73265244      -1.20393613      -0.27441059
Al       2.27548034       0.11217779       4.32921459       0.09867004       1.50667827       0.16203934
Si       2.71179012       5.91486526      15.25036718       3.34906599      -2.20917311       2.22362508
Si       4.55166416       7.13461273      18.87183074      -1.83585820      -0.11955725       1.09406186
Si       7.64118132       3.90307795      11.74154115       1.74850591       0.35661017       0.92624677
Si       5.92664698       2.46617298       8.34295135       0.75027164       1.67147674       0.18794016
Si       1.24761054       7.17465968      11.88408475      -2.70509429       2.42362871      -1.46411295
Si       2.64892933       9.48421582      21.98241749       0.40344994      -2.74959093      -1.57658424
Si       9.11395862       2.47679812      15.37415747      -2.60373091      -0.31449911       1.25508861
Si       7.45885480       0.51832999      18.82476563       0.93379331       0.80778332       2.40989045
Si       0.53218016       2.47742403       5.48942876       0.92142132       0.44629568       0.03860673
Si       7.41757626       9.33189388      14.96440741      -0.70190577       1.78107288       1.48105656
Si       9.66921282       7.14440357      21.74940520       0.80421519       3.41556913      -0.20085318
Si       3.15140278       0.38790346      12.20277907      -0.24500668      -0.28666404      -0.27527915
Si       8.02945898       5.29523632      14.71757651      -2.44301389      -0.72533848       0.77632176
Si       4.70956844       1.91198951       5.53372156       0.17562381       1.68974204       1.86166010
Si       2.31673803       4.42733874      12.53811786       1.36655557      -0.92808628      -0.51918539
Si       5.37879419       7.85751502      21.87911870      -0.70463539      -2.22497198      -0.80988452
O        8.42930285       6.22639863      22.01438755      -1.54894752      -0.60033649      -0.38028691
O        4.54860151       1.04675816      11.75447638       0.60027049       0.61305417       1.02909193
O        1.43184736       3.80669931       5.10777906       0.21929138      -0.58510818       0.07665720
O        6.02245558       8.73600173      15.60564032       0.97556814      -0.03348045      -1.26650467
O        1.15148151       3.31217184      12.69491765      -0.55998990       1.18856300       0.08932551
O        6.61911949       8.86405326      21.80588085       0.80894643       0.18037101       0.49624257
O        9.16886357       6.24536327      15.23666936       1.67090310       0.89020078      -1.41035180
O        3.66509875       0.72569633       5.32487146      -0.73406901      -1.89549192      -0.95829010
O        3.48109639       5.91157158      19.20071219      -0.13832722       0.20172570      -1.19327458
O        3.95976373       7.02415219      15.26525557      -1.74656720      -0.54004432       0.07560984
O        6.88731510       3.89833640       7.98959854      -1.44834733      -1.58824317       0.17186334
O        6.32355849       3.07102773      12.13733329       0.05894171       0.23573367       0.83356004
O        1.51251337       8.19592592       7.82284818       0.80265511       1.14634708      -0.50580263
O        2.48948465       8.23400312      11.65337671      -0.25357202      -1.86544617       1.24117583
O        8.83858014       1.42307412      18.92936682       0.32621959      -0.06972460      -0.50562533
O        7.82998900       1.20234389      15.27483851       2.55848080       4.47064111      -0.55492121
O        2.99582427       4.76712680      16.52203796       0.00492224       1.19433642      -1.24756447
O        5.60675854       6.81312461      17.67718494      -0.62073848       0.17807771       1.14511720
O        7.73191079       4.92696038      10.48934045      -0.83736414      -0.52297099       0.17339923
O        5.20136216       2.76471213       9.74872077       0.09115155       0.40079675      -1.86902852
O        0.25359479       7.32496973      10.57639819       1.22476774       0.25273195       1.73244136
O        1.89361257       0.30239981       2.58143093       0.17915912       1.45256898       1.00917589
O        0.41865506       2.29657058       9.69563787      -0.86101009       0.54953376      -0.87263111
O        7.34951511       9.30150164      24.52458554       1.10957742      -0.04393731      -1.29341220
O        9.59703316       8.72538154      22.48862328       0.29434843      -2.79625255      -0.86449988
O        1.97750205       1.04778856      11.29862387      -0.76014336       0.26702138       0.44656239
O        0.81377175       0.99564337       4.77870656       1.37320485       0.90873543       2.05607132
O        8.74363699       8.88950593      15.75164339      -0.77349897       1.46568339      -0.38335150
O        3.63133907       3.94960194      11.69154658      -1.27234383       0.19859623       0.00161901
O        5.54620260       6.41297570       8.95510611       0.05370087       1.63019898      -0.56914579
O        6.48970587       5.95915362      14.93283300       1.15425209      -0.99153829       0.52024986
O        4.09086775       3.14446010      18.61472755       1.38950949       0.00959858      -0.36449721
O        8.83943463       2.63643297      11.71110885      -2.60881809       1.92893100      -0.53958406
O        6.93938984       1.18673095       8.43427279       0.92906031       0.28887205      -0.18911402
O        1.17310754       6.34679355      15.41835491       1.05310476      -0.00102357       0.41829403
O        3.57256891       8.55765397      18.76037217       0.29310172      -0.89246024      -0.05355758
O        8.13717563       3.94882206      15.82680223       0.98096600      -1.63842878      -2.82117807
O        6.30087956       1.70644772      18.98892953      -0.56625170      -0.69859735      -0.04617271
O        1.78189503       5.67782248      11.66093911       0.12136504      -0.58180736       0.02292275
O        3.99400783       8.58974089      22.41273149       0.90974783      -0.09704124      -0.51008202
O        8.04118431       4.86717977      13.09986317       0.70326752      -0.20581950       0.44723831
O        4.73554768       2.11099974       7.26403567       0.23349249       0.01170701      -1.94627397
O        2.99352097       5.02108591      13.84411270      -0.47896367       0.87894771       2.41038090
O        5.30550468       7.28567966      20.29633353       0.62492694       0.83481313       1.42327708
O        0.34976947       2.37696094       7.17758982      -0.48701082       0.25095750      -0.84298181
O        7.52972039       9.22168044      13.33897265      -0.17413864       0.79339857      -2.11435232
O        0.23327527       7.37501804      13.23532422       1.01638181      -0.46086636      -0.74575290
O        2.83838529       0.79055475      13.81995890      -0.68126468      -1.91482803       1.09191822
80
Lattice="9.77192453 0.01751879 6.90363604 0.24348012 9.76890588 6.90363604 0.01370155 0.0133883 13.86910312" Properties=species:S:1:pos:R:3:forces:R:3 energy=-575.34254793 source_file=vasprun.xml step_index=850 time_fs=39700.0 time_ps=39.7 file_index=19 pbc="T T T"
Na       8.47549284       0.94493914      10.29821467       0.02593216       0.02316346       0.17329235
Na       5.66664832       3.34409409      16.64132692       0.30807775       0.54680314      -0.32603469
Na       3.90758862       5.14825253       9.55752595      -0.21815155       0.41161478      -0.10305290
Na       1.37780540       0.34911333       8.22766069      -0.26937295      -0.45586753      -0.00329490
Na       6.37229151       0.87564056      13.36781225      -0.36634122      -0.16695999      -0.25779514
Na       8.57711156       3.61481643      20.87288208       0.36092312       0.14848113      -0.75330734
Na       0.68041917       6.61128375      18.41137202       0.06409127      -0.04280868      -0.19018212
Na       4.58021465       7.91396051      12.90411946      -0.13366466       0.14396166       0.33309157
Al       7.01766608       5.33410944       8.89282721       1.16543231       3.20316309       2.02106837
Al       4.81692879       2.69247579      11.22945587      -0.09557023      -1.83964019       0.54156351
Al       3.37746898       4.48310933      18.67351892       0.54902436       1.19863151      -2.10021967
Al       5.48162228       7.07286025      16.05484061       0.28168213       0.01895830      -0.22538215
Al       0.53468476       2.09982990      11.36901548      -0.95115393       1.14527482       3.04381251
Al       8.00610097       9.49068985      22.73987695       3.18743144      -0.82603379       0.75083694
Al       9.73873771       7.66328831      15.85576005       0.57272554      -3.71936809      -1.48292400
Al       2.40729690       0.41424905       4.46601364      -1.80832790       0.30667412       0.72118138
Si       2.82368414       5.69160537      15.45767458      -2.58004201       0.52990703       2.47972325
Si       4.82176144       7.46805361      18.99550371      -0.26571963      -1.64881039       0.03509839
Si       7.54898025       4.21766783      11.91340376       1.58815974      -3.83769971      -3.52320557
Si       5.73422369       2.43347265       8.30879817      -1.73086249       3.17663934      -0.72938630
Si       1.17177594       7.24352442      11.76815337      -2.34780494       3.06555846       2.79831521
Si       2.52050253       9.01493525       8.23598924       6.24405850       3.97104008       2.86316036
Si       9.12768182       2.45885089      15.23692053      -1.07445795       1.07735908       1.10787895
Si       7.78906191       0.66356023      18.76788540       0.01991104       0.15334363       2.17391966
Si       0.79406702       3.21990089       5.70244710      -1.38759245       0.43632965      -0.20794069
Si       7.32460665       9.27091108      14.79255392       2.27759771       1.29551386      -0.16441880
Si       9.64719186       6.83074171      21.61025548      -0.11377246       1.28310709       0.30440562
Si       2.92951618       0.27745177      12.46587673       3.08679393       0.86572956       1.19360333
Si       7.71805750       5.29645400      14.72917255       0.58377080      -0.14104352       2.60134328
Si       4.93346657       1.71047835       5.21799255       0.61384843      -1.40887024       1.12008998
Si       2.38062676       4.58723796      12.44236588       0.27940119       0.03403474       1.31373430
Si       5.41242397       8.06367568      21.92840254       1.12477031      -0.91307010      -2.33016534
O        8.28740035       5.82123651      21.68110183       3.09846893       0.83822584       0.00800408
O        4.36026857       1.08769296      11.96246473      -1.14658195       0.37880030       0.22277819
O        1.79872780       4.48395970       5.67000795       0.80560527       0.74090505      -0.52794837
O        6.18955702       8.19539305      14.79283476      -1.99638303      -0.53800938       0.24534960
O        0.96885622       3.73157711      12.27138788       1.38725580      -0.19681438      -0.70414725
O        6.36088280       9.32074617      22.31164600      -0.78796187       0.53931552       0.19119893
O        8.80284190       6.46981267      14.70333983       1.10681794      -0.00693553       0.47935815
O        3.93488917       0.41439054       5.36769755       0.27974960      -0.06258571      -0.46881215
O        4.49836864       5.81244756      19.11573968      -0.75266914       0.85946355       0.53571739
O        3.77666246       6.94713448      15.42491255       2.79216478       1.79370977      -0.96278521
O        6.63839513       3.86697539       8.22444331      -1.34038014      -3.81640110      -0.31816676
O        6.53514978       2.83971713      11.81430597      -0.23459290       1.07465708      -0.76829722
O        1.28458687       8.24354838       7.96614833      -4.59145131      -3.01650788      -1.29261811
O        1.83421238       8.72572904      11.98682113       0.02961274      -0.23565079       0.83218349
O        8.68090253       1.95100582      19.21996473       1.35071885      -0.06965678      -0.80380852
O        8.22677535       1.13864974      14.74921890       0.23561936       1.01947262       1.07236869
O        3.12674759       5.06291096      16.92360299      -0.26102610      -1.57862825       0.48853411
O        5.75136951       7.71133370      17.71354502      -0.55682869      -0.30319628      -2.44416599
O        7.68238914       5.16610354      10.63133185      -1.54930175       0.55640259      -1.57227917
O        4.51297476       2.85759755       9.44746423       1.96343700      -1.09577452      -0.96003946
O        9.93421579       7.10897085      17.48533967      -0.21688536       0.00030789      -2.25419549
O        2.51962829       9.69616037       9.73515213      -0.24652061       1.00872956      -1.07822032
O        0.09654997       2.04095408       9.74878310       0.14735980       0.07071061      -2.27944508
O        8.55125114       9.47911611      24.52983519      -0.19001654      -0.40919734      -2.18441703
O        9.38260178       8.35732432      22.24269869      -1.28865851      -0.28235599      -0.34546909
O        1.61159385       0.78391749      11.75921174      -0.67881338       0.56459036      -0.61355904
O        1.44004353       1.96313288       5.05672321       1.66395841      -3.55437172      -2.00557692
O        8.53845604       8.74971401      15.83176775      -3.90753260       5.13005185      -0.60822077
O        3.69529712       3.89745572      11.73335282      -1.08747608       1.42902108       0.46158949
O        5.93193521       6.76483555       8.85463426       0.32436211      -2.23971435       0.70521505
O        6.39237960       5.56453448      15.65020555      -0.69412134       0.31576316       0.16658238
O        4.20091009       2.87294234      18.28574958      -0.38767799       1.81669155      -0.31082110
O        9.08939902       3.52260635      11.89757479       0.04760045       0.09425383       0.37913486
O        6.56653208       1.11411160       8.61313005       1.85483939      -2.80157411       0.07886067
O        1.29812357       6.48071900      15.65347549      -1.37458777      -1.10752231      -1.36278297
O        3.46365531       8.46335872      19.07584903      -0.27198787      -1.12274486      -0.43581793
O        8.32304863       3.89815670      15.51057553      -0.59826875      -0.76121827      -0.73801168
O        6.34829696       1.23737850      18.22689714      -2.37731686       1.29863405       0.91085335
O        2.36031316       6.20661188      11.72319390       2.33637770      -4.20857284       1.00405116
O        3.82440366       7.97351397       8.43508274      -0.13312439       0.07155324      -0.74851129
O        7.23641655       4.91692899      13.23236650      -1.00109552       1.67929979       2.39982839
O        5.16820574       2.26658268       6.75630237       0.28106252      -0.07930274       0.42042395
O        2.76044512       4.72111429      14.17437653      -0.41784314      -0.52336843      -2.99396563
O        5.81059273       7.99834256      20.16885397      -0.74091315       0.28455948       3.71679548
O        0.47106114       2.83185381       7.23923569       0.56634651      -0.61040538       1.00406560
O        7.83742258       9.50656409      13.19851754      -0.85765304       0.19506312       1.48919660
O        9.89686443       6.98797252      19.97602087       1.22083719      -0.60361351       0.60328344
O        2.87699008       0.44582079      14.18352277      -0.76267675      -0.57976658      -1.80957501
80
Lattice="9.77192453 0.01751879 6.90363604 0.24348012 9.76890588 6.90363604 0.01370155 0.0133883 13.86910312" Properties=species:S:1:pos:R:3:forces:R:3 energy=-575.48205736 source_file=vasprun.xml step_index=260 time_fs=20520.0 time_ps=20.52 file_index=10 pbc="T T T"
Na       8.51330994       5.41708939      17.36199362       0.28375897       0.08974461       0.05135142
Na       8.95116435       2.66889100      21.17317877       0.24216559       0.56112203       0.12700859
Na       2.24708109       6.85973430       7.20594974       0.10157805      -0.60648426      -0.41586555
Na       6.79887400       7.38955649      11.16631412       0.10602562      -0.06849356      -0.11144906
Na       4.22962633       2.38334945      15.48493767      -0.21609220       0.11414340      -0.08501638
Na       7.94285486       0.62683534      11.85775430       0.02877698      -0.07053726       0.02121776
Na       2.70515667       2.16989259       9.41219687       0.43661695       0.65788010      -1.26564802
Na       3.05459715       8.71644120      14.20449626       0.25956699       0.20841683      -0.41301235
Al       7.36600043       5.39313844      22.47279176       1.58464787       1.39733408       1.92425245
Al       4.99499625       3.13576612      11.53783958      -0.22571429       0.88440112      -1.17817230
Al       3.27974659       5.01055957      18.59887303       0.13114132      -2.17427413       0.03989334
Al       5.57762747       7.51452322      15.65656034      -0.30472899       0.58365927       1.34238979
Al       0.75220629       2.39384473      11.47761005       0.54277312       0.76715868       1.53190045
Al       7.96270236       9.65620806      22.98313601       0.94762881      -0.98651719      -0.11885157
Al       9.56985194       8.28725101      15.82880805       0.94066695      -1.93773328       1.70145684
Al       2.57793532       0.80045293       4.39555054       1.11798489      -2.05647670      -0.10387810
Si       2.90861113       6.02415267      15.49375111      -0.11262284       0.04992987      -0.83881714
Si       4.88748259       7.67878747      18.82565935      -2.77323712      -1.12691992       2.74549407
Si       7.85385637       4.46159982      11.79334473       2.64102611      -1.23150700      -1.21332485
Si       5.73833528       2.95185740       8.26737931      -1.55115688      -2.08542964       3.31301204
Si       1.10185918       7.67795333      12.03075302      -1.56211768       1.53804127       0.20257016
Si       2.87011705       9.52110397      22.23867237      -0.63316774       1.06628217      -0.82932971
Si       9.02339611       2.79475719      15.37470136       1.22494037       2.73988085       0.96264655
Si       7.71286298       0.93045124      18.99602569       2.66528559       0.98333840      -0.12143475
Si       0.82320829       3.15431702       5.71505333       2.23089014      -0.37211167      -0.66562291
Si       6.73523359       0.16760704       8.08677923      -0.83583384      -0.25500034       2.30874095
Si       9.75872406       7.06702430      21.77705038       0.44105249       1.89536988      -1.98709620
Si       3.33468639       0.81068282      12.32526379      -2.99885414      -4.50581800       0.67219498
Si       8.00976293       5.83669981      14.43121908       2.31552721      -2.26326251       1.51742135
Si       5.08404527       2.42694460       5.38245030       1.31949393      -0.12115005      -1.73029137
Si       2.42451613       4.77876755      12.93954031       0.32325515      -0.33037879      -1.72882209
Si       5.69146309       8.05408104      21.76276623      -1.74245785       0.53826679      -1.58270538
O        9.12321373       5.51193343      21.90324753      -0.71504204       2.15467138       0.04578306
O        4.68669550       1.56081894      12.32044622       2.19909569       1.92924221      -0.76504052
O        1.92885406       4.36637895       5.74175480      -0.46922606       0.09893098      -0.21415217
O        5.44730935       9.27348440      15.24840874       1.67858667      -0.61302343      -1.20996356
O        1.22849578       3.72634792      12.69565551      -1.19795685      -1.33751895      -1.55472945
O        6.43586655       9.34785413      22.22674357       0.91893912       1.95050353       1.00290523
O        9.20858940       6.69425887      15.08992965       1.32334996      -0.08306164       0.12223104
O        4.22083438       1.14702315       4.99000038      -0.43559075      -1.40204750      -0.55664687
O        3.88972866       6.35178288      19.35020537       2.09346679       3.75934877       1.56357576
O        4.22029416       6.80745910      14.89596749      -1.65863582      -0.36568035       0.15418597
O        6.69504231       4.06267722       7.74358177       1.96777756       1.06984517      -0.23573426
O        6.69369732       3.39091314      11.95768405      -1.31749944      -0.37413047       0.56165921
O        1.44425336       8.62102277       8.35041882       0.48154766       1.30482999      -0.38418730
O        2.10947935       8.99586266      11.89703976       0.62051663      -0.76751003       0.69228602
O        9.29280179       1.57517734      19.26312108      -1.74496219      -1.19833639      -1.01977121
O        8.26128184       1.40973488      15.37850509      -0.44597831      -0.28675056       0.65751343
O        3.06111730       5.68186777      17.03381304      -0.99916951      -0.50131245      -1.18322725
O        5.55749586       7.31856425      17.44648315       1.14877299       0.25935008      -1.49602532
O        7.65619678       5.35191609      10.47840986      -0.56773475      -0.05016858      -2.19777684
O        4.80940789       3.25136719       9.61207714      -0.02780709       0.01794782       0.63967136
O        9.94183102       7.79825773      17.57539922      -0.13412360      -0.74372622      -0.30810404
O        2.68139093       0.91473005       2.63131527       0.17092153      -1.29247333      -0.62841269
O        0.16092575       3.10881742       9.98540898      -1.04060596      -0.52358768      -2.55621951
O        7.72424584       9.51905002      24.80995165       0.45309358       0.39205675      -0.52081243
O        9.14636555       8.35562055      22.58416658      -0.56665529      -0.66489020       0.90378533
O        2.19484100       1.29827279      11.22571897      -0.33694530       0.77495696       1.17772366
O        1.45986383       1.82436390       5.01604488      -1.78710179       2.24001915       1.14651749
O        8.07320847       9.16023167      15.95787333       0.03029008       0.46880637      -0.65526275
O        3.75369393       4.28251889      12.07067183      -0.10000953       0.21362980       0.60664410
O        6.26077300       6.76154561      22.46128793       0.32908433      -1.35681567       0.70279942
O        6.77501305       6.68186539      14.76986721      -1.93349153       0.57232966       0.17833056
O        4.57641309       3.76712976      18.58661369      -0.50550544       1.05672085      -1.24723895
O        9.24892461       3.44843594      11.82021177      -2.68426114       1.35168822      -1.24555921
O        6.54321369       1.59837723       8.86622009       0.72977214       1.21538860      -0.90886023
O        1.68847794       7.07091898      14.98270071      -0.98799382      -0.63177818       1.69477917
O        3.72667727       8.90469389      18.80172517       1.07645066       1.25329259       0.20978618
O        7.94789642       4.20075268      15.21019433       1.40509032       0.19638481      -0.41920576
O        6.82427238       2.24045353      18.70418036      -3.22140085       0.89596641       0.75434635
O        1.97052898       6.33744975      12.45886213       0.30682478      -0.82392828      -0.56055238
O        4.05421169       8.35852058      22.27090657       0.58066040      -0.40619112      -0.87243412
O        8.25254995       5.63814286      12.85336082      -0.59552652       0.04644324       0.20644619
O        4.88732724       2.56287569       6.97144211      -0.50661136      -0.71034930       0.98455137
O        2.63711781       4.64085034      14.56915963       0.84018860       0.85376545       0.62921954
O        5.97544515       7.98896896      20.10672859      -1.39822598      -0.32488061      -0.73258664
O        0.35069871       2.73096799       7.21279317      -0.51058110       0.12106596       2.26257087
O        7.48285252       0.48194740       6.67060023      -1.15103566      -1.33560722       0.82755992
O        9.64853453       7.86897734      20.18426122       1.62600907      -1.58149276      -0.25404830
O        2.79865143       0.77399924      13.95073215       0.12928589      -0.70992926      -0.03527003
80
Lattice="9.77192453 0.01751879 6.90363604 0.24348012 9.76890588 6.90363604 0.01370155 0.0133883 13.86910312" Properties=species:S:1:pos:R:3:forces:R:3 energy=-574.75574629 source_file=vasprun.xml step_index=780 time_fs=57560.0 time_ps=57.56 file_index=28 pbc="T T T"
Na       7.56348637       7.71639781      18.49907129      -0.17474797       0.18866419       0.45716831
Na       7.70329327       3.86398417      19.92188018       0.02390908      -0.18556800       0.32561235
Na       0.89980929       6.74317469       5.93280851      -0.15837479      -0.25105236       0.40147732
Na       4.66436530       7.83072111      12.63420875      -0.06586595       0.28596228      -0.04571890
Na       1.88899739       2.08832662      15.71582258      -0.09754701       1.65731742       0.17656544
Na       5.90360205       2.00345546      14.08391827       0.16589520      -0.57402945       0.54189556
Na       2.30365747       1.33989331       8.99653230       0.07434250       0.18452290      -0.32668234
Na       2.73490603       5.76806187       9.30354811       0.15692044       0.02080826      -0.09073422
Al       6.77726505       4.98631385       8.95733460       1.77294664       4.09807132       0.52407388
Al       4.92583768       2.68669635      11.48047013      -3.65398293       0.73594155       1.54138811
Al       2.81895831       4.57176836      18.67362654       2.93223957      -1.12686708       0.49179937
Al       5.34938974       6.71779651      16.00653359       3.05954583       1.41725885       0.81532840
Al       0.43573809       2.08934134      11.41251708      -0.27650817      -0.35746960      -0.23862301
Al       7.62867345       9.30116267      22.95049223       1.43842279      -1.56362787       0.92926682
Al       9.31312862       7.51971284      15.98538098       0.91124598      -2.08107524      -2.41910572
Al       2.16169580       0.21863861       4.33485199       1.30822835       1.34647458       2.20528669
Si       2.49617294       5.32735180      15.70970247      -2.37568435       2.29075331       2.55794775
Si       4.35989246       7.37572649      18.88385596       1.97661118      -0.67108649      -1.08510626
Si       7.47683757       4.28135108      11.90951069       1.31988720      -3.38982161       2.77043874
Si       5.57808412       2.28036122       8.49479872      -3.28649570       0.38413406      -0.59743922
Si       1.14749797       7.16938571      11.91408260      -1.80503524      -0.96846300       2.19776992
Si       2.08489384       9.16244412       8.09588850       2.92204925      -4.60379261      -0.28378550
Si       8.85220237       2.18051219      15.25472521       4.36775409      -1.56790508       1.15098129
Si       7.48481097       0.64035549      19.22084637       0.36282179      -1.44655571      -1.48795099
Si       0.56822217       2.93350166       5.80662462      -0.22571032      -0.72170521      -2.95389890
Si       6.85712712       9.13375355      14.88875825       2.08214396       0.68207265       1.27056262
Si       9.42627160       6.62784513      21.71771468       0.27023794       4.88606207       1.05143082
Si       2.94406719       0.56153271      12.31551401      -0.45094240      -3.08879105      -0.66470027
Si       7.80560714       5.04539739      14.79579596       2.51924230       1.65093297      -3.07544288
Si       4.60084304       1.91254426       5.62086553       0.49176136       0.64630511       1.48946361
Si       2.25632580       4.51173522      12.67466100       2.24378808      -2.51848087      -1.41032261
Si       5.08623609       7.62612115      21.81532913       0.66392009      -0.06603229      -1.02913171
O        8.41021056       5.47699841      22.02417306      -1.73761493      -1.72532777      -1.11115984
O        4.28740362       1.33973141      12.45576384       1.74208014       0.92986110       0.17828942
O        1.56698015       4.32568945       5.97789044      -2.02994740      -2.50651097       0.09244364
O        5.62669995       8.10625272      14.77259901      -0.96580827      -0.50543876       0.33785854
O        0.93584503       3.64912329      12.12989379       0.41093305       0.27890366       0.89058100
O        6.05987070       8.82108057      22.47550696      -2.93805880      -1.54049972      -1.23237747
O        9.17454493       5.91417239      14.90539282       0.46630004       1.81959346       1.76276304
O        4.00454203       0.62966370       4.84766746      -2.07162305      -0.99288566      -0.12296018
O        3.31110482       6.18442416      19.12748618      -0.51768606       0.27489681      -0.19393777
O        3.83363083       6.13254235      16.05868291      -2.63970750      -0.64638029      -1.41071436
O        6.54745967       3.56451894       8.15838542      -1.07603233      -3.55059641      -0.94567106
O        6.30293819       3.12562130      12.29524298       2.40658435       1.35694278      -0.77622355
O        0.84847192       8.16257378       7.89338490      -1.22058914       0.65914391       0.90468007
O        2.18200370       8.38792581      12.02707882      -0.15296313       2.12829736      -0.79269882
O        8.96849150       1.31326998      19.33122456      -0.06497628       1.26880677      -0.43766609
O        7.94428486       0.91842574      15.15321173      -1.81996564      -0.27701172      -0.36518601
O        2.28582372       4.38227269      17.06158281      -0.67867304      -0.05400346      -2.48340868
O        5.59941704       6.97503619      17.79275207      -1.43943607       0.77515253      -1.13002895
O        7.58978577       4.98801246      10.54553715      -2.03437430       0.92921518      -2.45867285
O        4.60451657       2.59070944       9.83374991       1.17850413      -0.12854214      -2.18911766
O        0.35091469       6.73531182      10.54991069      -0.99269152       2.20574612      -0.76042093
O        2.01193092       0.09311727       2.61666319      -0.24261104       0.02673179      -0.48492058
O        9.74052315       2.23257685      16.62808875       0.01508046       0.03932191       0.36941942
O        7.44080906       9.55810727      24.74444876       0.54655694       0.92603533      -0.12488620
O        8.75288473       8.08203852      22.28995790       0.51846394      -1.32992792       0.37940528
O        1.82767813       0.97269272      11.21929025       0.00459181       0.84659233       0.82122084
O        1.18484129       1.64963046       4.72323032      -0.00649291       1.50990036       1.31707238
O        7.87489137       8.55538096      16.11745787       0.86394692      -0.74269688      -0.40373995
O        3.69426318       3.86700113      12.12214709      -1.41896858       0.75359940       0.20391093
O        5.30109879       6.05042985       8.57005881       1.04407420       0.74737061       0.21571605
O        6.64878165       5.65502337      15.57901601      -2.59523664       0.45495167       1.95111763
O        4.28845871       3.36280988      18.85234056      -1.26566179       0.84970582      -0.02044942
O        8.85735257       3.33161731      12.03292310       1.27586953       0.10564276       0.46018383
O        6.24137549       0.84589668       8.73509554       1.13238911      -1.59611711      -0.90711613
O        1.16926090       6.36800311      15.38522443       1.18308033      -0.66166578       1.26706298
O        3.64088122       8.80641964      18.72059673      -1.26780922       0.50756038      -0.53383990
O        8.10198155       3.50852222      15.09192006      -2.63344488       1.74670129      -0.16992219
O        6.28829302       1.73409332       5.70736560       0.23520093       0.25946209      -0.41160244
O        2.28877047       5.99232556      11.95676432      -0.02475390      -0.78447463       0.90139235
O        3.37592086       7.73288431       8.05721089      -0.03070731       2.13794670       0.50652584
O        7.48060560       5.27391536      13.16225850      -0.48171800       0.50732309       0.75217683
O        4.30389640       1.95793696       7.36282306       0.89010124       0.29989759      -1.05241804
O        2.41236910       4.55349398      14.34458547       0.13381131      -2.32568307      -2.67363351
O        5.42387795       7.64556959      20.06637665       0.62739058      -0.11028535       4.54426809
O        0.27528993       2.14202114       7.18061282       0.30958701      -0.21724007       0.83603932
O        7.73305683       9.24313143      13.44516146      -1.55366928       0.02237031       1.98384114
O        9.74888701       7.16979961      20.14173595       1.15718493      -0.80633867      -2.79495623
O        2.33516392       0.39064332      13.87475725      -0.72706202       0.84304293       0.13794739
80
Lattice="9.77192453 0.01751879 6.90363604 0.24348012 9.76890588 6.90363604 0.01370155 0.0133883 13.86910312" Properties=species:S:1:pos:R:3:forces:R:3 energy=-573.87262781 source_file=vasprun.xml step_index=665 time_fs=41330.0 time_ps=41.33 file_index=20 pbc="T T T"
Na       7.55443273       8.70471646      18.79352763       0.07512660      -0.22767953      -0.42590098
Na       1.71457824       2.77064499      16.42521960      -0.06513805      -0.10970272      -0.13599431
Na       6.05274619       6.66741731      11.69413047      -0.36681588       0.47059067      -0.01327351
Na       2.30169435       8.87237857      15.55900968       0.06566847      -0.27671927      -0.17811804
Na       8.01825463       3.70042411      19.98029671       0.32994295      -0.12747685       0.00786117
Na       5.41595804       1.18066318      14.58075226      -0.10251739       0.72851069       0.03049071
Na       0.43021771       8.48197741      19.44782574       0.48137242      -0.27789895       0.30918185
Na       2.67441964       3.27970446       7.87734595       0.40403044       0.23296789       0.12875324
Al       7.02543419       5.49014153       8.77700968       0.89557505       0.10127317       0.09497096
Al       4.73867222       2.68173849      11.10766979       2.06741118      -0.26231303       0.78781257
Al       3.45861390       4.52198041      18.46441160      -1.30167714      -3.42016284      -0.89870694
Al       5.62541272       7.23050216      16.02708119      -1.88312887       0.40641551      -0.91257659
Al       0.86095125       2.20172700      11.37498415       0.51965798      -0.43927213      -0.92088872
Al       8.39604872       9.54318862      22.81045150      -0.67480486       1.68267516       1.02265281
Al       9.80941126       7.97058408      15.87544536       0.43304973      -0.48040555      -1.50557845
Al       2.40795597       0.36980039       4.47403771      -1.76773691       0.17697305       1.13937443
Si       2.68987887       5.66891441      15.44374113       1.04766093      -2.46810834       0.73918924
Si       4.75261134       7.08994511      19.20497455       1.94009755       0.57819968      -1.00395602
Si       7.58341131       4.18145000      11.64125401       1.81425492       2.82149368      -1.93546672
Si       5.72917207       2.73157509       8.20196557       0.19623727      -0.77073876      -2.30406616
Si       1.27420383       7.36461645      11.87265691      -0.74363212       0.81257602       2.31792538
Si       2.80893196       9.26821792      22.15335325      -2.09998451       0.37180273      -2.62514660
Si       9.32239107       2.83143480      15.33232835      -2.47738725       0.90180958       4.86505215
Si       7.97645955       0.59884800      18.95653628       0.63174766       0.71303253       0.13591528
Si       0.77914726       3.08384201       5.61604307      -1.65743681      -0.38949262      -1.04326865
Si       7.58087630       9.69765354      14.98784521      -1.70461902       1.19952051       2.47921691
Si       9.79215507       6.98508528      21.46577225      -4.55233506      -0.18626744       0.22590890
Si       3.39894148       0.22703149      12.27102413      -4.00153567      -0.64232104       1.03641226
Si       7.80011826       5.55948224      14.61009348       0.79208274      -3.16697326      -1.14115429
Si       4.98059747       1.78483837       5.26481028       0.08631076      -0.36269677      -0.76051046
Si       2.50448372       4.55225078      12.56264757      -0.62681445      -1.92883423       1.52885051
Si       5.74709974       8.03884123      21.89504249      -1.16014632      -3.94424861       2.38427951
O        8.72214330       5.89304706      22.09278527      -1.15200246       0.26805905      -1.33485226
O        4.74076046       1.09169114      12.01340464       0.03957768      -0.17675538      -0.05881484
O        2.00701244       4.06170124       5.58675177       1.40537186       1.09051455       0.47219240
O        6.12599487       8.92098641      15.58618183       2.08598557      -0.05808898      -1.52651608
O        1.24958952       3.44490691      12.47893798       1.05961787       2.40221726       0.19066296
O        6.68025316       9.16035401      22.41149559       2.74600103       2.57520399      -0.30028654
O        8.93831949       6.69794169      14.81988516      -0.03405694       0.62986381       0.36866753
O        4.11612075       0.47335393       4.79366452       0.21816735      -0.17798801       0.87884300
O        4.15430578       5.62960537      19.48518854       1.60359964       1.95228469       0.91205303
O        3.78710254       6.81780482      15.33862118       2.44588655       1.32940333       1.08167143
O        6.26064029       4.21948110       7.69709553       0.86763079      -0.41093254       1.58302813
O        6.45591891       3.17757495      11.24266484      -1.03833987      -1.97502633       0.84037200
O        1.46447486       8.31241430       7.74636701       0.53449391       0.69691958       1.99029704
O        1.96470270       8.80430701      12.43756227      -0.33673548      -1.06470049      -2.20794751
O        9.33312875       1.53528407      19.18670148      -2.30070778      -1.26256849      -0.05797456
O        8.34499585       1.59756381      15.64330049      -0.48232244      -3.63167977      -0.64781248
O        2.57053147       4.93361403      17.01747873       0.47119374       0.83273095      -3.05299455
O        5.56965187       7.29178169      17.77993601       0.15436071      -0.56431003       0.61747526
O        7.29530132       5.44624446      10.48991644       1.54694647      -2.83693451       1.36216469
O        4.67964126       2.59773243       9.40762279      -0.71457101      -0.00355661      -1.34920483
O        0.48280962       7.15886068      10.48121922       0.84435934       0.90416312      -0.53291511
O        2.01232189       0.28756002       2.72581060       1.28976663      -0.41280327      -0.68398449
O        0.31219222       3.09050766       9.90892724       1.18798355      -1.10729119      -1.08873747
O        8.37572679       9.35140402      24.60509702       0.45138218      -0.07717642       0.19506706
O        9.52896287       8.49355284      22.05009198       0.29672163       0.46257935      -0.07965775
O        2.09302585       0.70299071      11.28392429       0.78604758       0.32645812       0.14387675
O        1.20303428       1.71839079       4.91767628       1.18091330      -1.57131111      -1.15787234
O        8.75097232       9.44108098      16.22613994      -0.62092725      -1.19728335      -2.34116519
O        3.66788242       3.89103724      11.60744447      -0.84906272       1.42476532       1.04337029
O        5.80543629       6.70968262       9.03579891       0.04314459       1.22927458      -1.89546003
O        6.36803780       5.88140212      15.23935955       0.05684324       0.66977886       0.28090474
O        4.42310002       2.90426324      18.09792370      -0.57103188       2.58757810       0.43701414
O        9.16699982       3.70275645      11.82058652       0.35920600      -0.97593764      -0.44082313
O        6.96663103       1.65121408       8.16636434       0.89326733      -1.75187186       0.12980105
O        1.35212446       6.51520732      15.17201069       2.57303094      -0.58140482       1.18331956
O        3.59777928       8.21930822      19.17750801      -0.54639086       3.18030643      -0.02051300
O        8.20873881       3.99371824      15.17974607      -0.24902679       2.70339901      -0.71562240
O        6.64076616       1.50828507      18.91040164      -0.98221858       0.76722160       0.00311756
O        2.31522055       6.20308018      12.38726780       0.77139446      -1.67184882      -1.14540550
O        4.27064036       8.54325389      22.25726870      -2.50988928       1.12328565       0.01133071
O        7.49437028       5.08926433      12.94159318      -0.82536616       2.42939215       3.68391299
O        4.82560601       2.25042308       6.84407215      -0.66538810      -0.03247360      -0.00246664
O        2.80239151       4.36999741      14.26149108       0.10412580       2.04171538       0.77847994
O        5.96113615       7.66048484      20.32319717      -0.81390134      -0.42670710      -1.26319892
O        0.51891347       2.74185084       7.21194428       1.73888387      -0.31508496      -1.37627671
O        8.11157760       9.42591726      13.39353073      -0.47866794      -0.23426985       1.31224115
O        9.76022431       7.03158920      19.84203306      -0.16069504       0.53498384      -0.47074586
O        2.81636884       0.61848772      13.86472536       1.00372027      -1.35937415       0.81525996
80
Lattice="9.77192453 0.01751879 6.90363604 0.24348012 9.76890588 6.90363604 0.01370155 0.0133883 13.86910312" Properties=species:S:1:pos:R:3:forces:R:3 energy=-572.5770678 source_file=vasprun.xml step_index=200 time_fs=30400.0 time_ps=30.4 file_index=15 pbc="T T T"
Na       3.45102171       2.63995979      15.98639257       0.06324934      -0.87313648      -0.55490084
Na       5.62079651       4.71035916      20.32419900      -0.38394751       0.91414158      -1.93036247
Na       2.86983506       3.82345412       7.89205481      -0.13082911      -0.33716363       0.29006625
Na       2.18865127       8.84412183      16.16119078      -0.06368623      -0.01611455       0.17491335
Na       7.91666724       9.32763742      17.98701249      -0.23685245      -0.21575162       0.45010086
Na       8.69667832       3.18344737      21.43703161       0.73579035      -0.25787175      -0.60562470
Na       9.52970986       6.98510032      12.35294189      -0.33704256       0.05524776      -0.06570535
Na       3.89913915       7.50027139      12.43994972       0.37945713      -0.01436733       0.30095458
Al       7.00118245       5.35527695       8.83370046      -0.61976357       2.06985589       3.11437856
Al       4.74118916       2.41112732      11.17053398       1.46218126       1.10291834       0.57145580
Al       3.43445060       4.61995499      18.26847097      -1.76895242      -1.69615647       1.02695876
Al       5.53374383       7.28267256      16.08481798       0.18664072       0.37558105      -2.36429798
Al       0.62179608       2.12886192      11.56926732      -1.10434281       0.77463034       1.94870348
Al       8.18690905       9.50641991      22.76712979       0.26324486       2.00684265      -0.46127493
Al       9.70940296       7.68719375      15.59133653      -2.60915062       0.43282172       1.53734732
Al       1.99031001       0.19291476       4.50147894      -1.51832340       2.32710078      -0.96271620
Si       2.74842201       5.69728736      15.42662439      -0.41272281       3.04237595      -3.00126146
Si       4.74139381       7.57912735      18.90367848       0.17505222      -0.44039306      -0.66390555
Si       7.37287736       4.22214658      11.84099430      -1.52938179       1.50807794       0.64186126
Si       5.83814082       2.26948164       8.18169446      -3.21439114       2.92301381      -0.04444036
Si       0.87560480       7.13577195      11.65070454      -0.94237182      -2.72764467       0.59712292
Si       2.44697094       9.08736372       8.26118032      -0.41008144       2.58300262      -0.56732665
Si       9.25003780       2.75149534      15.50150117       2.86215765       2.83767146       1.30678659
Si       7.65604439       0.62776798      18.94030626      -1.63913282      -0.47379334      -1.31852889
Si       0.61470300       3.10658821       5.75804024       1.60864288       0.74008891       2.28064353
Si       7.24954821       9.43299906      14.92776519      -1.22052463       2.11635148      -5.54446373
Si       9.57299192       6.80269798      21.62410508       2.17452439      -1.64617792      -0.38858501
Si       2.78760322       0.32564062      12.34976871       3.18976588      -0.80638492      -0.62372841
Si       7.74721282       5.35347921      14.63747629      -3.66848223       2.26820244       0.49635775
Si       4.56058773       1.78483661       5.20987800       3.87797620      -5.52859780       4.25746852
Si       2.54033805       4.48802819      12.27774226      -3.88159755      -1.18993029       4.50916266
Si       5.50674962       8.12141588      22.01288990      -1.79174878      -0.56675671      -1.68219826
O        8.52865423       5.53501863      21.80684669      -0.82160821       1.07159358      -0.13234310
O        4.32718344       1.09687229      12.28200137      -2.28915199      -0.67221965      -1.06830181
O        1.93725264       4.16210166       5.54419481       0.45471491       0.46759296      -1.84158043
O        5.79631051       8.84680271      15.04263726      -1.03307518      -1.34295241       1.39536818
O        1.22403815       3.41812263      12.82674724       1.68682646      -0.40518295      -2.50837072
O        6.57991323       9.28148112      22.19498386      -0.39799303      -0.01009622      -0.29435690
O        8.78487693       6.62111483      14.56356705       1.18176311      -0.65254700      -0.91888414
O        3.60256510       0.46361587       5.05736032       0.81689696       0.02910200      -0.07572199
O        4.36473521       5.94413740      18.93363093      -0.70928745      -0.74742120      -1.03265961
O        3.78820443       7.08924364      15.54022389      -0.91795289      -1.66562604       0.61479542
O        6.35798828       3.91467585       8.09952224       0.67124542      -2.01773046       0.71567929
O        6.44501541       2.90089463      11.76438927      -1.18007036      -0.21349411      -1.32591895
O        1.48700187       7.83226145       7.96228310      -0.64092587       0.00090915      -0.12086281
O        1.78029668       8.38968845      11.93973811       1.41355730       1.53038371      -0.07409146
O        8.89344564       1.47744039      19.52139988       1.57922627       1.47461669      -1.30124511
O        8.58964772       1.35554561      15.23784654      -0.38070320      -1.96982684       0.14656434
O        3.00652200       4.66386281      16.58905719       0.28193334      -0.51032860       0.70715927
O        5.86834994       7.89271580      17.68211560      -1.87871382      -0.12274478       1.80574558
O        7.40449753       5.35957622      10.60436021       0.13775459      -1.88348665       0.06634385
O        4.71398898       2.33808790       9.35333025       0.35114515      -0.79880860       1.48370063
O        9.53697247       7.44692102      17.37049936       1.82706479      -0.92220038       0.85013201
O        1.67588005       0.29509666       2.58396671       0.68093135      -0.35495202       1.63436563
O        0.26395264       3.00871666      10.12939509      -1.39212860      -0.91108712      -2.41149560
O        8.32545611       9.50162328      24.46216460      -0.55524560       1.28604271       3.06418478
O        9.25566504       8.22580807      22.33886622       0.64817746      -1.30311945      -1.38872621
O        1.71404584       0.72234090      11.18918782      -0.17308746       0.71625379       0.63870441
O        1.08035187       1.57201908       5.45048183      -0.37879255      -0.50461789      -1.52061124
O        8.36226728       9.07022767      15.89281473       4.22069701      -2.52376981       0.94849101
O        3.72303898       3.83507321      11.49813394       0.66098924      -0.43459189      -0.62441391
O        5.64783656       6.77155246       9.02975564       1.92583863      -1.94791119      -1.05821989
O        6.60321725       5.95905433      15.68388113      -0.47341652       0.21590229       0.00073108
O        4.19611279       2.90735104      18.16540784      -2.42514321       6.44351477      -2.99705634
O        8.86184030       3.65775692      12.20291135       2.83046106      -0.52693789       0.04423940
O        7.15919230       1.37406886       8.31379273      -0.92189546      -0.13186162      -0.55029701
O        1.16177829       6.20713299      15.58364257       0.36101861       0.74873909       0.00530585
O        3.30402541       8.41986537      18.93313891       0.61405553       0.41951174      -0.66043514
O        8.18044484       3.96418277      15.22956041       0.43852639      -1.33987565       0.71365720
O        6.19067898       1.56277884      18.69532332       1.39490432      -1.14728911       0.06886817
O        1.89039349       5.79417576      11.61217081       0.40743963       1.37536783      -2.56099357
O        3.92970081       8.60237889      22.36511965       2.91966215      -0.68133358       0.31457351
O        6.87177231       5.16616103      13.20872606       1.81168182      -0.66795391      -0.76722557
O        4.69403195       2.19653354       6.88317583       0.78113191       0.30778703      -0.53162398
O        2.88167411       5.10768457      13.87803505       1.07816181      -0.20807990       0.00995060
O        5.48644320       7.63462820      20.30337363       1.18576394       1.13074480       3.32245313
O        0.74639872       3.33445680       7.51673486      -2.00834496      -2.02988588      -0.71883194
O        7.45870845       9.36710734      13.17864615       0.34780301      -0.84805402       2.11114227
O        0.34707103       6.67955151      13.12850199      -2.52064004       1.25011341       1.88835316
O        2.35431351       0.38179042      13.89200914      -1.10771011      -0.26093128       1.24480537
80
Lattice="9.77192453 0.01751879 6.90363604 0.24348012 9.76890588 6.90363604 0.01370155 0.0133883 13.86910312" Properties=species:S:1:pos:R:3:forces:R:3 energy=-574.99412393 source_file=vasprun.xml step_index=960 time_fs=59920.0 time_ps=59.92 file_index=29 pbc="T T T"
Na       7.94039405       4.20252660      19.60041231      -0.05044631      -0.17619599       0.24441927
Na       8.73245265       1.93429385       9.82123705      -0.21395495      -0.33791602      -0.32501225
Na       0.72841165       7.51038552       5.95549746       0.20317210      -0.50715752      -0.04620198
Na       3.59312724       8.65564060      14.15815430      -0.20551157      -0.19543886      -0.43438863
Na       4.27843861       2.31726572      15.75140060      -0.17017269      -0.05936177       0.24755806
Na       8.02772354       9.54856948      19.84313714      -0.34065861       0.23634691       0.03676667
Na       2.17549448       2.62105190       8.27335309       0.24900775       0.06904280       0.06509347
Na       3.47162301       6.04064722      10.17157635       0.36431873       0.20317314       0.05139260
Al       7.23992295       5.19451727       8.86685449      -1.37182501      -1.01648503      -0.36185271
Al       4.29525867       2.90920580      11.26938164      -0.60815387       1.22919392      -0.29196455
Al       2.36498574       4.42545547      18.24210016       1.93541061       0.89758840       1.17429822
Al       5.47239416       6.76302888      16.09986863       1.64468657       0.50328862      -1.29929171
Al       0.28112783       1.70581110      11.54086586       2.36865703       2.60109899      -2.17662684
Al       7.70898913       9.32977167      22.82405041      -0.15775867      -1.01626719       1.02802450
Al       9.53131689       7.96975046      15.71761335      -0.91875644      -0.81246838       0.54342208
Al       2.05179484       0.18868999       4.42140561      -0.05229321       0.99774254       2.28547988
Si       2.59253305       5.73435747      15.18616168       1.37426569      -2.49659850      -1.96906765
Si       4.32885353       7.03153800      19.09248566      -2.08525839      -3.36447654       0.36397623
Si       7.14029115       4.09384023      11.85147771       1.03988560      -1.86906936       0.99403361
Si       5.58631880       2.47499596       8.30278884       1.36032661       2.50872122      -1.75412379
Si       0.60169234       7.40729080      11.92228607      -0.53916653       3.59048103       0.26234833
Si       2.79165730       9.10606024       8.39118028      -0.82557727       2.44021688       0.74891325
Si       8.92156863       2.40959344      15.36603038       2.05258393      -3.82190152       2.21339156
Si       7.06478036       0.72867658      18.67197809      -2.99323851      -3.76236464       1.86565939
Si       9.83023696       2.56316978      12.45115467       1.71046671       1.30623959       1.28386509
Si       6.80846061       9.31046347      14.77431567       2.20518469       1.57203490      -3.95226852
Si       9.56111092       7.04417973      21.80452594       1.57802147       1.52255882      -2.24873395
Si       3.04523494       0.34527382      12.58013431       1.96230032      -0.20427115       1.13919527
Si       7.90002884       5.20078993      14.69038877       1.48481837       2.15139417       5.20677092
Si       4.35382583       1.93940527       5.41627394      -1.80472038       2.10681641       1.19892364
Si       1.70878360       4.44585635      12.24084891       2.62367681       0.13720246      -0.12293662
Si       5.31409120       7.37510494      21.96570667       3.45648948       1.55762946      -0.71163995
O        8.61975047       5.77415930      21.83163648       0.08439862      -1.17841484       0.06147724
O        4.05093786       1.39204223      11.91355965       0.28896463      -1.46254471       0.77107571
O        0.95369033       3.99098223       5.47615303      -0.41673939      -1.51102544      -1.51026689
O        5.61985580       8.38241202      15.13933812      -1.29466869      -2.19096765       1.64497213
O        0.49103587       3.40561051      12.30114774       0.05107744      -1.15288499       0.09601769
O        6.39449284       8.74565945      21.74900212      -1.19430434      -1.83165173       0.41742682
O        9.01586560       6.47801994      14.88792245       0.18887817      -0.98305964      -0.46117566
O        3.19707451       0.76987446       5.79698849       1.10924956       0.42855609      -2.23791309
O        2.98292678       5.91830458      19.23150490       0.75128566       0.99173079      -1.47268108
O        4.12231020       6.27311812      15.25771599      -3.52392353      -0.50883094      -1.22761181
O        6.67274102       3.78776428       7.81980244      -0.19796922      -1.21458550       1.50482568
O        5.60748848       3.58604214      12.07710725       3.31876816       1.82051426       1.08978241
O        1.23395342       8.56908431       8.06533678       2.24670816       0.27545604      -0.10293647
O        1.97597278       8.42309708      12.11073531      -1.30048734      -1.82317044      -0.14089052
O        8.44723293       1.44579132      18.72233486      -0.26372852       0.29886693       1.04458860
O        7.74708482       1.18300495      15.26392648       1.38132209       1.09594916       0.02630273
O        2.18170378       4.85232671      16.46656683      -0.15786516      -0.88856099       1.17588840
O        5.21751700       6.74689388      17.77014522      -0.15377803       0.91573692       1.73804964
O        7.71849265       4.70789809      10.45734859      -0.37884679      -0.84405143       1.49765763
O        4.92971704       2.91761600       9.70169823      -0.13182004      -0.70812873      -2.57546489
O        9.62763691       8.18466089      17.48822325       0.77336672      -1.91345370       1.47334206
O        2.64129532       0.38734349       2.81312999      -0.10198019      -1.73170684      -0.80870035
O        0.29656430       2.27370117       9.75445204      -0.81999472      -1.22360755      -0.25906794
O        7.12499510       9.30629535      24.51450552       0.84961562       0.64077784      -2.40822846
O        9.19677955       8.19736117      22.81008631      -1.27717797       1.67860815       0.81955690
O        1.67414114       0.68794581      11.90375096      -3.12692682      -0.14745950      -0.12911569
O        0.73431030       1.38208705       4.62655901      -0.82250100       0.11929362      -0.30405046
O        8.27310107       9.07333395      15.36682134       0.20829225       0.01055403      -0.12104831
O        3.02378255       4.14484698      11.13775899      -2.42329566      -0.48551936       1.14569934
O        5.91144168       6.34269799       9.24877078      -0.72240946       0.40364851      -1.42507924
O        6.66642096       5.57423448      15.64602691      -0.62686172       0.78235223      -0.34109574
O        3.88241593       3.25611783      18.35613076      -2.20858139      -0.48663153      -0.15626306
O        8.20733896       2.60141738      12.08072291      -0.33170407       0.80026997      -0.71826143
O        6.37134708       1.03477368       8.46043097      -0.97023394       2.64475361       0.57833506
O        1.51294815       6.87041025      14.86367583      -2.46294964       1.06558369       0.11984607
O        3.68952244       8.51886474      19.23662322      -0.36607857       1.24229868       0.03351687
O        8.35988114       3.84467150      15.59618182      -0.68421183       2.07654864      -1.36711273
O        5.83827640       1.81999604      18.62402426       0.78038288      -0.36892503      -0.54973751
O        1.09017240       5.87885611      11.71527625      -0.67605554       0.74479950      -0.51532531
O        3.79899116       7.80639532       8.58625669      -0.87236493       0.44837759       0.25454221
O        7.77263760       4.84729356      13.19714790      -1.11030096      -0.23319311      -3.58881251
O        4.56189750       2.51729967       6.98224857       0.06375899      -0.50281752       1.27276319
O        2.55266838       4.80140352      13.60395027      -0.31904859       0.35646831       2.42511401
O        5.17326905       6.67624424      20.48210244       0.28891192       0.47845568       0.09186966
O        0.23829906       2.15647792       7.21108583      -1.00915964       0.27837276      -1.54299971
O        6.82579047       9.46239200      12.99835156       0.59956806       0.68840271       2.91026387
O        9.22482624       7.68699916      20.21645878       2.54386831      -1.05729288      -1.87864310
O        3.15047934       0.56807940      14.30781167      -0.86226876      -1.83339201      -1.64822485
80
Lattice="9.77192453 0.01751879 6.90363604 0.24348012 9.76890588 6.90363604 0.01370155 0.0133883 13.86910312" Properties=species:S:1:pos:R:3:forces:R:3 energy=-575.02665916 source_file=vasprun.xml step_index=985 time_fs=59970.0 time_ps=59.97 file_index=29 pbc="T T T"
Na       8.10008337       3.90572934      19.80334004       0.26199156      -0.08475725       0.15207398
Na       8.81493408       1.01518822       9.62113662       0.28569447       0.71581574       0.23312021
Na       0.84688480       7.33309576       5.81555850       0.19013890      -0.13129714       0.06982978
Na       3.56802211       8.54549769      13.69205799       0.70946935      -0.36730259       0.59915045
Na       4.25727615       2.41939317      15.67169133      -0.58379247      -0.07726549      -0.17487368
Na       7.38379233       0.02460676      12.83802762       0.13177628      -0.24404322       0.27657705
Na       2.21664046       2.64096855       8.32844345       0.26733368       0.05180985       0.26085461
Na       3.64483390       6.11881338       9.91667049       0.07415461      -0.09374532       0.10961384
Al       7.41143269       5.20066262       9.07673112      -2.43315051      -2.81167502       1.77968019
Al       4.37265574       3.16022201      11.18999895       0.35818862      -0.15218009       1.06139511
Al       2.42280254       4.57859010      18.09408787       0.28753155       0.03337166       2.80110862
Al       5.29918903       6.90141555      16.10411871       2.28731007      -0.61362564      -0.08254007
Al       0.35210625       1.73429871      11.54987117      -1.14658800      -1.01519514      -1.29055276
Al       7.71018990       9.29060944      22.83491736      -0.56044062      -0.54899593      -2.01062573
Al       9.58958009       7.81743027      15.56497112      -0.19389877      -1.75275531       3.00844672
Al       1.95398820       0.38411887       4.69212597      -0.55999960      -2.35402807      -1.63611637
Si       2.46324714       5.67085313      15.24495379      -1.29130034      -3.22448753      -1.33395767
Si       4.26225630       7.14767755      19.05680654      -0.14895423       1.28708964       2.51557151
Si       7.27546854       4.11309216      12.17758735       1.29798293      -0.86803685      -1.47943513
Si       5.73418670       2.73206318       8.12581066      -0.37571203       0.24282132       0.00847861
Si       0.66709426       7.47778022      11.88913935      -3.82886624      -0.01757363       0.45753543
Si       2.72998298       9.06199856       8.51217806       1.15496396       2.04892208      -0.61817273
Si       8.90506178       2.16755125      15.37242107       2.92320656       3.06018285      -0.04999777
Si       7.00850580       0.53831917      18.84315002       0.59414429      -2.87342857       0.85053993
Si       0.08131187       2.52252632       5.50733963      -0.06094650       0.80225013       1.09132414
Si       6.84207697       9.38274299      14.82867852      -1.10526078      -2.72175363       0.51850534
Si       9.54736594       7.26001702      21.63423220      -1.06655437       0.92828503       0.16641299
Si       2.93437677       0.39745599      12.53198294      -0.18918793       1.34639865       2.84321231
Si       8.08610932       5.37640016      14.84211479      -1.45605543       0.26612752      -0.04003804
Si       4.32446240       2.10543802       5.31187393       1.87071387       2.99665140       1.66106518
Si       1.78326776       4.52301346      12.33620241       0.39984302      -1.63029642       2.06009420
Si       5.43254718       7.32168396      21.85403845      -1.49879662      -0.55712896       0.04070659
O        8.48445269       6.04031264      22.03095979       3.25009983       1.80811348      -2.43727521
O        3.89716850       1.67490364      12.13595192      -0.05930092      -0.24635470      -0.69961360
O        0.98754281       3.76419624       4.90854856      -1.02710927      -0.98255231       1.39880781
O        5.48691110       8.40844441      15.30194227       2.16287499       2.61219700      -0.77922577
O        0.87812410       3.13412336      12.40972718      -0.49754053       1.41896105      -0.40312378
O        6.56421348       8.36995825      21.64422977       2.53251878       2.88933274       0.72714004
O        9.44705921       6.26455591      14.71905315      -0.07843306       1.00443425       0.17385530
O        3.41567291       0.82771143       5.56237755      -1.25238225      -0.97350242       0.56196135
O        2.88240923       6.31832167      18.98221911      -1.28630480      -2.55905734      -1.60170147
O        3.90333428       6.23667124      15.26064693       2.65221660       1.30022674       0.70648411
O        7.28159908       3.47657356       8.04210877      -2.81219570       1.06959914       1.02251209
O        5.71706033       3.95792254      12.18038424      -3.40545554      -2.12519696      -0.80872509
O        1.47608514       8.10064260       8.26113548      -0.41919107      -0.03169298      -0.76675702
O        2.01521771       8.31602593      12.12926889       0.61086548       1.18059534      -0.39823046
O        8.42109995       1.34926622      19.12379446       0.24385644      -0.14309880      -0.83204295
O        7.68185123       1.16470969      15.15938673      -0.57194784      -0.47351169       0.30928229
O        2.07899122       4.73769121      16.48940200       0.02008038       0.39316120      -1.04773737
O        5.20207124       7.32875315      17.80885403       0.27957460      -1.11889086      -1.14687569
O        7.73294428       4.63660571      10.75183616       0.48628639       1.06597882      -2.84061798
O        4.62361269       2.97399738       9.40440702       1.51211193      -0.23811895      -0.30264979
O        9.43999360       7.62435716      17.50920530       1.56425110       0.85017315      -1.79289982
O        2.32841957       0.09772481       3.00168753      -0.03554441       0.74134190       0.52633883
O        0.32343183       1.78619267       9.63521545      -1.97713290       0.86561188       0.95644922
O        7.14156657       9.30180398      24.41402287      -0.11843668       1.43469619       2.55490981
O        9.20189936       8.48281996      22.64786208       0.95955928      -0.46136660      -0.06866803
O        1.45467764       0.42476494      11.86246651       0.54273578      -0.59411286       0.02123971
O        0.30748135       1.07922114       4.76483507       1.67910374      -0.11157121      -0.09244656
O        8.41009408       9.06700089      15.37667059      -1.88881430       0.59072540      -0.49324519
O        2.91242336       4.25459915      11.12733898      -0.03664218       0.73909290       0.93448729
O        5.77655382       6.00216703       8.88757318       0.47442813      -0.15272817       1.10437543
O        6.99122754       6.07318068      15.87990033      -0.75233268      -0.33061261      -0.97070560
O        3.56107687       3.19117840      18.22480657       1.19826332      -0.31757165      -0.18030732
O        8.21706067       2.58325521      12.25974167      -1.79674658       2.05248434       0.19144787
O        6.28685943       1.16607463       8.08472258      -0.64134719       1.56007510       1.36007692
O        1.36139811       6.77484398      15.00384041      -2.27387908       2.22481944      -0.83653249
O        3.88293495       8.71740869      19.54259116      -0.13390704      -0.40229454      -1.10535476
O        8.47030656       3.87198508      15.32648929      -0.03948610      -2.82202850       0.99179618
O        5.88361947       1.69872432      18.67751732      -1.88526969       0.92914416       0.05692116
O        0.80226873       5.83100676      12.09643780       1.13800900      -0.44060929       0.01418778
O        4.08661815       8.12215605       8.67115157       0.25742806      -0.94297517      -0.12559022
O        7.57449414       5.26646183      13.23376001       0.93289367       0.37091684       2.32689584
O        4.59058755       2.97909144       6.82749757       0.99215370      -1.45036002      -0.37854289
O        2.39312751       4.59863611      13.96313578      -0.30142494       0.22393758      -2.39937190
O        5.01540515       6.63186559      20.45440664      -0.36659434      -0.25084367      -1.68034694
O        0.26212910       2.26383660       7.19419116       0.22663257      -0.19853276      -1.49955299
O        6.80208477       9.17806193      13.25271104       0.99941584       1.47615551      -4.50973340
O        9.30480190       8.01860328      20.05334574       1.85536332      -2.23691067       1.08610037
O        2.65039442       0.56111959      14.32898897       0.46620912      -0.84981785      -0.71520429
80
Lattice="9.77192453 0.01751879 6.90363604 0.24348012 9.76890588 6.90363604 0.01370155 0.0133883 13.86910312" Properties=species:S:1:pos:R:3:forces:R:3 energy=-575.9187753 source_file=vasprun.xml step_index=630 time_fs=41260.0 time_ps=41.26 file_index=20 pbc="T T T"
Na       7.31065479       9.00877692      18.80951830       0.80749948       0.51086178       0.35410230
Na       1.80573372       2.56827352      16.40386542      -0.20604120       0.38199164      -0.22475649
Na       5.48237236       7.58268094      11.29322611       0.05059576       0.08045022      -0.12079917
Na       2.34954626       8.77477166      15.71897088      -0.47657292       0.41596618       0.07703381
Na       8.03706419       3.77421948      19.63402800      -0.16691192       0.41976556       0.55194560
Na       5.15945766       1.62734721      15.16164110       0.33428759       0.07559141       0.06100413
Na       0.70942633       7.99387271      19.59255403      -0.13528854      -0.08687810      -0.24992489
Na       3.01846513       3.68839085       7.88366385      -0.19166305      -0.24957354       0.17282016
Al       7.32692440       5.29830196       9.08113638      -0.05574504      -1.14841485      -0.81536883
Al       4.96594868       2.67220965      11.16936083      -1.29349433      -1.05026944      -0.63993027
Al       3.18618207       4.55650062      18.43768712       2.51360034      -0.11997001       0.99448946
Al       5.66670178       7.45781624      16.03229964       0.08502043      -1.48723199       0.21337721
Al       0.68119202       2.08612215      11.71201405       1.04446326       0.02359090      -1.46111439
Al       8.30585116       9.72579766      22.97476753      -0.63163837       0.11230462      -1.31416909
Al       9.75112982       7.80795347      15.52596902       0.60570523      -1.71727003       0.39165856
Al       2.36090291       0.24638942       4.40421302       0.70219883       1.61847396      -0.94602499
Si       2.89033018       5.89862844      15.39148944      -1.66970306      -0.14495474       0.92827612
Si       4.76166155       7.37787064      18.90870746       1.87029698      -2.38406039       0.84126589
Si       7.56091527       3.94964949      12.08238644       3.10658520       3.54241693      -2.36428090
Si       5.86910384       2.46935517       8.13216829      -0.62981620       1.08186621      -1.15826376
Si       1.15169702       7.17600189      11.65259499      -2.28899599      -0.37291735      -1.65996896
Si       2.84478959       9.10906635      22.06263245      -2.60438898      -0.00356043      -0.23702637
Si       9.20602473       2.77485635      15.55771723       3.27281764       1.61375828      -1.00389701
Si       7.84225229       0.69853467      19.00978787       0.17773148      -0.03420322      -0.30209093
Si       0.83042299       2.96133116       5.75073639      -1.59422131      -0.53076469       3.32698156
Si       7.58784815       9.61957563      14.82993261      -0.86774752      -1.50009682       0.02222110
Si       9.54828297       7.12419701      21.45545237       2.80495213      -0.82071397       1.94931411
Si       3.15172290       0.20716495      12.15041314       0.06997581      -0.96724956       0.58031205
Si       7.86071078       5.58273825      14.62878452      -1.22526791      -1.70558684       2.06346186
Si       4.86373595       1.91521199       5.08310323       0.16791802      -1.67375686       2.31116449
Si       2.53040598       4.40430551      12.57970192      -0.05851224       0.79635614      -0.60258855
Si       5.78000310       8.01533095      21.93382636      -2.46288912      -3.22104114       2.87998129
O        8.50468260       5.98059452      21.82490108       0.41880315      -0.21408970      -0.80480692
O        4.44194649       1.00558375      11.60181065      -0.09340134      -0.57793971       0.99301063
O        1.82927006       4.26377830       5.66074409       0.11047522      -0.46649239      -0.26326458
O        6.09779250       8.89987454      15.19547544       2.25417945       0.63500575      -0.39763402
O        1.27136618       3.37789134      12.81204267       0.78174148      -0.30119688      -0.65957275
O        6.54719974       9.32154421      22.42396842       0.95365111       1.18852480       0.07824535
O        9.01176706       6.66712263      14.31314080       0.08037886       0.96700087       0.66024940
O        4.02890414       0.50192213       4.87119213       0.83499392       0.49265843       0.11108431
O        4.28059239       5.79284474      19.03816794       0.90928642       2.04405465       0.49368143
O        3.88185714       7.19627604      15.57077018       1.17490816      -0.40955673      -0.02724153
O        6.67536206       3.86608240       8.09641573       0.30894049       1.57754400       0.12577747
O        6.39945689       2.94181638      12.09737419      -1.47212013      -2.42916726      -0.61155712
O        1.49479977       8.06849536       7.84555838       2.54213577       2.05332694      -0.00297637
O        2.09789552       8.49959667      11.80257637      -0.40426093      -1.86224306       0.12779534
O        9.03856328       1.71840592      19.59109193      -1.40846592      -0.74915419      -1.43237293
O        8.13837051       1.63932260      15.38083576      -1.91835887      -2.69218479       0.58753992
O        2.99011331       5.08556983      16.88202687      -1.73651565       0.51839101      -4.74270390
O        5.94734733       7.86559277      17.80540970      -2.70113053      -1.67223937      -0.31563041
O        7.94384734       4.75584807      10.63351889      -1.54926083      -0.39242789       0.32613595
O        4.81766242       2.47540451       9.36060041       0.21040884       0.26793678       1.13633670
O        0.27144681       7.10945881      10.17675418       1.16167973       0.28887492       3.15604845
O        2.44134376       0.45270932       2.56163286      -0.25675887      -1.12143153      -0.71866530
O        0.43072938       2.56154823       9.92364645      -0.32696663      -0.26744161       2.43661052
O        8.57159710       9.46804167      24.67751407      -0.47435156       1.46988869       0.37213432
O        9.35999927       8.52981644      22.24963524      -0.21576323       0.36745974      -0.53833288
O        1.76993877       0.64158395      11.53770323      -1.97682254       1.08282428      -1.34048472
O        1.52340561       1.71046612       5.00434932      -0.44622553      -0.17830554      -1.11495726
O        8.97060416       9.31796309      15.71548901      -2.65216549       0.65992919      -0.92670037
O        3.87642951       3.84481948      11.83146582      -1.44530255       0.39197555      -0.15093834
O        6.25871890       6.68983518       9.08529635      -1.47042394       2.07055999      -0.83789967
O        6.67281779       5.95243023      15.78808873       0.34529022       1.42175170      -1.90012226
O        4.35691235       3.15090560      18.09001789      -1.21654911       0.70055773      -0.07768066
O        9.02510946       3.34792079      12.39191108       1.15779343      -0.96992754      -0.33564520
O        7.10611409       1.43063617       8.03396757      -0.18494367       0.37443225       0.39841081
O        1.32917172       6.59116530      15.23079426       0.66383255      -0.17469192      -0.25794994
O        3.40813630       8.25393237      18.83087614      -0.10145520       2.05663261      -0.22645486
O        8.54858527       4.27342635      15.52936042      -0.27767429       0.38248388      -1.38180203
O        6.47532378       1.62039472      18.60895353       1.31135094      -0.40967378       0.09620828
O        1.80785163       5.67323545      11.70748290       1.29682693      -0.00888502       0.92177743
O        4.02607023       8.07342696       8.57589444       2.89350163       0.26407664      -0.67092896
O        7.19616798       5.12510476      13.14554800       0.29572625       0.74093026       1.90151944
O        4.84265072       2.27872688       6.77068400       0.39872999       0.23821786      -0.32498137
O        3.15175888       4.93014099      14.03104427      -0.30877764       0.66798251       1.54773332
O        5.68941018       7.79570625      20.33751546      -0.13341146       0.03220384      -1.10580541
O        0.62961740       2.51561803       7.40887515       0.45924576       0.84710655      -0.72366254
O        7.79657229       9.30765326      13.16949743      -0.20748072      -0.00825919       1.39694855
O        9.86982439       7.35692723      19.89233397      -0.18251019      -0.04619240      -1.64080407
O        2.75518010       0.30246358      13.76152904       1.51261027      -0.29194549       2.04694762
80
Lattice="9.77192453 0.01751879 6.90363604 0.24348012 9.76890588 6.90363604 0.01370155 0.0133883 13.86910312" Properties=species:S:1:pos:R:3:forces:R:3 energy=-576.63199183 source_file=vasprun.xml step_index=880 time_fs=93760.0 time_ps=93.76 file_index=46 pbc="T T T"
Na       7.67236148       7.09914017      18.63048962       0.24535226       0.06630954       0.03270771
Na       9.26071966       1.58524095      10.02472842      -0.08704788      -0.25627547      -0.08892947
Na       4.41112693       7.04563500      10.69542700      -0.09833302      -0.58658383       0.80466160
Na       0.66635005       8.77733372      18.80338655      -0.14461199      -0.57492986      -0.20481615
Na       9.13535906       4.10264672      21.04484465      -0.60254674       0.13792797       0.09735769
Na       5.81625067       3.94478370      15.83390763      -0.03953201      -0.02844167       0.29568547
Na       2.01382351       5.56205191       7.68184665      -0.29952028       0.21618466      -0.47268284
Na       3.33226750       1.84815135       8.12536454      -0.13286478      -0.14486843      -0.07536619
Al       7.39232338       5.85276954       9.39004198       1.08855692      -0.38300280      -2.91799033
Al       4.91248810       2.87662495      11.32317254      -1.81257986      -0.50054722      -0.65139255
Al       3.34316130       4.76192198      18.50106834       1.14334939      -0.17456118       0.30945945
Al       5.64749970       7.57126119      16.26159687       0.33125321      -1.14526189      -0.59453738
Al       0.71413869       2.53507040      11.60472169      -2.19578826      -1.02470691       1.07366336
Al       8.26120046       9.79272826      22.85194476       0.80270312      -1.60096575       2.76498973
Al       9.92647958       8.02230447      15.95234657      -1.55052355      -0.71183416      -1.87813143
Al       2.24377963       0.75824981       4.75490222       0.09538258       0.48025179      -0.26236234
Si       2.92876407       5.75302636      15.42956990       0.53285309       0.75533368       2.28665062
Si       4.46029357       7.62817618      19.37652131       0.69129833      -0.64259136      -0.83345849
Si       7.77072997       4.48299593      12.04528133      -1.77449671       0.86345266       0.62382878
Si       6.21492142       2.85842027       8.45929712      -1.73629951       2.22246482       0.85255713
Si       1.17045141       7.51358782      11.95001155       0.42585979       0.37152048       0.56745914
Si       2.95033246       9.46507059       8.69049583      -1.99255666       1.54160609      -0.55834445
Si       9.41690811       2.81656602      15.69624538      -0.36719146       0.88360817      -0.09739188
Si       7.74003725       0.74425818      19.00174936       1.01701218       2.75746787       0.83525209
Si       0.78439268       3.05593070       5.79743565      -0.55619559       2.52347507       0.57569014
Si       7.18508296       0.11529654       8.20827510       3.47974505      -2.63473397      -1.21788930
Si       0.19430420       7.31334169      14.92078724      -2.99752897      -1.55795563       1.17806042
Si       2.96147930       0.65303401      12.63169484       2.75325434      -2.65171279       2.08941232
Si       8.08741316       5.58409958      15.03261183       3.84292927      -0.34916876       0.61384455
Si       5.05174748       2.25692546       5.50954278      -1.91581741      -1.81379566       0.51800862
Si       2.36672324       4.70612587      12.54292611       3.10330087       0.54230808       0.48544742
Si       5.73389499       8.32204401      22.23957059      -1.08455033       0.42792766      -2.78506778
O        8.82314952       6.12807350      22.16250675       0.42108500       0.89178246       0.33145813
O        4.21878420       1.41952758      12.00791157       0.10227337      -0.54000831       0.37068788
O        2.20063307       3.89961100       5.61248487      -2.17045416      -1.09781831       1.02000496
O        6.08974147       9.12717224      15.40438800      -2.01749951      -1.37697182       0.59617515
O        0.92994451       4.04731373      12.63593392      -0.72909183      -1.74596333      -1.13351124
O        6.67293193       9.60961594      22.35358201      -1.67375989      -0.77277942      -0.56968905
O        9.49339208       6.57953997      14.78405989      -1.63686479      -0.66691120       0.92390197
O        3.64199515       1.30813442       5.79503352      -0.18791941       0.16825090      -1.12491865
O        3.70010006       6.20629410      19.56743057      -0.17919990      -1.23333759      -0.39105125
O        4.34450022       6.66833095      15.42123486      -1.00473589      -0.60312211       0.23884297
O        6.88472962       4.42550618       8.43216891      -0.73671119      -3.45956509       0.67642599
O        6.46765670       3.50923350      11.55817688       2.92030790       1.03501246       1.31307126
O        1.72735778       8.27424872       8.29349295       1.51744185       2.17486967       1.07682445
O        2.08802390       8.88503020      12.02926190      -0.58845242      -2.02029886       0.40236006
O        8.69087878       2.21378811      19.01578108       0.91328493      -1.78589978      -0.33299100
O        8.49823318       1.51048771      15.44303475       1.21850016       3.03938255      -0.23046308
O        2.72165374       4.94873828      16.89127578       0.96934355       0.70290959      -1.39088768
O        5.47160544       7.54272381      18.06124363      -0.01188755       0.35366170      -1.25563497
O        7.76088992       5.78283540      11.02399125      -0.15167272      -0.90558414       2.17336236
O        4.93041132       2.52228119       9.56629282       1.87961749       0.82838090      -1.28801242
O        9.91793039       7.55708415      17.60467092       0.33545141      -0.62994802       0.89801180
O        2.32575482       0.87450644       2.95770186       0.29926174      -2.01078092      -0.45970136
O        0.81486358       2.88800825       9.90515944       0.58712119      -1.13916182       0.85954301
O        8.23674650       9.50970390      24.68262196       0.64973067       0.23957920       0.26782967
O        9.53375147       8.63976815      22.68654374       1.11299476      -0.83147390      -1.66732482
O        1.53171223       0.90175267      12.06805484      -2.58159441       3.03851059      -1.16019350
O        0.60657361       1.66579189       5.00157865       2.04136822      -0.67576929       0.75067309
O        8.58838664       9.23940515      16.10327210       0.98581981      -0.22818865      -0.49898546
O        3.51306156       3.93267845      11.67003250      -0.41542126       0.67941975       0.39413443
O        6.11313957       6.95150366      22.89156706       0.48140742      -0.87399467       1.49976150
O        7.08513446       6.29764510      16.03075409      -2.22230061       1.55539590       0.75542659
O        4.71642362       3.51296824      18.47530880      -0.30717865       1.94489717      -1.25550372
O        9.32479950       3.99416334      12.01317732      -0.30223873      -0.70281913       0.06383888
O        7.35789052       1.65714140       8.54351240      -0.42132759       3.34129399       1.03510336
O        1.59109885       6.72028266      15.39118200       1.78619878       0.15237232      -0.28589901
O        3.20927723       8.66962082      19.19281652       0.59551987       2.17142029       0.52373204
O        8.57304186       4.19784835      15.97954410      -1.46008263       1.10811069      -0.86955885
O        6.25234443       1.34296299      18.82306972      -0.99047771      -0.07514595      -0.53943265
O        2.29914978       6.19029341      11.71032506      -1.12217746       1.00166943       1.57048535
O        4.22014130       8.48330309       9.14158959      -0.03672613       1.46318050      -1.16267086
O        7.40773646       4.87728020      13.71234828       0.17372804       0.14468287      -1.68025130
O        5.44083353       2.63786687       7.03035826       0.30703277       0.54142537       1.14424392
O        2.87226720       4.65819700      14.20859397      -0.05701007       0.94069087      -1.52175833
O        5.58086460       7.95723474      20.54613434      -0.65101235       0.72908796       1.64362063
O        0.50913811       3.15347991       7.45963409       1.28203640      -0.59963367      -2.57747297
O        7.87834730       0.05411840       6.65897941      -0.74960476      -0.45064902      -0.42780534
O        9.82961442       7.29905905      20.16582350       1.82610191       0.76643359      -1.56667301
O        3.02950220       0.76748988      14.35059617      -0.16718464      -1.58956281      -0.48548317
80
Lattice="9.77192453 0.01751879 6.90363604 0.24348012 9.76890588 6.90363604 0.01370155 0.0133883 13.86910312" Properties=species:S:1:pos:R:3:forces:R:3 energy=-573.44697931 source_file=vasprun.xml step_index=785 time_fs=73570.0 time_ps=73.57 file_index=36 pbc="T T T"
Na       8.86314871       3.55244700      21.22352793      -0.10378621       0.25885175      -0.16083779
Na       8.90456144       0.73231173      10.03260027      -1.06043984      -0.26113428      -0.76397230
Na       7.14106404       5.93244376      18.34476064       0.54543221      -0.10643706       0.03745722
Na       6.64290810       8.04290326      10.97131392      -0.11469579      -0.60286565       0.58396380
Na       3.80956932       2.37212527      16.58041168      -0.17490761       0.17391258      -0.55386382
Na       5.82666323       1.24013154      13.82711376       0.24995206      -0.13716528      -0.30423894
Na       2.84340045       1.12209332       8.01623708      -0.53141568      -0.11459079       0.62597067
Na       2.80235922       5.49897328       7.76514381      -0.34359177       0.41569130      -0.20240772
Al       7.07366681       5.33202884       9.41451988       2.30019498      -0.94336605      -2.79175021
Al       4.20557701       2.79997013      11.41538512      -0.82355041      -2.93290338      -0.40073426
Al       2.71075619       4.64546459      18.42471432       2.41718447       0.97581446      -0.07449724
Al       5.42851216       6.93339514      15.98716888       2.01518407       1.55655402       0.49752794
Al       0.23336724       2.13515605      11.54769059      -1.41401820       2.96971069       0.00662950
Al       8.05024554       9.54239247      22.83422875       1.42494671       0.20842165       0.02207680
Al       9.47674992       7.36113026      16.10521332       0.93601592      -2.58337473      -0.56904378
Al       1.65750104       0.43454085       4.51666759       1.69936854      -0.14703654       0.91054125
Si       2.74770895       5.81788744      15.46644028       0.52306662      -1.83108423       0.12595867
Si       4.42728479       7.52513492      19.00691398      -0.63158487      -2.74280127      -1.50076024
Si       6.81612405       4.33065788      12.19444889       0.28774649       1.67349435       0.67245114
Si       5.66977196       2.44050971       8.49601817      -0.32872634      -0.05284295       1.39811950
Si       0.76616161       7.23151740      12.24607982      -0.92072299      -0.53974316      -2.42414908
Si       2.61785147       8.89865416       8.66781425      -1.21593102      -1.31416284      -1.66551349
Si       9.20514692       2.46849990      15.34016355      -0.22190185      -0.93477224      -0.53775145
Si       7.25542231       0.86008381      18.98995620       1.47269099       1.00081871       2.12104198
Si       0.11791733       3.10238320       5.50507389       0.45060901      -1.77535998       0.36178928
Si       7.14212400       9.28247635      14.86225190       3.73100194       0.22967235      -1.30150999
Si       9.85895439       6.99878880      22.17454371      -7.21645571      -1.48197131      -0.08397141
Si       2.63474716       0.27365962      12.57606201      -2.96277789       0.03007614       1.18829021
Si       7.53712619       5.08815736      14.97030519       1.10691376       2.57153587       1.28713252
Si       4.20011173       1.94865930       5.68384640       3.70503637       3.36178059      -1.05921931
Si       2.01021618       4.68640618      12.62870919      -2.14437341      -0.41206739       2.21694485
Si       5.49022866       7.87102105      21.99874136       1.99854370       1.98924936      -2.81656648
O        8.83955973       5.63222990      22.59207380       0.49852548       0.30076044       0.04519333
O        3.92640428       1.15771800      12.30582420       0.82989916       1.69581705      -0.28019752
O        1.14000383       4.27166775       5.20299849       0.82715546       0.50865568      -0.70737028
O        5.91312125       8.35017940      14.94965812      -1.23840065      -1.09610182       0.91315379
O        0.45084508       3.99136077      12.61153500       1.69645170      -0.55114987      -0.62475047
O        6.34808210       9.26195487      22.42654914      -1.13830265      -1.33721045      -1.17541506
O        8.99559208       5.92688045      14.92430948      -0.99094024       1.19765799       1.83588397
O        3.15610275       0.78516647       5.62206024      -2.38860353      -0.96104661       0.08756202
O        3.59270504       6.01800113      19.37099117       0.38638229       0.68589679      -0.77213061
O        4.08741214       6.54075056      15.18353568      -1.00081065       1.39900906      -1.02863490
O        6.82484159       3.60481372       8.70865249      -0.99570937       0.77544573      -0.09361374
O        5.69906046       3.14473280      12.08030427       2.76735874       1.16361444       1.89852825
O        1.40097077       7.72416238       8.64562940       1.07024930       1.21862164       0.58073725
O        1.32718912       8.66100443      11.79837776      -0.57293862       0.65679896       0.38838923
O        8.30659785       2.13937620      19.02226707      -0.03503673      -0.62011748       1.04361118
O        8.26232413       1.18476864      14.94331289       0.08364137      -1.12294021      -0.10201326
O        3.04578370       4.75473446      16.69031350      -1.65706664       0.47772112       0.55510926
O        5.51332211       7.38733176      17.67450113      -2.28465903       0.80797224       2.68643140
O        6.45760386       5.44095341      11.00918131       0.88552885      -0.61803220       0.33268011
O        4.58812854       2.29960533       9.77301241       0.70908071       0.10258758      -1.78601879
O        9.51618606       6.66104994      17.92923187      -0.12386704       1.64915186      -0.95033332
O        2.35078801       0.26451659       2.90946945       0.15618871       0.55179963       0.35352890
O        0.34257433       2.09633372       9.75040241      -0.35260238       1.06225346      -0.19673657
O        7.42080025       0.32103176      17.53392055       0.35274825      -1.89588703      -0.79088111
O        9.22707954       8.17825542      23.04294599      -1.81615586       2.33927226      -0.15006496
O        1.14249835       0.88714348      12.13333392       2.88263793      -1.69358582       0.53164025
O        0.38097977       1.64624019       4.44521801       0.23061778       2.93847406       2.65330439
O        8.51434478       8.75479883      15.70668605      -1.32325348       0.66871732       0.31301881
O        2.78746080       3.67001133      11.69180281       0.89951446       0.38076013      -0.92825911
O        6.38765830       6.63110460      22.37496660      -0.85349523      -0.51534967       0.45125166
O        6.42488795       5.51806416      16.18942010       2.28726798      -0.76633503      -1.84722638
O        3.87501586       3.25800085      18.56738703      -0.57497791      -1.28464734       1.33675418
O        8.37668826       3.68258983      12.19989630      -1.22544048      -0.40125014      -0.42711612
O        6.75824182       1.09854389       8.40834184      -1.80041072       1.38650959       0.21845830
O        1.54582755       6.91639609      15.65178677       4.94184003      -1.37954156       1.36731267
O        3.15590276       8.55304142      18.86001386       0.39884406      -0.07203742      -0.39058600
O        8.00656098       3.59029970      15.35451382      -0.01870139      -0.51409701       0.09992343
O        5.71880033       1.42444636       5.13578885      -2.07748692       0.25933296       1.19544700
O        2.08956879       6.28766556      12.29192167      -0.13420983      -0.36228569      -0.81639625
O        4.04723288       7.92598030       8.83398937      -2.15616791       0.58578323      -0.05879756
O        6.81681071       5.42432427      13.49310732      -0.07237160      -2.45558326      -0.03153736
O        4.45121884       2.68900710       7.23010162       1.37974048      -1.60643322       0.28678265
O        2.70322465       4.86618580      14.16371638      -1.74991704      -2.21422695      -1.60288951
O        5.41114000       7.88344580      20.24966189       0.04157677       0.28966697       2.26325658
O        0.50790139       2.77493118       7.15065662      -1.04557519      -0.53050165      -0.59135258
O        7.73563976       9.39474223      13.27761745      -1.10797806       1.60765515      -1.69204778
O        9.74972092       7.27073934      20.55960812      -0.47127385      -0.05844875       0.13410079
O        2.33866756       0.10439350      14.24186023       1.16610068      -1.13848123       0.67684566
80
Lattice="9.77192453 0.01751879 6.90363604 0.24348012 9.76890588 6.90363604 0.01370155 0.0133883 13.86910312" Properties=species:S:1:pos:R:3:forces:R:3 energy=-573.24584683 source_file=vasprun.xml step_index=320 time_fs=68640.0 time_ps=68.64 file_index=34 pbc="T T T"
Na       8.57418035       4.67492580      19.63048398      -0.42466663      -0.28091854      -0.03825972
Na       8.24549209       1.18019095      10.63921860       0.17628439       0.07118464      -0.13030263
Na       3.85242290       5.23914383       7.81879591      -0.48946186      -0.74299026      -0.01737488
Na       3.66236508       8.04559406      13.58914142       0.76933630       0.87752207      -0.47542060
Na       3.21210103       2.57950665      15.57293495      -0.08234700       0.05281012       0.35716401
Na       6.11325747       0.40055414      13.12820809       0.71599658      -0.33087235       0.85204068
Na       0.95968465       8.90510597      17.14197620       0.36380664       0.33193466       0.09405802
Na       0.25332866       7.74488654       6.39529601      -0.32241767      -0.02973417      -0.27504122
Al       6.95074514       5.19489714       9.08240829       0.09051071      -0.31876841       2.55706653
Al       4.55874536       2.62774087      11.57009416       1.47399612      -1.37433811      -0.00072162
Al       3.01286718       4.33734789      18.42425307      -2.43619064       2.82650146      -0.20935949
Al       5.38710176       7.17083122      16.00530630      -1.11641232       1.89192853       1.05188899
Al       0.27911576       2.15285876      11.53387464       2.30921530       1.04503751      -2.40736446
Al       8.00083222       9.54245998      23.00068816      -1.52286688       2.89216966       1.44586111
Al       9.47042006       7.55696374      16.25900131      -0.02673147       0.59244039      -1.77913082
Al       1.81291312       0.39648475       4.82882593       1.05691225      -0.44062837       1.02436264
Si       2.51065393       5.84999874      15.54538064      -0.57042879      -1.16673157       0.89073071
Si       4.28182178       7.24212496      19.24956050       2.11627516       2.96129488      -4.92422244
Si       7.24966720       3.95917285      12.08660628      -0.41572203      -0.02763883      -1.47828394
Si       5.73876638       2.35485594       8.51961982      -1.43741227       3.62551039       0.97010304
Si       0.84764077       7.11609378      12.18107505      -0.00731316       1.88861409       0.63027236
Si       2.56752591       9.11771581       8.67543435      -2.03634097       0.10607857       2.42160290
Si       8.90657064       2.56334774      15.42980148      -0.67360538       0.52676208       3.60870884
Si       7.52016384       0.86672009      19.18357241      -2.17611829      -3.55758338      -1.76617598
Si       0.23688193       3.20006263       5.55248577       3.40151820      -2.21569755       3.09796973
Si       7.37652084       9.49590379      14.98246556      -2.51768813      -4.52104014      -1.32996414
Si       9.46078253       7.10106894      22.01019285       0.58689800      -0.65247669       0.43459292
Si       2.73413129       0.27731741      12.78219625      -1.01676065      -1.59693471      -0.65929902
Si       7.76036185       5.43409222      14.91890445      -2.44983664      -3.56588563       1.19776577
Si       4.24440890       1.96185094       5.73815676       4.90552853      -1.73434800      -3.58762209
Si       2.14134983       4.62392209      12.62736750       0.63070394      -3.54341245      -1.24067282
Si       5.36649585       7.77631400      22.01346802       1.82173633      -0.74194492      -0.02189055
O        8.44795484       6.08375275      22.81228518       1.26284410       1.05202040      -1.66775720
O        4.17748291       0.95837314      12.53576721      -0.85361982       1.97637464      -2.18171541
O        1.42524468       4.42808018       5.66248494      -0.76806490      -2.23317033      -0.73711322
O        5.96810100       8.62556969      15.08096075      -0.32784013      -0.75426113      -0.24725394
O        0.80482909       3.75651205      12.23493434       0.19553427      -0.31580008       0.26436232
O        6.58352463       8.80783738      22.27934957      -0.88182003      -0.17916746       0.26494000
O        8.90797572       6.51564624      14.91270499       1.14372620       0.87149842       0.42907922
O        3.26558893       0.73123078       5.84485095      -1.29071665      -0.40606647      -0.74011330
O        3.72827236       5.81375658      19.12020485      -0.83871665      -3.53922065       1.71404484
O        3.77776821       6.79332850      15.26311971       0.18277823      -0.40232427       0.57999788
O        6.63920350       3.75098212       8.19589588      -0.37837173      -2.13918429       0.02675478
O        6.43092872       2.47155577      12.28316746      -1.76240441       2.18727092      -0.94431632
O        1.13879713       8.19067569       8.39130820       2.31375981       0.99665175       1.27393643
O        1.83595215       8.48126713      12.51217864      -2.79039788      -0.21484452      -1.45252485
O        8.60563979       1.97194844      19.22568009      -0.41418451       2.54055279       1.43197444
O        7.66558911       1.50247914      15.43660939       0.00412356      -1.79029036       0.85225682
O        2.43905670       4.75722359      16.79467322       0.85501059       0.36258197      -0.87880429
O        4.87368438       7.56081693      17.70903559       0.63129682      -0.11454002       0.28159765
O        6.78228875       4.94343687      10.87447982      -0.22210573      -1.08759192      -0.67847739
O        4.60471483       2.70571702       9.77596762       2.06028086      -1.19503710      -0.54279055
O        9.44900269       7.11254087      17.93531659       1.53493476       0.28043783      -0.33431869
O        2.20669629       0.33934295       3.14008269      -0.12596384      -1.60282439      -2.15733814
O        0.30151962       2.26823886       9.69690929      -0.61565856      -0.64222860       0.67630028
O        8.32852027       9.61325802      24.83461350      -0.89877348       0.26719175      -1.13553740
O        9.30768579       8.71108680      22.31427695       0.73807286      -1.75337520      -0.90896276
O        1.28570297       0.70625541      11.92676380       2.90197818      -0.54954226       1.67587554
O        0.85689640       1.82928924       4.87634233       0.18702499      -0.13861261      -0.02182484
O        8.29697163       8.83314094      16.06851771       2.05696902       0.23873474       1.92469378
O        3.43645234       3.78383993      12.09935122      -0.19217779       0.39683111       0.49034823
O        5.65514783       6.17349581       8.55008507      -1.56044153       2.56455249      -0.34207225
O        6.31615766       5.78929651      15.70212875       2.52318049      -0.80989257      -1.04625014
O        4.06955546       3.01633640      18.19436123       0.00780235      -1.91555259       3.48018368
O        8.69957334       3.22452998      11.59907476      -2.36212215       2.24828184      -1.19558522
O        6.74616107       1.10688147       8.66885404      -0.32940163       3.90221682       1.72797807
O        1.22445265       6.88050757      15.78751733      -0.33380548      -0.31172104      -0.82362561
O        3.09412858       8.32295422      19.48066579      -2.22206827       2.39993989       0.43391877
O        8.35788556       4.07764116      15.89921154      -0.78174783       1.59532913      -2.22941635
O        5.94484228       1.31546825       5.26350165      -0.70749675       0.28204645      -0.28466808
O        2.07592796       6.04992785      11.93745770      -0.67806129       1.63796487      -0.86398781
O        3.93465454       8.24970592       8.84527488       0.65062615      -1.42685674      -0.54212688
O        7.41075178       5.09423005      13.25595671       0.68450738      -0.69349862       2.37978116
O        4.79053364       2.15587790       7.21918262      -1.00590709       1.64328527       1.08392003
O        2.33360972       4.87144363      14.19043945      -0.23610081       0.22382017       2.18408930
O        5.42864119       7.69514045      20.31046574      -0.30318295      -0.10443592       1.63626316
O        9.37516496       2.49833357      13.93767299       2.35120645       1.88687038      -3.62970057
O        7.98876640       9.53019746      13.48237611       0.31836448       0.48571200       0.16268109
O        9.52985835       6.70948113      20.33156585       0.97820107       0.50483344       1.45417503
O        2.75050320       0.40169975      14.46192955      -1.39030898       0.92734499      -1.11638698
80
Lattice="9.77192453 0.01751879 6.90363604 0.24348012 9.76890588 6.90363604 0.01370155 0.0133883 13.86910312" Properties=species:S:1:pos:R:3:forces:R:3 energy=-574.35297029 source_file=vasprun.xml step_index=475 time_fs=22950.0 time_ps=22.95 file_index=11 pbc="T T T"
Na       0.28689172       2.34260011       3.35764211      -0.41070809       0.30422485      -1.91140285
Na       5.77441158       3.43244119      16.94992804       0.19733420       0.37639106      -0.08167811
Na       7.72594049       7.65201505      12.46669366       0.13252920      -0.86128502      -0.21288837
Na       1.39763205       8.72718599      17.09207126       0.36750247       0.62073224       0.37285321
Na       8.98041840       4.28989603      20.55721357       0.05717131      -0.27239897      -0.16939051
Na       6.11545719       0.33248560      12.76462580       0.71985093       0.19289659       0.36947834
Na       1.98526332       6.04577722       7.61792867      -0.04315414      -0.09155105      -0.45369088
Na       4.24751708       8.12818912      13.13126625      -0.50559928      -0.06657212       0.23446001
Al       7.00837886       5.39672867       9.07993976       1.98817090       0.91984170       1.75317489
Al       4.61602723       2.88504293      11.45448822      -3.29859585       0.17236301       0.89566108
Al       3.12741451       4.88130613      18.43526134      -0.92156918      -3.20330756       1.95220302
Al       5.46963327       6.95683054      15.84896536      -1.31607912       0.37179271       0.87677396
Al       0.59868431       2.16147519      11.50719360      -0.46635919      -0.26119566      -0.10247278
Al       7.93406443       9.51671092      23.01713635       2.46154957       0.01084326      -0.61449333
Al       9.77709212       8.01159636      16.02999827       0.57007059      -1.14317854      -1.36911265
Al       2.11559722       0.63784842       4.88477413      -0.22919211      -1.69711687       0.62161305
Si       2.72785877       5.42743831      15.49209568      -0.10384388       2.75154735      -3.36192101
Si       4.27579712       7.59265379      19.08642317       0.12732074      -2.76039875      -0.94014323
Si       7.20076241       4.43962063      12.06573874       2.18579431      -0.45876913       0.35923424
Si       5.73292633       2.58185592       8.61535963      -2.63405937       1.17814257      -0.92351821
Si       0.99864580       7.43018192      12.13951853       0.66092447      -1.14132247       2.93342189
Si       2.85242114       9.32065507       8.70462226      -1.64609664      -0.43469815       0.66111222
Si       9.00947787       2.45516377      15.57625760       2.82760752       1.22646052      -0.93726758
Si       7.58871502       0.94849267      19.24496602       2.26347599       1.29191802      -2.34767849
Si       0.36841382       3.21196753       5.82209446       0.69068745       3.73310262       2.03426706
Si       7.32670844       9.58139678      15.05813328      -3.02352560      -2.85161304      -0.75078777
Si       9.79909283       6.96935432      21.97195202      -1.48080847       0.94858720       0.39737595
Si       2.93620388       0.49452504      12.84537874      -1.74331095      -1.67880286      -2.87752791
Si       7.83855820       5.32673686      15.11116723       0.63233748      -0.05773482       1.56716554
Si       4.72635611       2.13309831       5.76886888      -0.54879947       0.54300331      -5.69760816
Si       2.28530915       4.66487915      12.79539740      -1.69566444      -0.85738482      -1.89767495
Si       5.53448135       7.86228359      21.75324559      -1.55282933       1.19856587       1.44668440
O        8.80703899       5.70983654      22.48001186       0.05769400       0.66109735      -0.62105778
O        4.18570614       1.20816771      12.17962197       1.61361006       1.91612746      -0.74100938
O        1.30299746       4.41833578       5.13411578       2.25936707      -0.14401034       0.50581614
O        6.05810997       8.35691549      14.84005067       1.02685371      -0.28059051       1.28367758
O        1.16541900       3.77666410      11.96615235      -0.94698108      -0.44242331       0.37672975
O        6.60178794       8.98634346      22.09367751       0.30302179       0.47928325       0.60790194
O        9.00248176       6.57576361      14.91246867      -0.15468034      -0.42263428       1.78592905
O        3.72778776       0.83037082       5.71083844      -0.32782709      -0.00600037      -0.98987669
O        3.56857871       6.12368647      19.60312148       0.45239690       1.15976949      -1.06009795
O        4.12498894       6.07198863      14.85550854      -0.05571945       1.31100342       0.98771578
O        6.81021819       3.77627063       8.63819988       0.91314854      -1.67237328      -0.48247696
O        6.08510576       3.29803213      12.08342374       2.95377468      -0.12317492       0.56250770
O        1.58255959       8.37738137       8.14756356      -1.12254504      -0.09013735       1.85646078
O        1.88846441       8.71856451      12.37700959       1.81384529       2.72790746       0.66246789
O        8.93638136       1.86792000      19.56816216      -0.50429493       0.08487468      -1.01084673
O        8.17284114       1.17625125      15.18043699      -1.49388375      -0.13805721      -0.93793329
O        3.16977168       4.54222598      16.70049510      -0.64491133       0.36706182       1.95402503
O        5.05237051       7.34732827      17.66943709      -0.79421474       0.28262335      -1.23018245
O        6.96293442       5.66908795      10.96334457       0.57904453      -1.12377805      -0.28252265
O        4.61682907       2.91021006       9.72818590      -0.07193421      -0.47907506       0.36497943
O        0.23209519       7.77135420      10.83549276      -1.41853139      -0.92683789      -2.77788698
O        2.10816247       0.55787809       3.07738538       0.88097675      -1.02302158      -0.61438525
O        0.30667647       1.79877401       9.72784300      -0.02787629       1.49127325       1.73707184
O        7.75614879       0.07405231      17.83453155      -0.61782557      -0.22883807       1.09892093
O        9.36866891       8.38250647      22.75347988      -0.74429578      -0.77638934      -0.35791818
O        1.63784058       0.80436385      11.89467556      -0.36167786       1.45169242       1.06060748
O        0.79636444       1.79619647       5.25757879       1.72586416      -2.39283327       0.67590512
O        8.61137836       9.28092653      15.93075488      -0.20963072       0.57169751       0.08574261
O        3.69313558       4.23787345      12.31430216       2.39980340      -2.04644381      -0.97380759
O        5.90728347       6.37633212      22.11074072      -0.20134594      -0.37265233       0.09676098
O        6.57611759       5.67033490      16.15680197       1.54512529       0.01225517      -1.18938815
O        4.27468289       3.43148853      18.67911016      -0.61606979      -0.49942818       0.39180264
O        8.80939311       3.57577366      11.87468517      -4.40919621       1.05215951      -0.43143468
O        6.17834191       1.02159668       8.69325914       1.06635740       0.77076111       0.44037292
O        1.64947135       6.87552356      15.51934911       0.50333360      -2.26816629       0.61997966
O        3.05682581       8.63457119      19.19206775       0.57256302       0.43476158       0.30967800
O        8.14208634       3.79404004      15.86984466      -1.59143428       1.51217619       0.89542474
O        6.34268087       1.97497206      19.04900701      -1.28638853      -0.68467835       0.09941256
O        2.13994673       6.20523259      12.27505847      -1.11512676       1.17757036      -0.14009841
O        4.10975511       8.28169628       8.79767049       1.23112262      -0.91131544      -0.07986480
O        7.30227196       5.13196089      13.58593317      -0.13227817      -0.03662429      -1.16940135
O        4.89151289       2.66318521       7.15372839       1.25838331       1.54037631       6.47812716
O        1.91663643       4.43146079      14.39845602       0.41530589       0.87320242       0.48213434
O        5.43082463       8.09597968      20.13695452      -0.41213875      -0.28097990      -0.03618635
O        0.12559707       3.46026152       7.52243782       0.82267471      -2.31928329      -2.57931049
O        7.65843932       9.59536485      13.44274980       0.12013382       0.40837069       0.47734371
O        9.62443363       7.08196160      20.28528592       1.03506309      -0.08019216       0.35520794
O        3.13955297       0.48747480      14.44155483      -0.53816292       1.45760852      -0.38277653
80
Lattice="9.77192453 0.01751879 6.90363604 0.24348012 9.76890588 6.90363604 0.01370155 0.0133883 13.86910312" Properties=species:S:1:pos:R:3:forces:R:3 energy=-574.60419124 source_file=vasprun.xml step_index=165 time_fs=18330.0 time_ps=18.33 file_index=9 pbc="T T T"
Na       7.59467069       8.35779930      18.61403782       0.75137476       0.05038188       0.10131242
Na       8.52890333       3.88491009      20.47886800      -0.25337647      -0.24798517       0.34146391
Na       1.53299845       7.67626384      17.38233609       0.39550964       0.19976883       0.80993469
Na       8.03818495       7.79197627      11.81347802      -0.26837834      -1.30210330      -0.50889298
Na       2.67952869       2.65768122      14.97153958       0.03962797      -0.15977738       0.37469193
Na       6.45811179       1.80743217      14.05472764      -0.08526902       0.02826400      -0.22651492
Na       2.57940003       3.37073050       8.50278925       0.55006178       0.18483433      -0.14432877
Na       4.10290691       9.27520749      14.06421111       0.18297039      -0.02011188      -0.49908422
Al       7.36636745       5.55508628      22.87301190      -2.10733972       0.28175083       1.62982565
Al       4.67531314       2.86596909      11.41569654       2.07671804      -1.44329786       1.77887209
Al       3.25094556       4.80067328      18.46143836      -0.40181657       0.66355584       0.06113328
Al       5.78195864       7.40058820      15.92443404       0.02131226      -2.65833983       0.09784734
Al       0.54328869       2.43132280      11.54378338       0.88798711      -2.63228534      -1.28947068
Al       8.45554241       9.59729394      22.67377119       0.06736622       0.45252807       0.78710486
Al       0.35101243       7.68697112       8.90649373       0.79434352       1.05873739       0.91843284
Al       2.22525671       0.59497744       4.45536809       1.20818553       0.48335706      -0.90951040
Si       3.06185349       5.72559325      15.30277321      -1.18401078      -0.19006795       1.83291695
Si       4.67453071       7.75806177      18.86796751      -4.09601707      -2.58277051      -3.13393551
Si       7.54983530       4.50496617      12.13362395       1.33230439       1.06527979      -4.19232136
Si       5.92757365       2.55046274       8.56011402       1.31080517      -0.44719769      -1.32653144
Si       1.20155424       7.66590544      12.09153670       0.11270125       1.48043810       0.24030263
Si       3.00051771       9.44240311      22.35179163       4.05374340      -0.55331501      -2.54579499
Si       9.48382244       2.82016050      15.50796840      -1.32101209      -1.27535591      -2.78430295
Si       7.59497929       0.77070226      18.94659083      -1.17286173       3.37805685      -1.82432571
Si       0.67394317       3.24562878       5.55704294      -1.26064031      -0.56641913       0.96910358
Si       7.68706322       9.61546440      14.95157450      -1.13718547       1.77741603      -2.18830181
Si       9.87078077       7.01723551      21.87398334      -2.06597863      -0.01155122       1.47336872
Si       2.98317511       0.57048608      12.41893048       5.08620567       0.05459815       1.19743572
Si       8.22796522       5.39802477      15.08240860       0.42746212      -1.49982028      -1.83048738
Si       4.76143005       2.07376086       5.54889022       1.09758780      -1.58516183       1.69989087
Si       2.25866581       4.70657637      12.35413843       1.92884297      -0.92150491       1.77286743
Si       5.89292858       8.13203448      21.59241338      -0.96982217       0.39096913       2.89774871
O        8.89089587       5.70574452      22.04125942      -0.00358600       0.69245168      -1.50834586
O        4.46978689       1.44228749      12.68870270      -1.23256326       1.54165277      -1.71571762
O        1.70772466       4.48904828       5.41223054      -0.29348436      -0.76041883      -1.04751377
O        6.33907691       8.71050193      15.05988160       0.20346648       2.07403463      -0.10184817
O        0.95393546       3.76150435      12.53150969      -0.35535768       0.45175882       0.38915047
O        7.06495495       9.32957917      21.57377146       0.89974072      -0.99458643      -0.57456354
O        9.66155083       6.11535144      15.22487395       0.65999901       0.49966251       0.92241995
O        3.82936574       0.82695287       5.03915589       2.41330696       1.67666499       1.50501971
O        3.50079234       6.54368862      18.97667663       0.84858094      -0.32769800      -1.74151063
O        4.28951495       6.81385610      15.05841772      -1.14913740      -0.16558920       0.98667477
O        6.77610014       3.94881721       8.39617576      -0.47523626       0.04965213      -0.07006167
O        6.28022190       3.51890567      11.84744993       0.37352736       0.34399959       1.66013687
O        2.00556018       8.22467641       8.31709718      -2.49008065      -2.31732105       2.12577491
O        2.50508506       8.81729668      12.20468246      -3.36343392      -3.14757015      -0.22998992
O        8.84060685       1.75485009      19.20847277       2.52542101       1.55134264      -0.60198471
O        9.01135037       1.29901315      15.15569896      -0.97293855      -1.02437417       0.95490273
O        3.10124252       4.66580861      16.60230896       0.83181392       1.23757464       0.11258993
O        5.68994292       7.77651013      17.61831973       0.79075354      -0.71589819      -0.55207192
O        7.53236161       5.72225128      10.80065667       0.06944086      -1.66719474       1.56361972
O        4.86252365       2.49341567       9.75882123      -0.33126413      -0.40465527      -0.67181252
O        9.87410930       7.94143409      17.80002058       0.80136094      -0.20892329      -0.99980892
O        2.75084864       0.85346530       2.63189323      -2.03631480       0.01689718       1.80541120
O        0.80070050       2.88367558       9.76434592      -0.78930734       0.27451075       2.16980524
O        8.03793136       9.78541833      24.41313758      -0.74482655       0.36952031       0.53871884
O        9.42546523       8.14471076      23.01474386       0.22953662      -0.12767538      -1.02364770
O        1.95712951       1.20363720      11.48351145      -3.59472994       2.30972640      -1.37764245
O        1.10378645       1.64725999       5.19099338      -0.81650953       2.46838994      -0.09086200
O        9.12645355       9.10302429      15.35465751       0.06976794      -0.86881009       0.54312067
O        3.46107101       4.01792556      11.49139239      -2.50219439       1.84248341       0.74035693
O        6.07799925       6.84619564      22.56528958       1.93098059      -0.41082296      -0.57361033
O        7.07194038       6.23808799      15.64984501      -2.18190278       1.10243723       2.23155332
O        4.20241123       3.50414537      19.16859930      -0.59564917       2.39818000      -1.28912043
O        8.94175078       3.61775105      11.80684898       0.37613551      -0.45399286       0.43527620
O        7.21807505       1.44042346       8.63618532      -0.27951858      -1.92322414      -0.61840813
O        1.45501424       6.42400768      15.53802436       4.61099358      -0.46111594       0.08054701
O        3.81976134       9.06043616      18.48439696      -1.18595458       0.42626875       0.45403243
O        8.10488452       3.74351874      15.41499903       0.29852934       0.81463826       1.70462136
O        6.37364449       1.97038312      19.13406240       1.44393863      -1.65450480      -2.18186164
O        1.80194882       6.13707655      11.78607525       0.03005155       1.19859093       0.75175000
O        4.70900190       9.06020385      22.24122387      -2.39254887      -0.07233446       0.05391733
O        7.89264670       5.35865354      13.47269183      -0.76137454       0.03349400      -1.29219153
O        5.05209272       2.03371529       7.23905137      -1.46122598      -0.05856565       0.74278828
O        2.80398263       4.71784913      14.06559189      -0.19573002       0.12191158      -3.00058580
O        5.47765749       7.47790686      20.14190171       3.04476503       0.96350967       2.78491457
O        0.41773971       3.28660524       7.23025255       1.70450963       0.00508810      -0.81814306
O        7.69662623       9.46119690      13.13793274       0.03361753      -0.53155388       2.73740914
O        0.21134263       7.79052832      13.56500038       1.26795812      -0.55248430      -2.57034584
O        2.56292430       0.27733831      13.90855363      -1.26672537       0.88363390       1.09280458
80
Lattice="9.77192453 0.01751879 6.90363604 0.24348012 9.76890588 6.90363604 0.01370155 0.0133883 13.86910312" Properties=species:S:1:pos:R:3:forces:R:3 energy=-574.5510105 source_file=vasprun.xml step_index=170 time_fs=64340.0 time_ps=64.34 file_index=32 pbc="T T T"
Na       9.66163709       3.50634429      22.01207756      -0.46495700       0.05640944      -0.05875412
Na       7.91507913       5.77534986      18.00673141       0.03424600       0.09625840      -0.05946734
Na       4.37506697       7.03612820      11.29796611       0.17311553      -0.25168349      -0.22485580
Na       3.17656890       8.47662760      14.39903666       0.21911371       0.10750316       0.42654749
Na       3.83233220       2.11468504      15.74670796       0.19194032      -0.04026409       0.27205707
Na       7.10107685       0.93129473      13.04324793      -0.12453129      -0.10962742       0.15106140
Na       2.44201703       3.56853098       7.97997246      -0.09426947      -0.09019372       0.00038141
Na       1.24850111       7.37256620      19.33728700      -0.16160827      -0.22698100       0.31705269
Al       6.99931801       5.18230911       9.16586195       0.55075361      -0.59212916       1.50887242
Al       4.47782053       2.70095221      11.64771294       0.61234812      -1.40288397      -1.36069488
Al       3.10198216       4.59995822      18.25553693      -3.53321956       0.56541695       1.17101905
Al       5.26204401       6.65477477      16.05085970       0.63609394      -0.64968998      -2.43922060
Al       0.18109530       2.02325068      11.43573355      -1.13315627       0.98722826      -0.09365261
Al       7.64994216       9.48301355      23.01421397       0.58727155      -0.17267926      -0.97283406
Al       9.41495954       8.14020874      16.12730718      -1.19123910       0.10178411      -0.36857851
Al       2.06627801       0.36944073       4.83791403      -1.78491966       0.25329957       0.38280165
Si       2.28173383       5.65145867      15.38723197       2.92054946      -0.24633615      -1.65423592
Si       4.38888117       7.42969539      19.01666779      -1.13913845       0.40910586       0.04313123
Si       7.16512219       4.20707071      12.24980778       0.43517593      -0.24149699      -4.66648425
Si       5.36715285       2.46203620       8.58676965       2.68598422       0.35620946      -0.76968426
Si       0.88596298       7.39819613      12.01369298       2.35103929      -0.72234279       2.44635884
Si       2.62250304       9.12903959       8.72026200       1.44013943      -1.93578462      -0.40198166
Si       9.07710020       2.54830979      15.33536280      -2.80637970      -0.99362418       1.62228114
Si       7.27294388       0.37952086      19.01352098      -0.13483182      -0.71684919       2.28125816
Si       0.30372467       2.78647719       5.51593893       0.26590053       0.11198622      -2.85520016
Si       6.87235375       9.27746706      15.00677071       1.15613715      -0.11455998      -1.18406086
Si       9.52665593       7.17921534      21.75101451      -1.13602190      -0.24054677       1.95493044
Si       2.71659382       0.47325576      12.74786948      -0.14680101      -2.94582210       0.80349871
Si       7.87193151       5.51129691      14.82080341      -1.45451330       2.21376643       0.94613709
Si       4.52839111       2.20478772       5.61223981      -0.50714671      -0.12339099       0.71448298
Si       1.73269362       4.33990360      12.44598869      -0.41495455       2.34008540       0.78593072
Si       5.37925674       7.66165600      21.85656551      -0.93788999      -0.02615998      -2.36668021
O        8.51779764       5.99137236      22.30701357       0.72765615      -1.30081558       0.03577355
O        4.12858838       1.05575054      12.35411771       1.12048478       2.20410816      -0.88258644
O        1.48598298       3.97243581       5.40606380       0.15722950      -0.82471458      -0.15659839
O        6.04731809       7.95607601      15.33262724      -0.53937698       1.90297948      -1.60294559
O        0.26009860       3.69429521      12.15800783       1.20701842      -0.27418543      -0.00165373
O        6.13054773       9.04752948      22.20329640       0.04799994       0.04423450       0.93778623
O        8.90628462       6.74825816      15.18646885      -0.64217637      -1.58673063      -0.69089016
O        3.15331639       1.32215560       5.72537478       1.22622635       0.44588545       0.99043695
O        3.44530282       6.08892102      19.20073856      -0.19618358      -1.22562082      -0.48850664
O        3.84015171       6.26821206      15.03691417      -1.63291903      -0.97365705       0.71524391
O        6.66701419       3.45833681       8.79786964       0.85687204      -0.01609049      -0.66043837
O        5.98920806       3.13416328      12.42937626      -0.76536381      -1.24256841       0.63750378
O        1.13829502       8.52522241       8.50285778       1.65972840       0.79958698       0.24247944
O        2.03643659       8.53530141      12.48613862      -0.27291151      -0.90164673      -0.73655090
O        8.38443144       1.60307300      19.04348480      -0.56941952      -1.13889656      -0.68208834
O        7.74070121       1.36899396      15.53257737       1.97200346       2.53265852      -0.58951508
O        2.15319384       4.72049175      16.66240233       1.37560663      -0.61287505       2.11981918
O        4.94638660       7.34953554      17.50569794      -0.64086787       0.53963239       2.89354153
O        6.78455216       5.20013452      11.00538545       0.00907284      -0.03277665      -2.58679517
O        4.43045476       2.70773249       9.82227117      -1.24991581      -0.36752743       2.36556883
O        9.61597863       7.80449151      17.85067518      -1.12981171       0.18497099      -3.02310076
O        3.06724063       9.71664829      10.27275446      -0.02738703      -0.75815203      -4.31240465
O        0.39426994       2.37474222       9.63147912      -0.36160311      -0.40068938       1.04461741
O        7.72520582       9.06298622      24.70711705      -0.54767660       1.37365928      -0.00364382
O        8.84761166       8.56313655      22.15088915       0.78749237       0.37397371       0.64936883
O        1.25446624       1.01219041      12.34805560       1.06093096      -0.25850062      -0.70490337
O        0.55582626       1.29309460       4.73177000       0.14407892       1.83921880       0.44496197
O        8.17428911       9.35771934      15.98127993      -0.08775855       0.40657485      -0.07455183
O        3.06297313       3.58739001      11.91670911      -1.99431569       1.53726444       1.20417114
O        5.77875729       6.17873222       8.51944835      -1.03749882       1.63662500      -0.13313782
O        6.61276076       5.56816499      15.90927752       0.39037985      -1.03225829       0.34900673
O        4.24516324       3.33239474      18.18219207       1.40507589      -1.63450335       1.54287663
O        8.56420470       3.38977055      11.87150833       1.05168226      -0.52256723       0.89219107
O        5.70417728       0.88656675       8.23020305       0.25688025      -0.09509214       0.36176009
O        1.38954955       6.96307683      15.41709319      -2.64823537       1.90118950      -0.21198669
O        3.13654641       8.58663594      19.20745641       0.12969182       0.72155944      -0.11371443
O        8.55470335       4.12665553      15.16537062       1.30770519      -2.89443703       0.92611493
O        5.75420184       1.12551304       5.31248373      -0.45105334       1.26486032      -0.59962742
O        1.71737424       5.92339444      11.74111676      -0.04410265       0.22032012       0.63094348
O        3.70270805       7.79890735       8.27249132      -0.04996664       1.17468440       1.21450496
O        7.26494835       5.36444034      13.26750733       1.27681345       2.36450253       4.77515884
O        4.56076322       2.99346739       7.26013319      -0.48440004      -0.69431979      -3.80535321
O        1.70288094       4.65699687      14.19436079       0.35278642      -0.84650733      -2.18716472
O        5.62982171       7.66223447      20.07590883      -1.16285399      -0.45712149       1.22155547
O        0.06799692       2.34665058       7.04267596       0.76469684      -0.83496495       0.45745222
O        7.39833464       9.02727458      13.37445683      -0.05120028       2.16216871       0.16003361
O        9.62149622       7.32471703      20.16113119       0.14587979      -1.49564369      -0.19450075
O        2.69542761       0.42296955      14.43006307       0.03247937       0.98871892       1.25442833
80
Lattice="9.77192453 0.01751879 6.90363604 0.24348012 9.76890588 6.90363604 0.01370155 0.0133883 13.86910312" Properties=species:S:1:pos:R:3:forces:R:3 energy=-575.09133475 source_file=vasprun.xml step_index=165 time_fs=90330.0 time_ps=90.33 file_index=45 pbc="T T T"
Na       8.42912793       3.71668567      20.43691396      -0.21563927       0.40925422       0.15191865
Na       1.34993428       9.31193625      16.65152008       0.25338951       1.10435988       0.65526026
Na       5.33943904       4.21715979      16.80018596       0.46734335       0.17252944       0.10030118
Na       7.70193540       7.73969101      11.53442660      -0.28234036      -0.75688511      -0.08417914
Na       2.23952819       2.96691342      15.55475530      -0.12376961      -0.83845695       0.27377414
Na       6.36001530       0.77828202      13.18790214      -0.10110647       0.29656769       0.02124909
Na       2.12997250       6.07158350       7.86224465      -0.42509409      -0.14184637       0.09470986
Na       4.01126613       8.79790268      13.54217293       0.02669602      -0.61142361       0.24465726
Al       7.09652770       5.49188127       9.12660131      -1.43329481      -0.21617207       1.59853155
Al       4.49840777       3.17304967      11.75395553      -0.00168628      -0.36084726      -0.48234756
Al       2.69402178       4.56526590      18.55320860      -1.45243798       1.06880121       1.28480561
Al       5.32000180       7.17955067      16.17413076      -0.10805218      -0.85540561       0.13615667
Al       0.36216902       2.18769971      11.50278289       0.62364255       0.46361912      -0.63959635
Al       7.64564445       9.78435465      23.00717866      -0.97158327      -0.24681607      -2.35241733
Al       9.48350612       7.97454397      16.16057044       1.87931824       1.13574494       1.12547117
Al       2.34581877       0.80242706       4.54919768      -0.47825400       0.52380437      -0.02336961
Si       2.33643858       6.02193687      15.56642804       3.08919617       0.67732976      -0.70226417
Si       4.14085255       7.22428495      19.35882008       0.70277452      -2.16815191      -2.56763302
Si       7.30650774       4.32527066      12.26962455       0.44065122      -0.55161824      -1.59476605
Si       5.63505809       2.72203551       8.46810926      -0.35708227       3.64055803       5.80304585
Si       0.77526011       8.01192066      12.28403214       1.08108597      -0.40388726      -1.97382576
Si       2.71028473       9.26671441       8.50666581      -4.99686415       1.79939584      -0.52444376
Si       8.88413192       2.53023836      15.44932353       1.18134673       2.62298142      -1.08214422
Si       7.13787464       1.00256726      19.04230069       0.98060245      -0.95043573      -0.25089773
Si       0.32240197       3.25575195       5.80081748      -1.11013578      -5.24772124      -2.88369126
Si       6.98271254       9.70705551      14.88612527      -0.20649335      -3.06731820       3.01513277
Si       9.49566351       7.39088097      22.10936479      -1.67715849      -2.15427545       2.29758782
Si       2.87908580       0.45320043      12.57559692       0.02030316       0.89509328      -0.84345103
Si       7.98274724       5.49076897      15.08964916      -2.07714406      -0.73657725       0.95435860
Si       4.68651199       2.22839506       5.84195953      -1.87844415       2.65622503      -2.68725443
Si       1.90223334       4.96620603      12.65556778      -1.15994909       0.20600623      -3.31151322
Si       5.19790017       7.95250383      22.19787526       3.71002188      -1.93351031       0.00831813
O        8.62336545       5.91708039      22.26033982       2.12351086       2.43223506      -0.57050726
O        4.13707011       1.49282931      12.46557147       0.39028262      -0.35715958       0.25623273
O        1.00849972       4.52212864       5.37853658       4.03330787       4.34989315      -1.53887330
O        5.66755084       8.75070811      15.45243614       1.11518327       1.29221064      -0.74207348
O        0.64859451       3.93395984      12.09522589      -0.34806145      -0.82418786       1.06332767
O        6.23196252       9.17879904      22.07427560       0.60167659       1.54379505       0.20599229
O        9.17024810       6.27441150      15.95296773      -1.01772063      -0.47242062      -2.31331718
O        3.94505502       0.89563974       5.45788936      -0.15544198      -2.04262127      -0.02262828
O        3.10412700       5.94494712      19.66081517       1.35436202       1.18892813      -0.28806837
O        3.86800660       6.70347258      15.17130664      -2.69541063      -0.29537210       0.97893324
O        6.62904697       4.06430398       8.19366640      -0.90976766      -1.44530094      -0.40475523
O        5.89766631       3.59040864      12.83271696       1.28105095       0.40655208      -1.28458072
O        1.44622046       8.26104721       8.48758964      -2.54100897      -0.77163731       0.05846817
O        2.02527530       9.13310919      12.23318089      -1.55302445      -2.07739741       1.28093201
O        8.63676039       1.53976681      19.18545831       1.62820565       0.48959967       0.47489425
O        7.83005666       1.37173142      15.01236438       0.09389564      -0.14590535       0.14487413
O        2.48999183       5.09558732      16.86897232       0.16276766      -0.97209294      -0.02028891
O        5.12067923       6.70519265      18.04516085      -0.92422426       1.30433254      -1.12465427
O        7.17005728       5.24695922      10.90186324       0.06202660      -0.31495516       0.61274967
O        5.00694448       2.82717343      10.09601779       0.51573521       0.21261753      -2.41968413
O        9.51053705       8.20746425      17.94573066       0.64449148       0.02044248       0.36362999
O        2.50028442       0.53543242       2.77523774      -0.19828714       3.12422947       2.49572857
O        9.78409390       1.93113352      16.64794859      -0.08130644       0.31759621       0.94102079
O        6.91164295       0.12526100      17.71940976      -0.24887694       0.45167999       0.69669217
O        8.89310937       8.56602300      23.09751985       0.50470398      -0.59267266      -0.53213710
O        1.77863111       1.09090130      11.56538031      -1.41409937      -0.11556354       0.08409161
O        1.16116617       1.97253169       5.06130291      -0.37937230       0.97630532       0.42674816
O        8.34068799       9.16838675      15.65815979      -1.20371689       0.27837811      -2.00407052
O        3.15319133       4.37197022      11.83836436       1.31215672      -0.53062670       0.65988197
O        5.90362658       6.81433609       9.28209880      -0.15266884       0.01550714      -1.13559946
O        6.37931746       5.96375623      15.40342863       1.73449633       0.08474070       0.96081537
O        3.80307737       3.16666570      18.54265888       1.06833885       1.41444900       0.79134842
O        8.65161613       3.32994168      11.91050112      -2.43058691      -0.40158163       1.10237886
O        6.57982729       1.44275244       8.54923413       0.51782831      -0.58197273      -1.29240795
O        1.27761131       7.31524803      15.90342503       0.17243798      -2.33860014      -1.42212596
O        3.31520018       8.61205440      18.94828004       0.17801403       1.01768938       0.82266336
O        8.00207747       3.95053206      15.80161585       0.57094009      -1.12699662      -0.52432923
O        6.32189173       2.40526143      19.10729460      -2.73070577       0.31830109       1.52637057
O        1.62936294       6.57920629      12.11357383       0.27269848      -2.13786760       1.38087886
O        3.77341355       8.25114069       9.00326694       2.73807889      -2.16889466      -0.49378473
O        7.92203241       5.34440237      13.40424225       0.75029932       1.06349409       2.00099380
O        4.37687695       2.65367737       7.42873451       0.89407011      -0.36747928      -1.70368221
O        2.03498161       4.80716198      14.31014680      -0.44905076       2.08312832       1.20093249
O        5.15983551       7.48848080      20.58731269      -0.80513996       0.16836221       0.90230334
O        0.29907263       3.13565571       7.37569168      -2.21535168      -1.65868255       3.63262199
O        6.85936002       9.62852968      13.21602976       0.73455208       0.67271546       0.60536579
O        9.67950976       7.72548610      20.58721956       0.29441296       1.36506888      -1.62575936
O        2.28827994       0.54508558      14.13336267       1.31281962      -1.27567407       0.05157537
80
Lattice="9.77192453 0.01751879 6.90363604 0.24348012 9.76890588 6.90363604 0.01370155 0.0133883 13.86910312" Properties=species:S:1:pos:R:3:forces:R:3 energy=-573.49200063 source_file=vasprun.xml step_index=150 time_fs=42300.0 time_ps=42.3 file_index=21 pbc="T T T"
Na       7.70631523       5.98325663      18.43647325       0.21572590       0.46224410      -0.36911799
Na       4.21401900       2.72527289      16.04840525      -0.03504089      -0.37891512      -0.01641272
Na       4.30980023       5.99610772      10.70776192       0.93807812       0.26420372      -0.69586465
Na       4.09767385       8.93149298      14.20962714      -0.48265296      -0.33633117      -0.47020474
Na       8.59706413       3.90910020      20.90307400       0.66329411      -0.22769996      -0.40863218
Na       8.47875824       1.01136926      10.50437126       0.06664202       0.21057768       0.29047854
Na       0.56737915       8.53384419      20.09641432      -0.47817042      -0.27916573      -0.38578889
Na       2.56353065       1.83571050       9.36438344       0.09536099       0.02114492      -0.41405223
Al       7.08421677       5.46034195       9.10462224      -0.76058441       1.54774096      -0.23644141
Al       4.85477662       2.75606493      11.31420211       0.15363497       2.92412742       0.94681979
Al       3.14525569       4.69914100      18.49206301       2.50705328      -1.11676352      -3.59819204
Al       5.59637038       7.29253242      16.15281018      -1.90128249      -2.56858921       0.07951154
Al       0.69182931       2.41531630      11.45265742      -1.24639652       1.76107578       0.20501404
Al       8.25471308       9.60020593      22.97412593      -1.41892869      -1.62434484      -0.76286892
Al       9.83373413       7.82567860      16.17689910      -1.19945433      -0.78134687      -2.72603752
Al       2.11780718       0.51944528       4.36508876      -1.05229764      -0.10099251       0.94843923
Si       2.90755817       5.64174132      15.25087743       0.57093666       0.74668543       0.76889830
Si       4.59684589       7.56438515      18.96446339      -0.62655579       1.48537959       2.69283242
Si       7.36527333       4.51995405      11.96615039       5.31435466       4.63693924       1.63650425
Si       5.59289700       2.70606164       8.18640841      -0.71858168      -1.12728844       2.78585054
Si       1.25165979       7.35271651      12.06489574      -1.73856620       0.67756488      -0.06088951
Si       2.89579982       9.39857526      22.23764715      -1.80756854      -2.44491338      -1.35265190
Si       9.22036303       2.62787809      15.40829696      -1.48885297      -0.14958569      -1.91443310
Si       7.66187406       0.94192636      19.00166580      -0.52970930      -0.38624693      -0.67740943
Si       0.57506387       3.01329499       5.46109254      -2.42033647       1.33388955      -3.14216358
Si       7.24187091       9.48628805      14.84743453       2.60225240       1.29393630      -1.26181288
Si       9.84389771       6.99353558      21.95529680       0.04233261      -0.41915343      -2.28978272
Si       3.40210936       0.56729486      12.49722931      -3.57192583       1.28583298       0.63963637
Si       7.92108791       5.55091598      14.95839073       2.06194946      -0.39531949       1.12269961
Si       4.43225523       1.91543488       5.54682137       2.45324081      -0.31720529       0.27880487
Si       2.32211325       4.73253645      12.37337560       1.04519120       1.01531667       1.16108679
Si       5.52932064       7.75501192      21.88460570       1.82044498       4.42868330       0.99359084
O        8.51846969       5.95628544      21.99297493       0.37611345      -0.30117867       0.98730415
O        4.78845735       1.26832782      12.11091851      -0.73092683      -1.52317088       0.55760575
O        1.65046430       4.12004389       5.02149460      -1.26745281       0.16727734       1.43927340
O        6.08920592       8.48245192      15.12161881      -1.06882075       0.92598812      -1.41890100
O        0.85112535       4.17539345      12.06966531      -0.42113923      -0.90691156      -0.34930236
O        6.76339844       8.70933074      22.47738233      -1.13566423       0.17822853      -0.32043053
O        9.38665242       6.45455986      15.04141502      -1.83409624      -0.03506948       0.60279268
O        3.38297146       0.61651082       5.70019636       1.33386568       1.81267712      -1.53264242
O        3.98661350       6.11101825      19.02189212      -1.00499993      -0.98632855       0.07417719
O        3.91468248       6.95922788      15.25008102       1.23638741      -0.20009493       0.23794985
O        6.61112883       3.97488730       8.18487866       0.13133541      -1.01710966       0.21898748
O        6.37855912       3.40730154      12.09367382      -5.20361807      -4.26060066      -0.64268933
O        1.34256040       8.64985303       8.28603916       1.60586355       0.45324815       0.68067757
O        1.59840865       8.91636346      12.22389594       0.93827986       0.62813958      -2.15457790
O        8.91686304       2.07082330      19.06572790      -1.89626885      -0.64724161       1.71177182
O        8.18331573       1.34598980      15.28934745       1.24470825       1.87791123      -0.26160660
O        3.33627404       4.67842643      16.42073537       0.51936765      -0.71103518       3.08638348
O        5.57154088       7.86821864      17.79570269       1.05565437       0.04331419      -2.31900651
O        6.92558844       5.68197825      10.87447843       0.96153389      -1.63298274      -0.76698290
O        4.60309388       2.62959467       9.60684106       2.12026190       0.14319956      -1.94641033
O        9.76457018       7.11658752      17.78385482       2.38154725       0.81138840       0.10595029
O        2.70248608       0.57442986       2.65866971      -0.22970122       1.88177303       5.34104620
O        0.50801983       2.41961210       9.71884321      -0.06183332       0.42225076      -0.67825068
O        8.38613354       9.74667983      24.70084386      -0.35562739       0.27215199       0.15985915
O        9.45073047       8.50424366      22.33009988       1.46748780      -1.13925202       0.64413713
O        2.07007896       1.47589965      11.70004681       2.92962289      -2.24226174       1.46071654
O        0.76471126       1.75291623       4.35605504       0.68490872      -0.37371938       1.47830767
O        8.53764309       9.08985154      15.76632230      -0.05758149       0.57703940       0.82172634
O        3.46637874       4.02189560      11.53572920       1.86441161      -1.25091021      -0.64425909
O        5.61050068       6.41347877       8.77745085       0.28746763      -3.70675141       1.05128485
O        6.77999204       6.01113768      16.12568399       1.01541022      -0.31982279      -1.04350968
O        4.10008032       3.10021678      18.42259654      -0.96114972       1.20073126      -0.67456876
O        8.86733121       3.73968533      11.74841257      -0.25124751       0.03186276       0.37772086
O        6.42277974       1.24826556       8.13836983       0.22111651       1.24132271       0.81931254
O        1.45109576       6.18865250      15.63706871      -3.53451883       2.13722856       0.02452235
O        3.30661659       8.79258086      18.86670209       1.85038630      -0.80902410       1.06423509
O        8.22295608       3.96561844      15.52443643       0.89529902       0.29383225      -0.45269226
O        6.13604405       1.69395087      18.91516044      -0.38557453      -0.64359213       0.80158355
O        2.70565764       6.44378897      12.07442488      -2.91140722      -0.59401349      -0.48340244
O        3.99976813       8.25221745      22.26374056       0.27970331      -0.84663266       0.07095844
O        7.49432669       5.54490353      13.38348733      -0.48576602      -1.13352968      -0.59126274
O        4.43289728       2.59557026       7.06963888       0.12281858      -0.11767125      -0.49216513
O        2.64449004       4.64501412      13.97508027       0.48608133       0.02403117      -0.39584116
O        5.66767768       7.74320628      20.27808811      -1.38522324      -0.18786876      -1.97656786
O        0.43403647       2.76909673       7.02785076      -0.67960580      -0.73208935       2.46845123
O        7.69492780       9.53228641      13.23753539       0.72747134       0.43091247       0.78189284
O        0.31338342       7.03028170      13.32149680      -0.27583109      -1.21676294       2.57490840
O        3.09832770       0.69348625      14.21048180       0.33726590       0.53747004      -4.28847111
80
Lattice="9.77192453 0.01751879 6.90363604 0.24348012 9.76890588 6.90363604 0.01370155 0.0133883 13.86910312" Properties=species:S:1:pos:R:3:forces:R:3 energy=-574.54439847 source_file=vasprun.xml step_index=935 time_fs=49870.0 time_ps=49.87 file_index=24 pbc="T T T"
Na       3.11088031       2.12505217      15.44985919      -0.37182572       0.24847444      -0.16051564
Na       5.87907826       4.23100231      17.76750426       0.74402738       0.53726381      -0.54072587
Na       9.90681588       6.30732417      24.97468609      -0.20996096      -0.31759952       0.27500592
Na       4.69260111       8.76224327      13.38090583      -0.27190307      -0.11178926      -0.16244959
Na       8.97207247       3.10433397      21.16806695       0.06999205      -0.27628726      -0.06058380
Na       6.28256232       1.43254328      13.75634543       0.59486415      -0.21495037      -0.33108964
Na       1.68792493       9.03822546      16.74536852       0.48793676       0.35256908      -0.01719461
Na       2.38392047       5.47229896       9.19269400      -0.30364572      -0.24518466       0.05803510
Al       7.35356920       5.32165765       9.17632909       0.93766225       1.19064336       1.11665141
Al       4.64612270       2.90985364      11.46743614       1.29512661      -0.80787581       1.80790953
Al       2.73800809       4.57202679      18.48957605      -0.30854989      -0.79584937       1.04781006
Al       5.44314705       7.26731527      16.04150901       0.41744418      -2.89056529       1.57197096
Al       0.51703222       2.05691265      11.62375692      -1.83484897      -1.03328456      -0.60116906
Al       7.88423595       9.35996156      22.89476500      -0.15320433       0.18973572      -0.14983355
Al       9.69039639       7.62031856      15.97783888       0.88691028      -1.78642002       1.85791701
Al       2.33430105       0.18006068       4.56518089       0.60528181      -0.69760102       0.93958802
Si       2.90299446       5.67225935      15.44660913      -1.19946983      -1.14205738      -0.43136707
Si       4.19379495       7.01922456      19.04218025       1.71362621       3.60980187      -0.74477187
Si       7.68681637       4.13872487      12.16768748      -0.64176347      -3.24887644       0.42903242
Si       6.13082548       2.60103658       8.64973492      -1.45312249      -2.93846420      -1.26819924
Si       1.06389186       7.29023448      12.12037363       0.30711216       2.67493767       1.79489271
Si       2.61250505       8.85799117       8.48146874       3.67524048       3.73086888      -0.65504967
Si       9.14862662       2.45952411      15.53020211       0.88346849       0.03817428       0.96002530
Si       7.25430163       0.78607275      19.01977150      -1.03764155       1.82507423       3.32916518
Si       0.52213335       2.43059855       5.94788654      -0.38465645       2.80453520      -1.64114720
Si       7.15179735       9.41196185      15.15581911       0.20074727       3.44085956      -3.43764814
Si       9.91482874       7.11217449      22.08767143      -0.17506961       2.54397528      -0.27350432
Si       2.97657993       0.36649843      12.51949221       1.86765015       1.22468456       0.76511798
Si       8.11167635       5.23167658      15.13883387      -2.64770607       0.09818163      -1.70069565
Si       4.65910086       2.26379720       5.78348853      -0.36114104      -1.07982559      -1.42503030
Si       2.16438460       4.34610464      12.41753429       0.56548661       1.56015865       1.38322740
Si       5.54399516       7.57578678      21.82507161      -0.64348090      -0.37078723       0.41725029
O        8.91827425       5.96851464      22.42145490      -1.41443133      -2.19798473       0.42091644
O        4.33787288       1.45939963      12.57215030      -2.58315180       0.02399176       0.02530265
O        1.28827460       3.75319938       5.20536944       0.02260708       0.01372776       0.14788986
O        5.66243416       8.98363543      15.77458953       1.91993696      -0.70338946      -0.87044891
O        1.15706080       3.15006129      12.83800659      -0.35988740       0.11183505      -1.11887567
O        6.50292648       8.88435466      21.67669958       2.66577735       0.39967317       0.53414665
O        9.52162205       5.77545900      15.65085730       0.21245194       2.26325485       0.16945864
O        3.80224045       0.86419016       5.31535512       0.90088233       1.58370111       0.70458557
O        2.86199829       6.20694761      19.14076673      -2.38566758      -0.65195231      -0.45778270
O        4.05969426       6.69135763      15.10792147       1.65530688       0.89974840      -0.78485774
O        7.12152628       3.81445650       8.35276265      -0.01910115       1.02223127       0.04387002
O        6.27006597       3.19219129      12.18748616       0.28283334       2.38747203       0.45954250
O        1.62265177       7.65129945       8.48837065      -1.22540665      -0.58604053       0.04547043
O        2.48399137       8.32686394      12.29306335      -1.74354689      -1.83931770      -0.52846268
O        8.65188387       1.49597144      19.47739930       2.30618153       0.65968523      -1.15637573
O        8.34657101       1.06031653      15.35708366      -0.11731305       0.91606177      -0.71462572
O        3.00686908       4.82295808      16.79631483       0.07634335      -0.94998669      -0.29729111
O        5.13884968       6.76515301      17.73238136      -0.56425081       0.21210149       0.65298884
O        7.98287915       4.99301645      10.82547208      -0.58289416      -0.13082779      -0.37637459
O        5.11919644       2.61466447       9.89800958       0.92284236      -0.24528264      -2.28309849
O        0.21439331       7.85089306      10.90319748      -1.03069725       0.13220003      -2.20888018
O        2.33979773       0.26794102       2.80411873      -0.37915966      -1.26388404      -1.11995807
O        9.78850551       2.83773112      16.98750604       0.79950870      -1.50707450       1.50761915
O        7.33396302       0.02578150      17.67735882      -0.44153091      -1.72739525      -2.04804344
O        9.41463160       8.46700254      23.03397516       0.82480530      -2.25442263      -1.01515676
O        1.95111457       0.91584607      11.36582501      -1.48960257       0.13983430       0.41865969
O        1.18752914       1.12099773       5.35276284      -1.86906131       0.46609084       0.56914788
O        8.53685851       8.58678102      15.14110899      -0.44446875      -0.35318209       1.21363474
O        3.36276163       4.12720408      11.24937212      -1.42502093      -0.12871648       2.38670019
O        6.13021309       6.63151281       9.22937186      -0.20599703      -0.49918063      -2.05012669
O        6.73323729       5.93502962      15.87204086       1.44282898       0.18782344      -1.38929035
O        4.18181299       3.70965545      18.96670889      -0.26949595      -1.35015789       0.95225833
O        8.66492432       2.73777848      12.38939398       1.33951223       0.30513507       0.64864905
O        7.20981568       1.27566046       8.51851246      -0.90292222       0.22475330       1.54761973
O        1.68540246       6.79250273      15.77012025      -1.41789289       0.11301896      -0.48230529
O        3.92623776       8.77662479      18.96119754      -0.10630233      -3.01043444      -0.28762314
O        8.02179888       3.63413151      15.43144418      -0.98160621      -0.11420443      -0.27008751
O        6.10077717       2.06849585      18.87809488       1.81925057      -0.75868910      -0.78623546
O        1.38343886       5.71837640      11.74024308       1.20971039      -1.47362203       1.57798399
O        4.25894710       8.42618798      22.35784486      -3.03842558      -0.22714830       0.43870656
O        7.98375761       5.19909082      13.35869025       0.04576935       1.02892445       2.45323550
O        5.08402830       2.41172790       7.33082154      -0.29459900       0.19503973       1.05718888
O        2.56844913       4.42496053      14.31914263       0.43809775       2.01237279      -2.04023845
O        4.90952242       6.69322366      20.46391900       2.29414116       1.00876537       2.34296834
O        0.71640159       2.62258423       7.61397274      -1.46584916      -0.65874826      -0.76911751
O        6.94307151       9.66442118      13.41882003      -0.50550731      -0.96750656      -0.24850809
O        9.79577628       7.40776719      20.48123989       2.41166478      -0.23259368      -1.81052408
O        2.22701664       0.16579611      14.02134996       0.44973859      -0.56045968       0.65699095
