80
Lattice="9.77192453 0.01751879 6.90363604 0.24348012 9.76890588 6.90363604 0.01370155 0.0133883 13.86910312" Properties=species:S:1:pos:R:3:forces:R:3 energy=-576.07485968 source_file=vasprun.xml step_index=735 time_fs=13470.0 time_ps=13.47 file_index=6 pbc="T T T"
Na       7.61595892       5.86715668      18.35226864       0.11930571       0.29784865      -0.21260944
Na       6.78731444       1.04541010      13.33376608      -0.18769518       0.36771138      -0.12170413
Na       1.80882275       9.11151237      16.88687721      -0.14146788       0.24782761      -0.03119458
Na       7.72349757       7.58740709      12.33965575      -0.07115698      -0.18891634      -0.39541008
Na       9.40445704       2.59743326      21.41848559      -0.36098522       0.42442403       0.07334019
Na       3.37187263       2.73751333      16.40427075       0.06674645      -0.13145415      -0.03366385
Na       2.02092887       6.29653121       6.80647435      -0.60933640       0.14459039       0.80783021
Na       4.06815317       9.14854673      13.76516217       0.17461041      -0.54886183       0.19697347
Al       7.65681101       5.58427732      22.76445725      -1.32513189      -1.14022811       0.42901964
Al       5.09345691       3.07668552      11.28985909       0.51977339       0.03287990      -0.23368046
Al       3.45134238       4.97766353      18.45519257      -2.94424640       0.27124095       0.54404870
Al       5.79887877       7.02719429      15.72695952       2.35457822      -0.06202304       0.76946629
Al       0.81484472       2.15174049      11.47035071      -0.41309167       3.07360757      -2.95481567
Al       8.12397917       9.65982655      22.82153264       0.82186517       1.06750169      -2.58477662
Al       0.22831397       8.09318171       8.92303017       2.66442787      -1.78602423       1.48027456
Al       2.51781318       0.48027480       4.52025976      -0.50161904       2.95232593      -3.02250607
Si       3.04754986       5.94115068      15.32205704      -0.53831573       1.47789958      -0.04805377
Si       4.75335489       7.56851111      18.85415963       1.49419125       2.71348280      -4.86956805
Si       7.85976599       4.41137651      11.83970169      -1.14081687       0.53574686      -0.52762305
Si       6.15183950       2.65443750       8.34665870       0.84719256       4.06026808      -2.68908026
Si       1.22489788       7.54805442      11.90474357      -1.70323291      -1.53709641       1.70386940
Si       3.16715299       9.10384393      22.28816975       1.77016535      -0.34897203      -2.84042045
Si       9.56939212       2.49229076      15.17584075      -0.23950182      -1.51914693      -0.52477377
Si       7.73644447       1.05410322      18.81397619       0.35938078      -0.64699882      -0.28375736
Si       0.72678297       3.01149581       5.39488021       2.67774726       2.51297149      -2.00689346
Si       7.71381801       9.59129596      14.87282192      -2.85531546      -0.55992974      -1.96524164
Si       0.31872759       7.15617959      14.92910516      -0.25422637       2.18965047      -2.85051315
Si       3.35883812       0.59621076      12.32524048      -1.00846941      -1.38767128       0.62749165
Si       8.48389306       5.48801694      14.80539988       0.02905587       1.86877744      -2.30510957
Si       4.98971150       2.39773407       5.42766259      -1.27674319       0.47659099      -2.34615405
Si       2.59943267       4.65134359      12.52248865      -3.68300971       4.75581542       0.81424969
Si       5.82310316       8.08847339      21.61699982       2.45555893       1.10305237       1.28930555
O        9.24987811       5.94485232      22.30660462       0.94327073      -1.44734111       0.88158421
O        4.51833130       1.67431735      12.14660818      -0.03732597      -1.00773061      -0.29912541
O        1.69895799       4.44817255       5.69347099       1.25901463      -1.06254306      -2.12393319
O        6.49582370       8.41288057      14.90397294       1.20276892       2.26210970      -0.14750414
O        1.35924345       3.77563091      12.05445467      -0.86347532      -1.64898147      -0.40843454
O        6.48848244       9.50585807      22.17830942       0.51877371      -0.53333332      -0.99819397
O        9.45822136       6.82632334      14.89583921      -0.46763364      -2.78820744      -1.37664035
O        3.88032528       1.17159983       5.33619282       1.00388394       0.27240041       0.97086827
O        3.78410961       6.48594174      19.37659021      -1.73526275      -2.95188256       0.15308016
O        4.30533186       6.89987171      14.94611867      -0.26712360      -0.61728701      -0.76147009
O        7.22887880       3.89619567       8.28790130       0.62050117       0.31335804       0.32779599
O        6.75652842       3.21097788      11.99324193      -1.02419131       0.49555094      -0.12374872
O        1.85516320       8.12821227       8.19892300       0.21984341       1.41763430       0.61341208
O        2.20580430       8.81249108      12.03794617       0.65459456       0.30011735       1.37696745
O        9.05072315       2.08721745      19.10303891      -3.10472676      -1.23033597       0.17707485
O        8.25467064       1.54664154      15.00119818      -0.35354056      -0.69666215       0.90317655
O        3.23482406       5.13138243      16.68579759      -0.37082951      -0.16390581       0.83282475
O        5.66348810       6.98409720      17.47940144      -1.35947885       0.97150873       2.83715505
O        7.48637379       5.49502587      10.67767628      -0.12715409       0.21796748      -0.42950638
O        5.13851286       2.69320261       9.48049573      -2.70581427       0.80285584       4.60322178
O        0.23193237       7.92363675      10.65990721       0.72112036      -1.53201923       0.85661574
O        3.17102472       0.36140883       2.68142558      -1.70073327       1.03686158       2.37935851
O        0.61905387       1.84098966       9.55074823       0.47258417       1.16781257       1.42086611
O        8.16318466       9.63764619      24.54170439       0.24581920       1.31147614       1.30695411
O        9.39938253       8.65716684      22.01078528       0.14786617       0.17856917       2.45485561
O        1.77111077       0.94689372      12.03079684       2.26258326      -1.73020738      -0.36317422
O        1.38906534       1.93237245       4.35593726       0.85394106      -0.74432147      -0.03054381
O        8.97788560       9.38756868      15.80089055      -1.42821454       2.62535041      -1.17118621
O        3.97716843       4.20446304      12.09161575       3.74307627      -0.85402474      -1.72458561
O        6.80820291       6.89940433      22.00218809      -0.34201716      -0.97340408       0.14917345
O        7.20894185       5.95732045      15.60342447      -1.66266149      -0.89623628       1.09101040
O        4.55789542       3.72510457      18.30619121       0.94242050      -2.48615034       1.73565224
O        9.19514080       3.60250549      11.46293048       1.17666025      -0.69040648       0.66143271
O        6.90594816       1.30641237       8.30482145       1.72920373      -2.71834861       0.07962513
O        1.93446929       7.17304057      15.45547032      -1.91693693       0.47701316       0.37485989
O        3.86184759       8.94026101      18.33280125       0.26352061      -0.27693662       0.09046727
O        9.08276003       4.07602168      15.24413113       0.80447537      -0.59740299       0.68086891
O        6.32962373       1.93228565      18.49001388       2.59008096      -1.43995992       0.28790182
O        2.27136611       6.30912316      12.02138708       0.71603577      -2.01675518      -0.82693385
O        4.45690472       8.05584981      22.40173447      -2.45954977      -0.81656269       0.06376724
O        8.07562871       5.44805908      13.12008881       0.33677219      -0.56679898       1.55190339
O        5.37670052       2.84320915       6.88190513      -0.36353599       0.00863760       1.20249316
O        2.47818270       4.97435999      14.18335061       0.34439564      -1.79579461      -0.75704724
O        5.71906886       8.12543035      19.97348556       1.16279739       0.42938938       0.67868549
O        0.66120674       2.32369850       6.82058156      -1.04238389      -0.49704779       2.54451087
O        7.92794215       9.72662761      13.14682620       0.02327924       0.43356648       1.26183362
O        0.19177572       7.16236720      13.25431279       1.42539931       0.27147977      -1.61009667
O        3.24549675       0.18626930      13.88080157      -0.13898821      -0.94965300       2.72478295
80
Lattice="9.77192453 0.01751879 6.90363604 0.24348012 9.76890588 6.90363604 0.01370155 0.0133883 13.86910312" Properties=species:S:1:pos:R:3:forces:R:3 energy=-575.95015422 source_file=vasprun.xml step_index=975 time_fs=65950.0 time_ps=65.95 file_index=32 pbc="T T T"
Na       8.20345870       4.24826504      20.08618233       0.05703825       0.19622979       0.21922313
Na       8.68522759       0.82563050       9.99013817       0.51862625       0.23390004       0.73558968
Na       3.74849584       5.11810481       7.27582576       0.12041591       0.35423498       0.46434395
Na       5.20863129       7.97356604      12.91000090      -0.37580273       0.03123494       0.00218190
Na       3.23778025       2.45581541      15.63116673      -0.24878001       0.14050233      -0.08348848
Na       6.26713045       1.20677915      13.89459088      -0.12853715       0.05259747      -0.09786828
Na       2.52057987       1.14787351       8.83887681      -0.07064640       0.29755466       0.12132372
Na       9.41096247       6.69210857      11.25952728       0.28777350      -0.38786261       0.50725783
Al       7.01788532       5.20428548       9.10670071       0.33097074      -1.42103246       1.12315039
Al       4.52111284       2.99812939      11.78591578      -1.85037569       0.57015281       0.08518532
Al       2.67436251       4.62237066      18.56160881       1.31368938       0.73760865      -1.98757760
Al       5.40646738       6.88232831      15.91126649       0.70510007       1.61115424       1.42224289
Al       0.13195652       2.44293230      11.44571757       1.99198995      -0.77787598       0.31071226
Al       7.87573081       9.23897129      23.29746807      -1.02817156      -0.17213799      -0.05113926
Al       9.41264239       7.21773593      16.28800821       0.95881871       2.39395354       0.86929578
Al       1.87133233       0.46654440       4.56889917       3.25340037      -0.67065474       0.17288861
Si       2.71515540       5.61558309      15.40572588      -0.87065358       0.80096381       3.45625685
Si       4.23603625       7.41353645      18.99197145      -1.85534666       1.25996667      -0.96034855
Si       7.22043074       4.28996688      12.24344006       0.65782223      -4.18782616      -0.23272069
Si       5.77322185       2.50640269       8.77566697      -1.78358222      -4.25415306      -0.09379013
Si       0.78085516       7.41075051      12.28498961      -1.92411279      -0.94585323      -2.20776047
Si       2.46823291       8.89525162       8.68316772       0.90254408      -0.11046867       1.45938942
Si       9.04124458       2.20981353      15.33158873       4.55915496       4.82938454       0.63347391
Si       7.23426558       0.90958767      19.21124955      -1.51741116       0.79521336       0.43905429
Si       0.17399718       2.80603018       5.53229638       0.45867426       0.22758633       1.83211534
Si       7.17508573       9.44007403      15.19733175      -2.03183854      -1.87552587      -0.27136774
Si       9.53704427       6.89396831      22.14140077       2.15139235      -2.30576526       0.04723785
Si       2.72351897       0.54886046      12.74224775      -0.38743584      -0.42504494      -1.53251805
Si       7.76042525       5.11541881      15.02112486       4.49571006       1.35939170      -1.32738032
Si       4.26973202       2.03554427       5.95666097       2.49687308      -0.72673630       1.60275509
Si       1.99888430       4.76783814      12.60297311      -0.56894977      -0.54336371       1.59580784
Si       5.21618900       7.70322233      22.20007800       4.00240763      -0.85083778      -1.19697672
O        8.48978685       5.60602715      22.20982123       1.60941169       0.77451287      -1.44011289
O        3.97968031       1.68492064      12.96014517      -0.53412933      -1.14199501      -0.37856661
O        1.04609369       4.19461631       5.22920337      -0.66967819      -0.96616628      -0.32924282
O        6.00860353       8.28006935      14.97219713      -0.08372958       0.91603130      -0.06180567
O        0.62818316       3.92707327      12.29695813      -0.17433935       0.56848409      -0.27308584
O        6.27971060       9.02072470      22.46621993      -0.76843033      -1.49249918      -0.70520443
O        9.18172996       5.88354707      15.31103973      -0.46789197      -0.88195838      -0.46354172
O        3.26770464       0.78388778       5.82692391      -1.65493810       0.04704321      -1.64924908
O        3.01153493       6.29072550      19.04269640       0.55422073      -0.21839769       1.20766592
O        3.97642387       6.56632050      15.09412180      -1.74802520      -0.41496838      -1.73496513
O        6.73651569       3.61387907       8.14885102       0.20045071       0.95764878       1.13059188
O        5.88995476       3.51442734      12.68385838       0.01351715      -0.31824032       0.09791154
O        1.16493522       8.06521439       8.84252050      -1.31974670      -1.17901517       0.58122089
O        1.40526569       8.81093154      11.91593004      -0.38245516      -1.21730239       0.54691048
O        8.30734890       2.12196374      19.13143011       1.27108698       0.08267684      -1.04668443
O        8.36034957       0.84122024      15.58700643      -1.68475714      -1.41390705      -0.77676281
O        3.14429259       4.72706329      16.74464996      -0.58858716      -1.34908989       0.85484428
O        5.02150090       7.19299742      17.58280210       0.29538523       0.50401913       1.97404715
O        7.26460431       5.07487247      10.89992583       0.28443949       0.69429091      -2.59648552
O        4.85105101       2.72253673      10.06200147      -0.27558235       1.05367739       1.24219032
O        9.32785496       6.91447448      18.07999241       2.18641838       0.90460579       0.41112003
O        2.38520299       0.38351433       2.86200262       0.36081005       0.07975441      -0.00393565
O        0.39634008       2.44275268       9.68631365      -1.84872581      -0.40193004      -0.12172598
O        7.47799128       9.53540624      24.96244472       0.43790114       0.19762266       0.65584082
O        8.93301312       7.83902679      23.29500250      -0.25725537       1.46163905      -0.19574263
O        1.54033717       1.30229526      11.84036360       0.10490400      -0.39220631       1.33168172
O        0.59759492       1.51183840       4.66390040      -1.22454420       2.25732839      -0.48445908
O        8.41120903       8.67258056      15.81215840       0.89011130      -0.18626292       1.36565612
O        3.31199282       4.31439035      11.89046957       1.65049633      -1.65460648      -1.06345614
O        5.71315570       6.25721125       9.03572114      -1.00503201       1.85003846      -1.15066927
O        6.67733220       5.75372521      15.87557722      -2.31906195      -0.11642630       1.35857017
O        3.90414303       3.55476134       5.54640298      -1.40025619       0.44939492      -0.41870928
O        8.32502157       2.85137505      12.16451537      -0.81867292       2.11242342      -0.11869011
O        6.38873543       0.89450177       9.31187857       1.17978259       1.55505678      -1.47692749
O        1.27730691       6.34028271      15.95023412      -1.40317719       1.40299110      -1.07786065
O        3.30804232       8.95949226      18.70349275       2.01323600      -0.98943604       1.17760474
O        8.11232440       3.59368708      15.13536676      -0.31700913      -4.97376149       1.21594135
O        5.73170192       1.67576717       5.27039544       0.26902220      -0.36690631      -0.29962691
O        2.05022333       6.39432176      12.49526266      -0.86701850       0.37903583      -0.81748259
O        3.76225874       7.80449567       8.86724885      -3.33004641       1.62824604       1.24273397
O        7.66598683       5.23499127      13.38747069       0.14594335       2.47809450       0.78789563
O        4.65008441       1.97431575       7.63592140      -0.33492396       0.90502347      -0.53452265
O        2.14283279       4.65293372      14.29593832       0.11114122      -2.07001479      -2.00513674
O        5.03971295       7.28879436      20.55439158      -0.32775351       0.66227906      -1.71561489
O        0.45655790       2.42593139       7.19680036      -1.51821030      -0.66553813      -1.07136551
O        7.37786993       0.22686598       6.83632618      -0.08404144       0.43641923      -0.88108779
O        9.75697609       7.45280727      20.60429345      -0.94415475       0.00192448       2.41068637
O        2.66976779       9.57717009      21.11528601       0.15892306       1.83556354      -1.72428828
80
Lattice="9.77192453 0.01751879 6.90363604 0.24348012 9.76890588 6.90363604 0.01370155 0.0133883 13.86910312" Properties=species:S:1:pos:R:3:forces:R:3 energy=-576.32302092 source_file=vasprun.xml step_index=150 time_fs=84300.0 time_ps=84.3 file_index=42 pbc="T T T"
Na       8.77325699       3.57336632      21.06128210       0.38777918       0.81858656       0.81926271
Na       7.63734332       0.93899069      11.50477622       0.48781696       0.07434929      -0.39091533
Na       6.50993070       4.55395463      17.96945653      -0.16175922      -0.03569575      -0.17987216
Na       4.23706420       7.03470855      11.74946912      -0.19118840       0.06969740      -0.06062730
Na       3.03497965       2.77233194      15.79357458      -0.26329220      -0.25318793       0.29102871
Na       5.89993853       1.55927536      13.90578281      -0.32318661      -1.13273140       1.38458123
Na       1.48620182       6.11389878       7.13601863      -0.10472321       0.21229340       0.36562059
Na       1.57551916       9.13894075      17.03600645      -0.26318224       0.10038297      -0.01230120
Al       7.30312747       5.44998111       9.20117615      -0.78398099       2.12272817       3.11932218
Al       4.49439576       3.01934642      11.46090321       0.71231850      -0.28516023       0.96645478
Al       2.71269917       4.85143152      18.51026530       1.23300356      -0.89141027       0.59146339
Al       5.57814227       7.37310520      16.07404483      -0.52003791      -1.52161263       1.36684760
Al       0.42293863       2.30303670      11.64097797      -1.02172682       0.39239318       0.57004414
Al       7.88190191       9.60987646      23.14585720      -1.66616424      -0.29832531      -3.42627299
Al       9.52103238       8.01944877      16.19364273      -1.01495884      -2.19646825      -0.17135779
Al       2.29386869       0.48092524       4.71635842       0.89528477       1.60149067      -0.27840531
Si       2.72772417       6.02002891      15.50809344      -0.64956600       1.85687237      -0.09089119
Si       4.48535615       7.43136508      19.24057008      -2.66528028       0.09015540      -1.95489502
Si       7.19275987       4.17818268      12.25632379       2.45848919       0.19496913      -0.61202008
Si       5.74624198       2.88819192       8.56693570      -1.07212265       0.58985631      -1.80297200
Si       0.84164032       7.63422008      12.10589760       2.55480924      -0.47034586       0.98472786
Si       2.68275782       9.03252204       8.64504788      -0.75754823       0.25788185      -0.30796783
Si       8.99915208       2.31503062      15.39909943       3.97233844       0.19469813      -0.02776430
Si       7.37867879       1.22139974      18.96330496       2.18869096       0.01176700       1.74301252
Si       0.38693105       3.04344267       5.56858452      -1.76165656      -3.11645103       2.47190336
Si       6.90530533       0.17230411       8.17601134      -0.08163866      -2.93309177      -1.81326265
Si       9.68998654       7.12333718      22.09635974      -0.67647137       1.17431933      -0.07757912
Si       2.81252631       0.53253243      12.81442754      -0.09863212       0.31613320      -1.91358731
Si       7.97237925       5.30510420      15.17404847      -0.18491359      -0.48257234       1.85582986
Si       4.70196750       2.30425281       5.58283344      -2.39129436       0.27145120      -2.08395381
Si       2.10284776       4.84842106      12.54056342       3.81716247       0.89575746       0.86920825
Si       5.56318090       7.88460192      21.99179136       0.04070665       2.24665349       0.15326523
O        8.81957770       5.72524810      22.34977654       2.98285400       1.36557722      -1.14851464
O        3.92275451       1.69788258      12.45333671      -0.25873895      -1.65016604       0.35527079
O        1.23059772       4.33784462       5.62614863       2.45794366       3.55062386      -1.71741980
O        5.93880590       8.80376127      15.28566139       1.12842842       2.80828000      -1.01328241
O        0.99351764       3.82655412      12.38103921      -2.93059787      -3.18500058      -0.04733163
O        6.15708384       9.42923942      22.19485561       0.44183702      -0.82365910       0.31305955
O        9.20051754       6.34121467      15.44142858      -0.00806531      -0.20264780      -0.56737260
O        3.90102816       0.96189095       5.34198244      -1.95456463      -1.27315066       0.11044008
O        3.36569295       6.20609209      19.44912346       0.13627231       0.34550530      -0.74036145
O        3.95896141       7.04201883      15.46215965       0.16893305      -0.86414490      -0.51873561
O        6.84445354       4.13062549       8.30191368      -2.41334839      -3.01381065      -0.52031829
O        6.16918875       2.93272343      12.46491568      -1.72356099       1.46558873      -2.53643729
O        1.18933187       8.22129340       8.46886123       4.62824598       1.24381131      -0.18115740
O        2.13363614       8.68329189      12.18503810      -0.80330543      -1.45617150       0.03081823
O        8.60338531       2.39591115      19.42771027      -1.35791413      -2.16933671      -2.84568969
O        7.90164030       1.18555963      14.97699925       0.73626163       0.50505767       1.19923283
O        2.64623473       5.01357901      16.72360882       0.25657592      -1.89780654       2.33362408
O        5.31993912       7.47023997      17.85180022      -0.14514385      -0.14195230       0.41345754
O        7.11223452       5.28108056      11.04911403      -0.58276259      -1.03059348      -0.42834586
O        4.63480685       2.99917672       9.73113821       0.60606530       0.31406135       0.11702728
O        9.52910260       8.10943922      17.93999621      -0.26078142      -0.34819869      -0.00785833
O        2.63409942       0.36202642       2.95378695      -0.50085590      -1.00900706      -0.20643869
O        0.07793448       1.94184082       9.98063311      -0.61311623      -0.41782529      -2.54483315
O        7.91380322       9.77166486      24.81367824      -0.24523457       1.66248307       1.45860148
O        9.15727715       8.50465944      22.80133614       0.18477699      -1.17165298      -0.10299969
O        1.38621033       0.99058859      12.23514047      -0.11179589      -0.28674599      -1.22786648
O        1.06285206       1.77798566       4.87988311       0.48833544      -0.98562995      -1.48031098
O        8.38840056       9.15350985      15.74950906      -0.82380720       2.07622279      -0.09103907
O        3.52527751       4.34926922      11.90266613       0.09842837       1.16265354       0.19557100
O        6.59089173       7.03495367      22.84654834      -0.79046575      -1.11075843       0.65253724
O        6.72856534       5.95306589      16.06061753      -0.33244740      -0.36999905      -0.42841296
O        4.02379335       3.60130843      18.69258735      -0.22709491       0.49612484      -0.22941100
O        8.57064676       3.23665796      12.00109975       0.69568123      -0.03369228      -0.42850264
O        6.66798396       1.59908717       8.94294057       0.53617385      -0.61402560       0.32802143
O        1.41371649       7.02086310      15.80385455       0.95644452      -0.55692228       0.17151965
O        3.38277952       8.75546511      19.28203701       1.44360126      -0.49775755      -0.90808728
O        8.40810645       3.74200336      15.87301087      -1.72892419       3.02620837      -0.80155640
O        6.04083432       2.04878799      18.54680381       1.72716995       0.86949717      -0.50481538
O        1.70296733       6.10823035      11.61514358      -1.34095984       3.59981394       1.05754530
O        3.92977921       7.88143449       8.51384944      -1.17648787       0.56575998       0.77933750
O        7.39092293       4.92875244      13.68643551       0.25279355       0.71578330       0.26900406
O        4.91203405       2.58243294       7.11477217       1.71879570       0.94613505       3.49920761
O        2.51911676       5.04125111      14.21249167      -0.71898570       0.11485556      -1.75263747
O        5.51759630       7.32465908      20.44792878       1.10653971       0.40031339       0.75822168
O        0.39322266       2.55303135       7.17787034      -2.47761038      -0.27349237       2.40447194
O        7.25557412       0.47888733       6.54780177      -1.20998484      -0.57441766       2.03677610
O        0.22619616       7.59251904      13.63318632      -0.58622829      -1.29586338      -1.00389650
O        2.53038914       0.35922237      14.34414216       0.43426554       0.12577244       3.14933414
80
Lattice="9.77192453 0.01751879 6.90363604 0.24348012 9.76890588 6.90363604 0.01370155 0.0133883 13.86910312" Properties=species:S:1:pos:R:3:forces:R:3 energy=-576.3945229 source_file=vasprun.xml step_index=365 time_fs=64730.0 time_ps=64.73 file_index=32 pbc="T T T"
Na       8.49549627       3.50873248      21.38180474       0.05178595      -0.42868847      -0.49183425
Na       7.55116084       6.47338733      18.34462174      -0.07191594       0.20820640      -0.04302117
Na       2.65360713       6.14644500       9.65073452       0.31089954      -0.32304251      -0.09143777
Na       5.27099380       8.11310220      12.92254530       0.00978496       0.09619045      -0.10076786
Na       2.74940866       2.12553303      16.01496822       0.39662034       1.48270884      -0.74651338
Na       6.85372874       1.97259468      13.53193624      -0.79199910      -0.65560667      -0.11344766
Na       2.21133032       1.31460718       7.96353275      -0.03381237       0.31889435       0.54971741
Na       0.42328546       6.72202859      17.97569787       0.08306766      -0.12998584       0.41011090
Al       6.76755764       5.34082737       9.12985119       2.58545533      -2.33089690       2.15011948
Al       4.47846998       2.77190866      11.51387718       0.65519789       1.52036066       0.68712888
Al       2.74193572       4.37027597      18.35656314      -1.89509069       2.94292640      -1.11582412
Al       5.39383680       7.06994691      15.99670799      -1.81544947       0.75136867      -0.72408943
Al       0.29452682       2.35481223      11.45485714       0.78271413       0.06307285      -0.91432445
Al       7.76221790       9.33916031      23.05806647       0.12434327       0.86807311      -0.24129745
Al       9.59918757       7.73612089      16.15758614       1.21452996      -1.43040310       0.89249141
Al       2.10228015       0.39279961       4.88624601      -0.98585946       0.65816501       0.05599365
Si       2.57956051       5.55239175      15.36238493       2.43571326       1.02799578       3.91961702
Si       4.13706229       7.21668602      18.73569866      -0.03481610       3.35398508       4.33187678
Si       7.34059998       4.46919044      12.24480008      -1.52158235       1.14149123      -2.37169412
Si       5.47691430       2.40246246       8.58953164      -2.12546103      -0.67457735       1.88284463
Si       0.91994265       7.54064535      12.33138528      -2.78086531      -3.08041073      -0.04826893
Si       2.68872822       9.14645055       8.73593092      -1.23108774      -0.45922427      -2.21871588
Si       8.97107675       2.45368272      15.27502996       0.01425811      -0.98682222       1.95007714
Si       7.22134614       0.82999113      19.15021259       2.85341275       0.08027325       0.58247956
Si       0.29896462       3.14298634       5.59618426      -1.01309953       2.51277699       0.18197664
Si       7.27443253       9.39591866      15.09486598      -2.73679072       2.27985682      -3.37785263
Si       9.41377339       6.85441910      22.08586959       0.58261825       1.28323588       0.54661933
Si       2.81589187       0.50069257      12.62599205       0.87702225      -0.11397278      -0.36797875
Si       7.75882369       5.21354643      15.22769402       1.15758003      -0.21912318       0.74555843
Si       4.42311329       1.95269467       5.84293856       1.16016972       1.08918546      -0.30803983
Si       2.19185710       4.77031242      12.46688200       0.16301187      -1.72441770      -2.96618225
Si       5.37483791       7.68949825      21.80123195      -1.83859047      -2.87580647      -0.91747920
O        8.33169147       5.63635393      22.10649318       0.35475317       0.01254748      -0.53391788
O        4.20312595       1.41750047      12.54022039      -0.25377553      -1.23035402       1.03550311
O        0.94811762       4.52343630       5.00303744       1.13044057      -1.22706948      -0.32576738
O        6.12468475       8.30481647      15.00453144      -1.58067705      -0.80391371       0.77785906
O        0.78224790       4.06418763      12.02455284      -1.10664466      -1.43103826       0.75650749
O        6.59783797       8.64540243      21.91515792       0.96874562       1.49528022       0.09393235
O        9.14569410       5.97475713      15.87051541      -1.45789419       0.19770569      -1.33613876
O        3.57857502       0.55158651       5.76939284       1.55379062       0.44580709      -0.27848372
O        3.08095369       6.05951198      18.78358512      -0.22473405      -0.98600368      -0.60906557
O        3.77443074       6.66970234      15.44962736      -0.05395986      -0.44089825      -0.79632450
O        6.50862813       3.60980544       8.66875322       0.35014139       1.91042018      -0.53809998
O        5.91652650       3.71217246      12.25063643      -0.56866253      -1.47388916       0.52002952
O        1.51019922       8.00671721       8.55891594      -1.08399939       0.31600181       1.05634424
O        1.85997234       8.70526604      12.55774715       1.91822062       3.59827240       0.48415422
O        8.56239464       1.81326606      19.17302879       0.78285057       0.00498880       0.30812578
O        8.19691970       0.92875133      15.18782399       0.45999355       1.78110416      -1.28821190
O        2.74650450       4.41159845      16.55338920      -0.07788724      -0.65570714       0.16490905
O        5.20840291       7.52899459      17.62876547       0.85086507       0.01239652       0.09340463
O        7.33914503       5.35431173      10.86440991       0.41723801       0.26310887       0.05731440
O        4.47876188       2.24033497       9.89653728       1.02317047       0.05410931      -1.76707366
O        9.72931553       7.54218159      17.96311299      -0.95059691       0.69561065      -1.19872417
O        2.24661006       0.34991484       3.14364122       0.12915818      -0.82946992      -0.28382436
O        0.20516221       2.14905139       9.59866541       0.47069666       0.87366397       1.51888119
O        6.96619382       0.23472502      17.72468167      -0.05684884      -1.85890327      -2.42381759
O        8.85564360       7.97488885      23.22405239       1.62421636      -1.24687198      -0.88557273
O        1.77692916       1.39504597      11.70379364      -0.37994239      -1.25235372       1.45577813
O        1.20136822       1.88410226       5.33269547       0.54912833      -2.30535216      -1.13968316
O        8.47148964       9.05069833      15.98860624       2.60419465      -0.99146633       0.90765180
O        3.35333915       4.09210161      11.51539736      -1.23717454       1.50649119       0.97095376
O        5.49456637       6.35553790       8.94712657      -1.46273087       1.57080522      -1.32040914
O        6.51299257       5.83868379      16.04567433       1.43521798      -1.90557562       0.07019444
O        3.76285956       3.22636779       5.10840065       0.88327279      -1.67145353      -0.63044057
O        8.45675120       3.27153309      12.13965849       0.46687834      -1.22586746      -0.12942272
O        6.50543635       1.13991503       8.67068208       0.59652494      -1.67111438      -1.22849311
O        1.24260191       6.36847264      15.69681469      -3.80771265       1.08078882      -0.26993342
O        3.22918944       8.66951313      19.01717842       0.08567843       0.48822632       0.07231127
O        7.68730441       3.49897822      15.58199201       0.95926068       1.52869311      -1.15505858
O        6.08083842       1.89530303      19.43097391      -3.23863698       1.05415276       0.66361006
O        1.98684582       6.31872961      11.94135925       0.37876890      -0.05623184       0.98130229
O        4.04237169       8.27623065       8.75234915       0.18898761       0.40711262      -0.08424375
O        7.55103405       5.44209527      13.58074492       0.37498468      -0.53159921       0.40241000
O        4.29012826       2.44868568       7.37019434       1.21328491      -0.28215181       2.27715765
O        2.58111374       4.73324565      14.04140082      -0.45004284      -1.44120197      -2.23918357
O        5.12304744       7.08096912      20.19282849      -0.24981949       0.98786376       1.05553070
O        0.19605789       3.22836447       7.22113038      -0.89197912      -1.46922506       2.15653524
O        7.43536133       9.36426525      13.33708480       0.74302991       1.40583989       0.56276879
O        9.63854352       7.48803949      20.56149717       0.43596745      -1.05579448       0.08273289
O        2.52563070       0.40265096      14.34121179      -0.39060280       0.10271483       0.18635752
80
Lattice="9.77192453 0.01751879 6.90363604 0.24348012 9.76890588 6.90363604 0.01370155 0.0133883 13.86910312" Properties=species:S:1:pos:R:3:forces:R:3 energy=-574.37733646 source_file=vasprun.xml step_index=310 time_fs=72620.0 time_ps=72.62 file_index=36 pbc="T T T"
Na       8.83111934       3.59041201      20.86196242      -0.13210613      -0.28301661      -0.24170693
Na       8.91793873       0.82752452      10.52825710      -0.67887057       0.09854513      -0.43565942
Na       7.07365119       6.85443502      19.00229311       0.72691859      -0.01715054       0.37683362
Na       3.73821538       7.47383937      13.36380876       0.26776121       0.71072594      -0.42277866
Na       2.86612227       2.20148973      16.54517885       0.18138142       0.62207487      -0.51789542
Na       5.96068968       1.06863460      14.13287637       0.05030502       0.15307529      -0.16027808
Na       2.44378357       3.50582353       9.36238200       0.05667613      -0.01420626      -0.61339526
Na       0.82148496       7.02269980       5.57301007       0.20368735      -0.22587183       0.08126615
Al       7.06384245       5.09366306       9.04342945      -0.63962255      -1.43258286       1.50920270
Al       4.57644368       3.05740399      11.30538769       0.98609664      -0.30492455       3.13859912
Al       2.83597139       4.50319826      18.40374038       0.20373952       1.78731296      -1.14381810
Al       5.55998620       6.88167772      16.14153348      -1.79533963      -1.64714399      -0.57930057
Al       0.44036675       2.18108010      11.41161418      -2.34705584       0.19497704       2.91248714
Al       8.21923003       9.28561221      23.02616410      -3.34866864       2.19127459       1.01605570
Al       9.79813769       7.47664278      15.68775123      -0.87549459      -0.23620765       1.63715851
Al       1.79917410       0.25145409       4.60495688       2.55689529       2.21776248       0.05304060
Si       2.77312093       5.33141614      15.26535199      -1.91506985       3.49078440      -0.17528611
Si       4.18555027       7.47919023      18.90508256       1.09323783      -1.36201179       1.18215050
Si       7.32237742       4.12462939      12.20666692       0.78837511       4.01306439      -0.75608961
Si       5.63735635       2.24517206       8.43247864      -1.69452061      -1.19227344      -0.04004551
Si       0.57392520       7.39203535      12.08133522      -2.87754055      -2.76262249      -0.01681945
Si       2.77195576       9.04894765       8.39907168       1.98753892      -2.14593182       3.82869931
Si       9.31673113       2.26395648      15.44933972      -3.43716513       1.44791871       0.22713563
Si       7.31413009       0.91856669      19.08957105       3.36845244      -1.37525196      -1.56707586
Si       0.45914393       3.08266132       5.56319059      -3.52734655      -4.51446479       0.74418825
Si       7.17380466       9.25941075      14.93193223      -0.72339174       0.59648941      -0.43236464
Si       9.62167124       6.75675712      21.99126570      -1.61844920       0.93292898      -1.61054482
Si       2.81620593       0.55859228      12.60168855       0.69126768       0.66283045       0.56817909
Si       7.99183253       5.10917113      15.16770485       1.76809334      -0.60932707      -0.93444968
Si       4.35981156       1.77921607       5.53925379       0.87435771      -0.91480654       4.51368184
Si       2.02939584       4.61560290      12.43880301       1.35833367       0.77132178       1.76097152
Si       5.67584948       7.59874799      21.92977335      -3.30475325       2.28731057      -2.70712186
O        8.70048065       5.41128570      22.27518050      -0.16592019       0.71398170      -0.16282917
O        3.99041894       1.69234459      12.35850891      -0.84388141      -1.28015972      -0.66329217
O        1.27422912       4.33560267       5.34551595       2.05343197       3.79925273      -0.18753404
O        5.83796297       8.21670515      15.17157265       3.13834061       2.74026416      -1.79797510
O        0.68144048       3.89598862      12.01236520      -0.25068484      -2.07729232      -0.94285387
O        6.90615742       8.58900605      21.88647570       1.58005784       0.98315652       0.45329387
O        9.55154175       5.77700369      15.14119312      -1.26240604       2.37936169       0.04495465
O        3.37749110       0.47113480       5.46196963       0.10380608       0.25015446      -1.14105034
O        3.25352027       6.17209803      18.84613524      -1.04512340      -0.76760454      -0.32762582
O        4.01881534       6.32388620      15.14916404       1.02488615       0.22903286       0.87500977
O        6.65964869       3.43085832       8.25026615       2.16100717       2.16302650      -0.36176260
O        6.04508253       3.24816851      12.44439628      -1.59331626      -1.69668653      -0.56773229
O        1.56727734       7.93654517       8.09745269       1.49351213       1.09881439      -0.08125790
O        1.21251469       8.80586978      12.30438788       0.31064101       0.76491784       0.41172394
O        8.76089086       1.77936428      19.33014418      -2.30903542       0.51140875      -1.05903069
O        8.14650809       1.14561235      15.31593120       0.02602169      -1.04769000      -0.00506524
O        2.82286750       4.43520732      16.52085850      -0.10180936      -2.04328408       4.51748445
O        5.34845218       7.44020542      17.81703343       0.74656603      -0.59528211      -2.63051222
O        7.03611656       5.10099053      10.85867369       0.44272635      -0.94205613       0.01569328
O        4.63936111       2.73932719       9.61229069      -0.95377063       0.46423751       1.81360837
O        9.58882399       7.29046793      17.50671983       0.78520485       0.37956182       1.07448802
O        2.25541507       0.18841521       2.89638871      -1.05767381      -1.78647682      -0.71800106
O        0.50038799       1.83128584       9.76942539       1.09801363       0.86059420      -1.29432862
O        7.55949778       9.61489497      24.77065242       1.26125793       0.12001486      -3.04234508
O        9.36383094       8.11871826      22.83273040       1.37467736      -1.86940849       0.10969154
O        1.31796546       0.96566202      12.19450819       2.11837187      -0.70767646       0.41680737
O        1.01286241       1.89105570       4.57706286       0.19768707      -1.39503559       0.03829097
O        8.67193838       8.94051627      15.58625989      -0.49574342      -1.22215321      -0.27989168
O        3.48016204       4.37220820      11.82872105       0.33195486      -0.86257247      -2.73241894
O        5.74411221       6.12610755       8.56506737       0.86664089      -1.84663371       0.74225055
O        6.62569451       5.51688268      15.86399320      -0.32838394       1.53229871       2.01020963
O        3.72318723       3.14016750       5.04785697       0.07843915       0.22448548      -1.11377179
O        8.69797556       3.27477796      11.80993751       0.03265258      -0.23498764       1.11941949
O        6.44666232       0.87345024       8.93113617       0.60994107      -0.44297642      -1.13940575
O        1.36808719       6.42591147      15.36226184       2.98673394      -1.63086940      -0.26447698
O        3.33718290       8.81652607      18.85874589      -1.27588574       1.88490004       0.25635038
O        8.43769104       3.71390556      15.85520969       1.09719163      -3.00748039      -0.18333486
O        5.98011993       1.77267194      19.02079288      -2.03572514       1.12909971      -0.40375465
O        1.68155987       6.18723305      12.27064292       0.50145502       1.75382760      -0.15161890
O        4.49352861       8.53173444      22.60946331      -3.16209845      -0.22461327      -0.16899985
O        7.53459223       5.15946884      13.60560268       0.28569420      -1.88543488      -3.00417395
O        4.47910708       1.90156252       7.30238071       0.76815941       0.16603522      -1.72402960
O        2.46067169       4.37929280      14.03748919      -1.13757467      -0.97468184      -1.22445383
O        5.11440712       7.41569601      20.22736317       1.23987003       0.28854156       2.68053901
O        0.30823309       2.45521614       7.14464128       1.17796808       1.03571879      -1.77654182
O        7.54797198       9.56981539      13.28427570      -1.40654076      -1.21274763       4.54687975
O        9.20045687       7.15404133      20.26988102       1.47064059      -0.47325899       0.05261269
O        2.88537273       0.40021497      14.31659742      -0.21248783       1.63296405      -3.26391844
80
Lattice="9.77192453 0.01751879 6.90363604 0.24348012 9.76890588 6.90363604 0.01370155 0.0133883 13.86910312" Properties=species:S:1:pos:R:3:forces:R:3 energy=-576.22380198 source_file=vasprun.xml step_index=765 time_fs=77530.0 time_ps=77.53 file_index=38 pbc="T T T"
Na       8.66974656       4.05231665      20.68396062      -0.14954962       0.10671978       0.00567532
Na       8.15365148       1.69557248      10.29672947      -0.03907476      -0.41416720      -0.41095536
Na       5.84832766       3.64527884      17.41664317       0.38416626       0.26224293      -0.06061830
Na       1.54357644       0.11821649       7.65297593      -0.00373883      -0.06325700       0.40659193
Na       2.58527707       2.31796821      15.43295898       0.07076412       0.91592301       0.01747392
Na       6.60376100       0.56910988      13.28932010      -0.59769477       0.08636719       0.11289722
Na       5.34477447       7.79989843      12.85939808       0.27396757       0.00775043      -0.05119521
Na       1.09158224       6.32769875       7.24959307       0.17942064      -0.42606184      -0.36284759
Al       6.82155672       5.34336184       9.50006284       0.57504021       0.46535934      -0.09452655
Al       4.48227221       2.65190415      11.88153681      -0.13148657       0.93836206       2.53965132
Al       2.79618321       4.64880240      18.56606827      -1.53965938       0.15833861      -1.65273577
Al       5.30277545       6.87982849      15.94366139       1.14427383      -1.50083068       2.66859795
Al       0.31936989       1.98250520      11.50832326       0.62608566       1.19157339      -0.78907887
Al       7.51846963       9.69701961      23.12230911       0.47261408      -2.76833843      -2.07618355
Al       9.41533050       7.92959565      16.20162969      -1.33225260      -1.43050903       1.92708290
Al       2.03395575       0.39405723       4.68688191      -0.44866639       1.04384164       0.33245739
Si       2.35460436       5.76682512      15.58121384       0.15847285       0.67406398       1.41092598
Si       4.39950716       7.37602035      19.02864815       0.33950157       0.56170933      -2.96772643
Si       7.43744875       4.04336674      12.26775108      -3.35823784       2.58411590       2.29030680
Si       5.28182676       2.62102079       8.82710434      -1.79275426      -0.99999917       0.80550504
Si       0.60048462       7.32441102      12.22355620       2.23601762       1.56880554      -1.37349966
Si       2.46571701       9.21919771       8.61672522      -0.80719891      -3.27411614      -0.85648222
Si       9.04411773       2.17187304      15.49505380       1.37946303       2.76179867       0.92289280
Si       7.17386423       0.90514182      19.14466425      -0.59065975      -1.11414360       2.64543087
Si       0.41225831       2.98215614       5.81025720       0.63271462       0.53981259      -2.53701129
Si       6.96489739       9.50429779      15.13540053      -0.52762683       0.42670235      -0.50801900
Si       9.42231861       6.98702402      22.03325087      -3.69966194       1.16469392       4.62918909
Si       2.80088079       0.18394597      12.72745843       0.60387226       2.91740754      -4.41782811
Si       7.98579032       5.01644152      15.42809571      -1.22642546       0.09735631      -0.71382534
Si       4.29616916       2.36127091       5.95540680       2.95140799      -1.20901553      -1.48634552
Si       1.94259644       4.67724321      12.75243186      -0.38016584      -0.58100903      -2.57797151
Si       5.21500458       7.88392042      21.95012061       1.22034333      -1.91574560       0.79376966
O        8.33496401       5.68889846      22.50514969       2.70977359       1.30032518      -1.59873329
O        4.26034198       1.11762711      12.79386285      -1.14030581      -1.17797667      -1.01631588
O        1.36978042       4.32545272       5.67957744      -1.00966638      -0.44901888       0.38549546
O        6.02710117       8.18717083      15.18310290      -0.23859082       1.24088890      -1.64980942
O        0.73595409       3.74042680      12.02453174      -0.08945022      -0.19655554       1.32454796
O        6.06540705       9.22130389      22.09895441       0.82449003       1.51531276       1.00559046
O        8.94620891       6.26971782      15.61672567       1.75447525       1.50653672      -0.23551767
O        3.43285410       1.00863055       5.77601646      -0.95471807      -1.44243050      -0.80024316
O        3.59254145       6.01163251      19.06056382       0.38594592       0.47188526       1.06521924
O        3.80493328       6.44328336      15.15717200      -1.08812035      -0.16254522       0.15530902
O        6.43155843       3.69934001       8.89016730       0.85633780       1.95766203       0.17624465
O        6.22519732       2.91936008      12.41210599      -0.09401055       0.42583144      -0.65570652
O        1.11280714       8.24602704       8.45119124       0.97807570       0.93677707       0.10283193
O        1.68169411       8.62300018      12.20046087       0.43932383       1.48979168       1.31499294
O        8.61798180       1.52892407      19.17701909       0.92878836       1.00560622       0.46944339
O        7.76646578       1.30583853      15.23062472      -1.43453313      -0.59900599      -1.35739861
O        2.51304529       4.67898905      16.78704198       0.11322146      -0.00088982       0.11672848
O        5.27835154       7.56093541      17.59654587      -1.51021041      -0.69296069       1.68037304
O        7.09539079       5.32529089      11.27261628       0.08031064      -1.35604834       0.21437248
O        4.36236701       2.53178647      10.21559971       0.69888894       0.03981086      -3.33283533
O        9.33682831       7.81429830      18.03044652      -0.25284840      -0.50893319      -2.24815349
O        2.06204867       0.51337776       2.89601323       0.99942287      -0.18118204       0.88593197
O        0.05965043       1.52942145       9.80015836       1.27641453      -0.55328167       0.61311428
O        7.10355133       9.76122486      24.78274653      -0.51697847       0.16351962      -0.36721668
O        8.79678812       8.48333502      22.67155572       0.58953925      -1.64259284      -1.00552084
O        1.71634595       1.12188871      11.86260509       2.14576074      -2.03406744       1.44665541
O        0.92846409       1.80964529       4.79888032       0.41778762      -0.82695323       1.03483514
O        8.23880575       9.20082768      16.04877393       0.77791601       0.77193352      -0.07837568
O        3.41013740       4.03899926      12.57003079       0.68920151      -0.96631286      -0.29531512
O        5.83142662       6.67132536       9.01807797      -1.15692007       0.60171722      -0.71374034
O        6.55396474       5.41407782      16.07029094      -2.00141122       0.51574769       0.29362204
O        3.99314713       3.45592273      18.67034272       0.98236058      -1.74047529       0.39641506
O        8.68850314       3.14442675      11.87481325       2.45047087      -0.25297613       0.76702862
O        6.26852952       1.27259891       8.73790717      -0.86357391      -1.10837334      -0.03198052
O        1.09825666       6.84024803      15.94861434       0.83380226      -0.18304191      -1.08583220
O        3.02349980       8.40092604      18.99692200       1.46424189       1.67642386       1.53523429
O        8.54628283       3.61796226      16.09283992      -0.64739532       1.12035565       0.11187929
O        6.13478928       2.09499490      19.51685732      -3.28662310       1.51424591      -0.52060302
O        1.79027692       6.20210520      12.01205200      -0.53507014      -1.60400707       0.76434370
O        3.65006176       8.01918548       8.68961067      -0.29838693       1.39173268      -0.74912046
O        7.74204870       4.71320519      13.82499586       0.26757864      -0.63944127      -1.78399611
O        4.22890264       2.85828506       7.46307667       1.10486347      -0.04825998       2.58882180
O        1.67416628       4.94105974      14.36994735      -0.52647557      -1.33002789      -1.41711715
O        5.43095816       7.57290405      20.28032761      -1.12579059       0.25562307       1.20680947
O        0.40381630       2.62987748       7.39550275      -1.40583542      -1.52453761       0.39280146
O        7.18282864       9.67032154      13.53294014       0.45277824      -0.29053133      -1.22220084
O        9.44476401       7.08357468      20.42286722       0.35620483      -0.41906890       0.47600299
O        2.41011846       0.40199240      14.24403477      -1.02008178      -0.74166800       3.05223220
80
Lattice="9.77192453 0.01751879 6.90363604 0.24348012 9.76890588 6.90363604 0.01370155 0.0133883 13.86910312" Properties=species:S:1:pos:R:3:forces:R:3 energy=-576.27962546 source_file=vasprun.xml step_index=830 time_fs=93660.0 time_ps=93.66 file_index=46 pbc="T T T"
Na       7.72211636       7.99737925      18.43361945       0.85619288       0.07425796       0.33204811
Na       9.02909963       1.58289072      10.44862195      -0.00911219       0.10026648      -0.01384122
Na       4.27018362       6.70004110      11.07360252       0.05402919      -0.29532938      -0.11974563
Na       0.85275042       8.37066996      18.51131824      -0.41345517       0.47782218      -0.33807834
Na       8.29933322       3.94845573      20.53864370       0.91532041       0.30612130      -0.61550535
Na       5.45783952       3.47997017      16.49376269       0.14585072      -0.07137702      -0.44206528
Na       2.22304728       6.39709834       6.80158116      -0.72773829       0.04341281       1.09104199
Na       2.97438993       1.88115380       8.34680390      -0.16778577       0.10697894      -0.07688521
Al       7.44967454       5.60170128      22.94816463      -0.36992859       1.68602185      -0.59106140
Al       4.96217917       2.94134240      11.50606177      -0.52319469       1.48191499      -0.17719268
Al       3.41077846       4.81050825      18.50696560      -1.42610618       1.98736762       0.05107589
Al       5.82548227       7.46269007      16.08279290      -1.42005331       1.33266709      -0.18668108
Al       0.59287923       2.20770719      11.84347186      -0.30386809       0.36512825      -1.75872261
Al       7.99332527       9.70921252      23.12525320       1.95652510       0.45890249      -0.41823725
Al       0.24716965       8.04485933       9.13151447      -0.97277654      -0.91154430      -2.33134142
Al       2.30443250       0.73464534       4.64590398       1.41520147      -1.28931156      -0.15560139
Si       3.19849938       6.10878110      15.30331360      -0.94659739      -1.51553279       2.09962874
Si       4.65882261       7.72757340      19.07756957       0.12030608      -2.09111300       2.53039624
Si       7.55640338       4.50852231      12.17965912      -0.65510061      -0.69745758       1.68584838
Si       6.15952625       2.80922855       8.53131657      -3.39714342       5.06271161      -0.10971920
Si       1.26238138       7.46391745      12.17736554       2.55007211       1.48995901      -3.40530336
Si       2.90707751       9.41543349       8.55754153       0.83178606      -2.31126802      -0.25639929
Si       9.28808408       2.79875003      15.68247792      -1.00821769      -1.40382664      -0.41898032
Si       7.70218305       0.85525963      19.14909366      -1.87956304      -2.79875409       1.13279749
Si       0.65650540       3.22622523       5.76236142       0.74975968      -0.72008396       0.30824021
Si       7.16833345       0.09159787       8.20733387       3.85980812      -2.37172593      -0.75069012
Si       0.20439953       7.28339831      15.02832767      -2.10270618       0.61254867      -1.35954790
Si       2.96986944       0.54133168      12.60773894       1.52471549       1.72898113      -1.55440345
Si       8.29701803       5.74036180      14.99871260       2.93942334      -0.82106544      -1.19094466
Si       4.90026653       2.15411423       5.73031332      -3.61989754       1.64692642      -2.54179892
Si       2.61107541       4.49300358      12.83734681       2.79229411       3.13953969      -0.47544430
Si       5.63591135       7.98274738      21.99541514       0.15729535       3.10361043      -1.46130110
O        8.90209751       6.05449045      21.89848426      -0.99660435      -0.10707833       1.85057265
O        4.16861368       1.55290823      11.92664259      -3.00433696      -3.87875353       1.76048906
O        1.66145963       4.47723655       5.43070078       1.77684773       0.27228375      -0.18161235
O        6.05838345       9.19901057      15.57035862      -0.52418327      -0.53697346      -0.11482028
O        1.52009136       3.39576561      12.75927849      -2.56479865      -1.45708245      -0.37839440
O        6.46325000       9.39285346      22.34878133       0.43634088      -1.72568096       0.86580969
O        9.79325706       6.60752224      14.86009007      -2.82820537      -0.79533083       1.44994166
O        3.49062666       1.30207182       5.80408132       1.96649774       0.41300509       0.43956380
O        4.07952920       6.25285649      19.50188724      -1.23450105      -1.01967927      -1.21309189
O        4.47572131       7.02739574      14.96208264       0.16640314       0.16550043       0.93038132
O        7.07899152       4.13324321       8.32386682      -0.67252203      -1.67724105      -0.43543466
O        6.29404308       3.43998254      12.38674571       3.68291680       1.07170716       0.74600630
O        1.62010622       8.45870132       8.14723735       0.75608936       1.48340982       0.82125080
O        2.15930636       8.91565373      12.04559679      -1.00743927      -3.22170910       0.51811293
O        8.65816335       2.05509791      19.35958046       2.62750421       3.13087029       0.40639321
O        8.10783323       1.61049931      15.78690541       1.19036613       1.05523129      -0.52828485
O        3.38175151       5.42439256      16.83832449       0.12975276       0.36093894      -0.18533861
O        5.67887227       7.76478924      17.91326474       1.07052419      -0.71835740      -4.52039452
O        7.39489735       5.22067878      10.74651969       0.56153260       0.85403918       0.98710712
O        5.14462920       3.04413509       9.77705564       0.64235877      -1.35917809      -1.40223174
O        0.42803854       7.42510613      10.68648197       0.38545144      -0.57248091       3.18385397
O        2.67210593       0.59316287       2.92256101      -0.30056230       0.42806639       0.75610739
O        0.50561999       2.65230997      10.05553452       0.32107831       0.12338814       0.99952419
O        8.45956533       9.69773276      24.88344319      -0.59056461      -1.11023732      -1.58414502
O        9.44737580       8.67948223      22.60744321      -0.37264081      -0.73968974       0.53210398
O        1.48650355       0.70514118      11.91174612       0.08047852       0.53807671       0.66552727
O        1.10940550       1.87323999       4.89390633      -2.43071363       2.21281529       0.61059873
O        8.65294100       9.27900506      16.18158671      -0.42735705       0.46135996      -0.72704789
O        3.97014485       4.27661844      11.98149501      -1.65746196       0.80027386      -0.40242544
O        5.90630997       6.56668714       8.77436381       2.39602972      -1.41248819       0.87721551
O        7.16756526       6.41073392      15.87671549      -0.52132393       0.75297479       1.45516505
O        4.52151387       3.54178668      18.55219206       1.60717104      -2.78014643       1.15902228
O        8.94571282       3.56394866      12.11185197      -1.06979545       0.34157040      -0.49380971
O        7.23926131       1.71870203       8.35238665       1.78423557      -2.65016268       0.57772584
O        1.68773860       6.82685573      15.29606147       2.62475298      -0.27084166       1.48494638
O        3.46143895       8.77687713      18.94929582      -0.97201785       0.12774648       0.08647708
O        8.38532254       4.12773888      15.45697614      -0.24048295       1.69450092       1.03833006
O        6.12754237       1.40129670      18.89548928       1.45410964      -0.54047382       0.05519266
O        2.24776575       6.10364928      12.33850430      -0.91533745       0.58839267      -0.57965763
O        4.11672516       8.19450803       8.66560631      -2.38809018       1.33772362       0.47065323
O        7.72970869       5.60224088      13.49965977      -0.76700396      -1.15591135      -3.38108897
O        5.14196422       2.79306159       7.16882872       0.77029291      -0.28041767       1.95960127
O        3.06959982       4.76166233      14.38442685      -0.07477670      -0.11246846       0.22782007
O        5.65069711       8.08335165      20.31554406       0.64083130       0.11625375       1.53582699
O        0.51684210       2.92245475       7.41022127       0.75417764      -0.74005754      -0.35274698
O        8.04325169       9.57728719      13.53021814      -1.62081912       1.03057464       1.24569845
O        0.31771026       7.54342410      13.40853310      -2.12113866       0.68371226      -0.01500615
O        2.93522991       0.59213009      14.24130147       0.57727037       0.91173365      -1.67931228
80
Lattice="9.77192453 0.01751879 6.90363604 0.24348012 9.76890588 6.90363604 0.01370155 0.0133883 13.86910312" Properties=species:S:1:pos:R:3:forces:R:3 energy=-574.95560553 source_file=vasprun.xml step_index=710 time_fs=27420.0 time_ps=27.42 file_index=13 pbc="T T T"
Na       6.23462009       1.45609067      14.06252177      -1.59792424       0.89697471      -1.56963343
Na       8.10182998       3.58876775      19.99439281      -0.01028997       0.45553428       0.58672405
Na       1.78595162       5.31596777       7.48825165      -0.08763591      -0.03698210      -0.16989871
Na       2.08901651       9.47879554      16.44587510      -0.15491886      -0.20855879      -0.11753000
Na       8.85229529       0.91616511      10.04058863      -0.11085342       0.35698961       0.41586739
Na       3.00854386       2.52486885      15.54183273      -0.21534838      -0.14954431       0.26211620
Na       8.50685335       7.61572203      11.46296757      -0.28322269      -0.56817379      -0.10143678
Na       4.61642853       8.56047100      13.22363064      -0.66664978      -0.60544386       0.06242443
Al       7.26590163       5.33224085       8.98231319      -0.29677889      -2.07224376      -1.65444826
Al       4.56573876       3.02205344      11.70043038      -0.88879893      -2.66174503      -3.97519744
Al       2.85540185       4.56989397      18.35888561      -1.22980750      -1.77630609      -0.49477892
Al       5.43247847       6.81885820      15.97192776      -0.80832883       1.13298447      -1.41863445
Al       0.25046023       1.89758242      11.50027511      -2.01838749       1.59814654       0.96428572
Al       7.72402845       9.56841592      22.60139361       2.04777095      -2.53545271       2.70720728
Al       9.56617046       7.80853686      15.80450905       2.71777309      -0.24399162       1.82120190
Al       2.08249976       0.41913825       4.52984661      -2.27991983      -3.05523163      -0.92302734
Si       2.63342426       5.67785206      15.26449750       0.50136335      -0.22045175      -1.85878287
Si       4.24979917       7.14839618      19.16051416       0.84179213      -0.79534385      -3.23057119
Si       7.37443915       4.27314147      11.99760234      -0.51805901       0.95909960      -0.06162278
Si       5.69882511       2.53136618       8.47900646       0.73191862       1.55580828      -0.50015717
Si       0.93677660       7.30574548      11.87298843       1.17536324       2.77490473       1.67156970
Si       2.75975711       9.19495243       8.48495538      -0.42687703      -0.78123491       0.87528486
Si       9.05121140       2.39486793      15.33922858       0.33565171       1.80493758      -3.42507507
Si       7.11171154       0.49072795      18.95468340      -0.08619088       2.37157999      -1.85058221
Si       0.23096728       2.90240723       5.38002629      -0.11550958      -4.61926541      -0.54276953
Si       7.20642805       9.39181947      14.81219994       0.53540232       0.36110002       1.91095523
Si       9.49640879       6.97609741      21.53060079       2.22261168       0.94888787       0.07367446
Si       2.75251532       0.36856474      12.52335972       1.64226632      -0.16617114      -0.07159171
Si       8.03578116       5.33158536      14.83686130      -0.50069883      -2.72516382       0.19178419
Si       4.29934108       1.89007409       5.69999446       2.47098769       1.81071665      -0.76550173
Si       2.04664161       4.38075450      12.58385196      -2.91959100      -0.10672999       0.89548041
Si       5.40242753       7.78871059      21.75027660       4.80311009      -1.20105202       1.08871758
O        8.68041473       5.57494017      21.69105007      -0.28257156       0.85852061       1.52550543
O        4.00836236       1.38646909      12.26107178       0.30485907       0.12059625      -0.22695755
O        1.17334579       4.12338550       5.29430201       2.66297342       2.50683093      -1.73553292
O        6.07276585       8.34917519      15.24500166      -0.69493129       0.14437996       0.44634422
O        0.74512623       3.34536199      12.37227136       0.09553176       0.47944065       0.51187227
O        6.22919421       9.25793284      21.94128284      -2.45075792      -1.65825648      -1.30381897
O        9.33240317       6.10183283      15.34965913       1.64756515       1.22691202      -0.28526253
O        3.12519943       0.81320747       5.73717379       2.86871773       0.26865350       2.75450736
O        3.18490833       5.85994116      19.44780324       1.73976334       2.15823581       0.63428792
O        4.00895536       6.42311606      14.92012389       1.36704991       0.54859289       0.44717535
O        6.93601941       3.60289610       8.22870322      -0.36369995       1.18356692       0.99898433
O        5.92068550       3.63467491      12.44949754       2.23887121       0.15909963       0.64204932
O        1.34138734       8.48302459       8.34647745       0.75109784      -1.13817707      -0.58703662
O        2.18446369       8.44037642      12.10187733      -0.68976105      -0.15731657      -0.50205185
O        8.35680643       1.49101480      19.18066080       2.18537921       0.66877174      -0.18084777
O        7.97207428       1.24491168      15.02387530       1.60090218       0.55582250       0.20567302
O        2.40753985       5.17708884      16.71500037       0.94849916      -2.49805879       3.84743715
O        5.00354768       6.84314908      17.59518117      -1.74239316       0.64975645       3.88768861
O        7.25763132       5.33546824      10.74056050       0.98151014      -0.87311360       0.64956077
O        4.80702002       2.74806808       9.75626066      -0.21510098       0.20791705       2.63185593
O        9.94264498       8.03030165      17.54917623      -1.21079812      -1.41957170      -1.49434264
O        2.63525451       0.46858705       2.86471762       0.53845924      -0.76158303      -1.25067149
O        0.09556457       2.26331771       9.79630094       0.23327879      -0.46689280      -0.40766927
O        7.59062286       9.58028725      24.40539132       0.13532452      -1.10517439      -0.10728872
O        9.03930497       8.42011207      22.25866150       0.27953496      -1.81974966       0.69915945
O        1.39058298       0.67548695      11.69928728       0.96297970      -1.14798585      -0.05272950
O        0.68714779       1.43769564       4.51313629      -0.85550186       2.69102112       1.10855277
O        8.81739070       9.27669253      15.36318295      -4.30447467       0.18647709      -1.27515363
O        3.17949800       3.93386809      11.64255764       1.17115075       0.05442807      -0.82035228
O        6.10895368       6.55783996      22.60785718      -0.79253194       1.84784311      -0.59145207
O        6.78562382       5.96840293      15.48822037      -0.31318264      -0.88622442       0.70721547
O        3.89977694       3.00634060      18.48127673      -1.94096291       3.11789589      -0.96847865
O        8.44898914       3.02258831      11.70164953      -0.51111357       0.88030491       0.21986186
O        6.40333410       1.08993425       8.36628326       1.66833870      -2.03626925       0.04945379
O        1.45526168       6.68994532      15.02917579      -4.31511057       2.51141686      -0.79826355
O        3.23144769       8.54506830      18.97123456       1.57178814      -1.11443825       0.37607742
O        8.03787815       3.67957005      15.12178009       0.71630603       0.62764404       1.31995322
O        5.80622547       1.49796222      18.82617933      -0.79797578      -1.64545573       1.12659956
O        1.68965343       5.85990312      12.00298648      -0.84389402       0.34374483      -0.10798947
O        3.95005508       7.97867105       8.42358795      -3.59176449       1.38333131       0.60998283
O        7.90723485       5.24307909      13.23117344       0.35013394       0.57413306      -1.93905522
O        4.79017171       2.49492583       7.13047674      -1.63482935       0.10106645      -0.83645270
O        2.45900654       4.34222654      14.24013819      -0.15494641       0.20432638      -1.03563909
O        5.58841173       7.20015473      20.21678391      -2.71153681       0.92329964      -1.42565319
O        0.32750849       2.59924882       6.96788947      -1.52027866      -1.13075597       3.78716786
O        7.26987771       9.12147489      13.19193259      -0.15799476       0.04141562      -1.48735683
O        9.53697446       7.39138769      19.97180323       0.49376226      -0.38107903      -0.97852201
O        2.73748270       0.42486398      14.15513171      -0.25338325       0.47578117       0.36446728
80
Lattice="9.77192453 0.01751879 6.90363604 0.24348012 9.76890588 6.90363604 0.01370155 0.0133883 13.86910312" Properties=species:S:1:pos:R:3:forces:R:3 energy=-576.81729997 source_file=vasprun.xml step_index=495 time_fs=44990.0 time_ps=44.99 file_index=22 pbc="T T T"
Na       9.31494810       2.12774401       9.72981247      -0.17150588      -0.22807578       0.52884367
Na       5.61260666       4.13891944      16.52198148       0.14718814      -0.50515223       0.39778029
Na       4.09254992       5.99785098      10.43324228       0.29132184      -0.00578238      -0.27568235
Na       1.11003071       8.86003754      17.60788195      -0.40424874      -0.31433658      -0.17877405
Na       8.60785984       4.05454694      20.28652468      -0.09326836       0.28516297      -0.01056242
Na       6.49303333       0.37066193      13.52366548      -0.07368232       0.99536529      -0.88763105
Na       1.25088446       6.12525966       6.93488610       0.07202510       0.11112353      -0.01285358
Na       3.96917298       9.07539346      14.38522685      -0.62515373       0.45001562      -0.94034102
Al       7.28809745       5.48385170       8.93070952       0.55569148      -1.13864090       1.75207332
Al       4.86313929       2.66356683      11.48270986      -1.76173048       0.01073628       0.43566424
Al       3.19631922       4.52001981      18.55761547       0.83866034      -0.41883608       3.11578000
Al       5.43778174       7.35034934      15.99722438       0.46243375       1.04151842       0.40654428
Al       0.66405206       2.33965631      11.66440852      -1.82174952       2.14509708       1.02148631
Al       8.10176344       9.59197624      23.10877847      -0.37162921      -0.31268488      -1.45557198
Al       9.76976595       7.91410781      16.30008055      -1.12294440      -0.64726558      -3.10772967
Al       2.29980314       0.35771144       4.74509947       1.19029045       1.23394329      -1.80137507
Si       2.86384095       5.76716412      15.73582701      -2.32810455       1.70541382       0.92326574
Si       4.21598826       7.39318595      18.88307323       2.21478460      -1.04074979       3.04226044
Si       7.46925589       4.10189804      12.06276526       2.90842250      -0.01851241       0.35897157
Si       5.72053779       2.88648800       8.53403279       2.40415163       0.30492803      -0.33778114
Si       1.44665678       7.22190163      12.12876305       1.13586086      -1.47307935      -0.69158760
Si       2.74250014       9.05547265       8.57870751       1.32621080       1.71006299       0.32273238
Si       9.06190299       2.68414732      15.70447527       0.27417188       2.57888375       0.19143069
Si       7.52212243       1.03618093      19.05316426      10.15654295      -3.04102261      -0.01138203
Si       0.60363838       2.87768907       5.80432725      -1.78544436       0.77685882       1.42596282
Si       7.18426961       0.15258019       8.29458109      -1.07748724      -1.99997461       0.42032639
Si       9.92217700       7.09451689      21.95686327      -0.48678730      -4.09424397       0.35998529
Si       2.88031606       0.28862648      12.55082521      -1.23493067       0.05428241       2.33149996
Si       7.83704871       5.50193340      14.91951438      -0.36717724       1.51465025       1.81029219
Si       4.86152109       2.14134095       5.75531518      -3.27794938       1.27897116      -0.47783974
Si       2.50934219       4.43566511      12.94984511      -0.20349831       1.70661846      -2.87627122
Si       5.53097767       7.98371001      21.87097597      -1.45058706      -2.28985877       1.87251755
O        8.74957307       5.86888444      21.90640376       1.09643882       1.22917531       0.44190347
O        4.22813078       1.04802199      12.19473042       1.63873763       1.32479947      -1.07096843
O        1.64096854       4.10863200       5.38857037      -1.01889407      -1.04846376       0.81176920
O        5.93791990       8.93685544      15.24601594       2.04859046       0.85909933       0.28824100
O        1.05042264       3.78430284      12.80993327      -0.42104790      -2.33413531      -0.63917338
O        6.48041637       9.19274305      22.35187023       1.74895009       0.06403457      -0.38002783
O        8.99069961       6.70555694      15.08927415      -0.41138881      -1.35553915       0.30945309
O        3.66734119       1.09064308       5.64723312      -1.10900883      -1.59511917      -0.85532532
O        3.45438760       6.05749430      19.37463898       0.08860090       0.13577963      -0.11848578
O        3.81230345       6.97144583      15.36400915       1.76571662       1.92811377      -0.09826021
O        6.86430859       4.00238209       8.07360856      -1.14722439      -0.49016263      -0.19116964
O        6.37863687       2.94259304      12.22139558      -0.35870984      -0.39655421      -0.05357730
O        1.48564235       8.08750732       8.40496495      -1.00161854      -0.78475002       0.53458323
O        2.51592318       8.45781468      12.09057483      -0.44863176      -0.55433190       1.17231049
O        8.70212275       2.17040242      18.82449548      -1.78037382      -0.12329579       2.56452366
O        8.09963301       1.42628415      15.51584059      -0.66147895      -0.95152541      -0.00980210
O        3.37412572       4.86787685      16.96581265      -0.39525707       0.54735533      -3.10760253
O        5.34589401       7.40153171      17.76999616      -0.20899714      -0.08683085      -0.83305054
O        7.60917732       5.04644204      10.76680769      -0.93528836       0.15341961      -1.75008803
O        4.82084083       3.31804628       9.77393578      -0.24549952      -0.69474842       1.67940849
O        0.39643916       7.37881406      10.92905178      -0.24862790      -0.17909656       1.32629500
O        2.52692225       0.34038748       2.90598354      -1.21364119       0.30977784       1.79697030
O        0.25896918       2.75388543      10.08445899       0.95755388       0.24691153      -2.58083526
O        8.27014828       9.72858019      24.78619901      -0.86612769      -0.52856804       1.44006009
O        9.37885232       8.42158378      22.51344919      -1.92480322       3.64724762       1.20266461
O        1.53666284       0.93625292      11.90588269       1.03175912      -1.06807778      -0.41510006
O        1.01583082       1.50221617       5.12973565       0.46396771      -1.35492177      -0.55839713
O        8.53879564       9.18142467      16.23243378      -0.72697368       1.78632313      -1.23675938
O        3.81095280       3.81801406      12.27019195      -0.10321512      -0.62378835       0.04232742
O        5.94281025       6.53996696       8.85257334      -0.24099671       1.71015472      -1.52809874
O        6.36638248       5.99157642      15.60859179       1.92875411      -0.81161911      -1.22192259
O        4.69008450       3.52622498      18.76137463      -0.90419132       0.13418103       0.37583149
O        8.84228026       3.11134926      12.14067601       0.14565835       0.68659832      -1.38095198
O        6.87514606       1.69345239       8.94647779      -0.35547277      -1.66816710      -0.43092152
O        1.39989214       6.75550596      16.10112778       1.47777874      -2.09459976      -0.24975759
O        3.11111078       8.51506178      18.83543725      -2.39506136       2.14721795      -1.12650268
O        8.06965932       4.13131622      15.79694525       0.91319910      -1.68570982       0.05104764
O        6.16522159       1.56512237      18.94271312      -5.08158445       1.70570780      -1.01131619
O        2.33532291       5.77831775      11.82811745      -0.43683167       1.22486967       1.69579875
O        4.13945329       8.19704990       8.83090070      -1.75116482      -0.02642779       0.12612740
O        7.64805642       5.05772584      13.38960606      -0.44792336       0.31735754      -0.75085735
O        4.70368188       2.36583438       7.37057928       1.48045116       0.38976857       0.44774294
O        2.79496707       4.80089263      14.47853208      -0.44285047      -0.48905357       0.09570941
O        4.95680708       8.03217400      20.31576030       2.08273443      -0.44061845       0.29704808
O        0.18523085       2.76940076       7.44531499       1.80023509       0.49759175      -1.44720258
O        7.70895596       0.35169997       6.69586391      -0.61679552      -0.43611052       1.79716574
O        0.71725057       6.96668209      13.56841875       0.62784722       0.83456085      -1.41648742
O        2.48805140       0.28784379      14.20851638       1.23719166      -0.42719682      -1.70334216
80
Lattice="9.77192453 0.01751879 6.90363604 0.24348012 9.76890588 6.90363604 0.01370155 0.0133883 13.86910312" Properties=species:S:1:pos:R:3:forces:R:3 energy=-576.57371245 source_file=vasprun.xml step_index=465 time_fs=16930.0 time_ps=16.93 file_index=8 pbc="T T T"
Na       7.93048068       7.68047428      18.61882252      -0.46538405      -0.01552599       0.35955204
Na       8.80937254       3.92954657      20.56398245      -0.48041229      -0.17104357       0.17476445
Na       2.26152275       8.63184906      17.17158691      -0.47021373       0.01019620      -0.24415931
Na       8.27198771       7.93153561      11.43263362      -0.16323224      -0.55138140       0.10367031
Na       2.40023105       2.60644797      15.55254416       0.23481310      -0.14921622       0.14833545
Na       6.47047333       2.45348106      13.83777464      -0.08088116      -0.09757614       0.36949363
Na       2.75501059       3.96530012       8.17664518       0.10094004      -0.09273678       0.01855810
Na       4.34792174       8.91841394      13.56068398       0.11459396      -0.19687527      -0.24211080
Al       7.15677243       5.40752746       9.10436307       1.78011253      -0.04815364       0.83873312
Al       5.01447770       3.10024439      11.45206943      -0.90504194       1.24896406       0.97077475
Al       3.32947524       4.74686175      18.39268620       0.58087189      -1.73545744       0.51101922
Al       5.49936922       7.21924966      15.90899502      -0.79149044      -0.53957806      -1.31406031
Al       0.71246628       2.15491172      11.54752148      -1.42778669       0.75219186       0.02238065
Al       8.14804771       9.73338309      22.76324769       0.45104071      -3.68726691       1.74401755
Al       9.89855534       8.13450044      16.03058895       1.65916177      -2.89288371       1.06714016
Al       2.51515870       0.50092424       4.44002560       1.01409952       1.11547944       0.15452559
Si       2.77051734       5.73697774      15.48410265      -1.32110718      -2.97279282      -2.40804367
Si       4.57673932       7.49509104      18.99233171       3.88886173       4.00232406       0.28832293
Si       8.03849770       4.63919285      11.99546717      -0.55085320       1.38317027       0.36595866
Si       5.82691516       2.58186232       8.41108962       0.58282765      -1.34011896       4.15311847
Si       1.31797123       7.70134122      12.16952645      -1.55756559      -0.93459403      -1.04709416
Si       2.93583427       9.19244958      22.13314557      -2.11521231       2.86097145       2.54829020
Si       9.27003261       2.49433515      15.23810849      -1.01689412       1.56590727       2.12019203
Si       7.70334838       1.05628210      19.07030675      -1.61045676      -1.89564065      -0.78152814
Si       0.90542466       3.01477466       5.59095814      -1.05737694      -0.17858108      -1.87944519
Si       7.48063368       9.45492573      14.77526392      -0.39083857       0.92042892      -1.00242482
Si       9.66745576       7.04562868      21.87052335       2.17769579       2.09975104      -0.08871691
Si       3.22583293       0.69623357      12.50044989      -1.04412477      -1.22196892       1.13495839
Si       7.99027613       5.58563320      15.01815747       1.84310272      -0.27087544      -1.65547119
Si       4.94186477       2.28240052       5.56292299       0.83451392       0.23751736      -1.66466802
Si       2.33223187       4.59411548      12.42567976      -0.37500506       3.05069776       3.08459100
Si       5.65356296       7.78565885      21.87448953       2.12760267      -0.77278387      -1.39659012
O        8.36176179       6.16172894      21.87842894       0.00331887      -1.42060623      -1.14347787
O        4.57406078       1.54435857      12.33030091       0.97268607       1.38363999       0.20575440
O        2.03654062       4.13401498       5.59182081       0.25716794       1.03716191       0.47657388
O        6.30868093       8.33923890      14.81574939      -1.18603708      -0.06280795       1.95116568
O        0.93373229       3.68675677      12.51419368       1.61128042       0.41920254      -0.69185135
O        6.80873508       8.78175902      22.20092808       1.78096234       2.31763242       0.71801221
O        9.11361409       6.59767934      15.57514313      -0.16421676       0.15030502       0.57395781
O        4.03589595       1.03102427       5.24447710      -0.27995047      -1.82005489       0.25028190
O        3.59849584       6.33352059      19.05695481      -1.76233594      -2.74791330       0.08331813
O        3.67781541       6.99171870      15.36937555       3.43791266       3.05653132       0.42221660
O        6.85641951       3.77987064       8.55252926       1.48819260       1.17515012      -0.68122674
O        6.51636646       4.00137321      12.14268395      -1.38635975      -1.84041347      -0.59558335
O        1.71613225       8.22006136       8.40090667      -1.98732381      -1.75069714      -0.43134370
O        2.43857910       8.82956078      12.17021902       0.37820843      -0.88161846       1.33960892
O        9.08705000       1.70426650      19.44511837       1.37924053       0.41193843       0.94357208
O        7.96993881       1.40165026      15.05291341       2.47697264       3.08864062      -1.57759118
O        3.06578856       4.71362748      16.67943059      -0.35515439      -0.09704851       0.16276333
O        5.47265784       7.52320877      17.57572668      -0.56497560       0.62038486       1.92930670
O        8.12857754       5.57862191      10.64372571      -0.88207128      -0.37463036       0.00200625
O        4.83008753       2.86286068       9.80451861       1.49683686      -1.59699688      -4.10376270
O        0.21523745       7.96032861      10.95827493       0.47264403       0.22615238      -0.90946576
O        2.63455535       0.27143142       2.77301147       0.64108279       0.65318194      -1.46161690
O        0.20912061       2.34026552       9.89459918      -0.57510781       0.34932908      -3.40989005
O        7.87403694       0.44703731      17.56266591      -0.50081293      -1.05869568       0.53671271
O        9.60534230       8.43542330      22.70486501      -1.46817599       1.69641271       1.30917201
O        1.98964536       1.01211822      11.48106317       0.87325274       0.12965767       0.32394229
O        1.42347391       1.73012878       4.83961042      -0.60363735      -0.00569661      -1.09245134
O        8.97919282       9.34964552      15.37384490      -2.23827146       1.20173087      -0.71186100
O        3.44880213       4.06223475      11.47066697       1.23540678      -0.82888458      -0.07858264
O        5.91332856       6.54303970       9.01226744      -2.12435297      -0.24930871      -0.43917932
O        6.51359031       5.89543190      15.56578337       0.46297621      -1.84526449      -0.10226019
O        4.58833972       3.46290852      18.45226931      -1.33727524       2.67019562      -0.33209503
O        9.18565550       3.47762717      11.90902641       0.12082318       0.32305980      -0.02136095
O        6.70803147       1.14294764       8.40185828      -1.25197011       1.51221609       0.52884959
O        1.23895035       6.28317906      15.65005336      -0.93321941      -0.22189995      -0.62897936
O        3.61123291       8.86065235      19.16160573       1.08154734      -1.50290389      -1.48492777
O        8.50842552       4.00086549      15.15482351      -0.19946643      -1.10803800       0.67586431
O        6.57149777       2.20620047      19.19600049       0.68437043      -0.46147573      -0.05798474
O        2.07028691       6.25635063      12.10117470       0.01928962      -1.96080081      -0.04626966
O        4.25376400       8.45655084      21.92138272       0.96871510      -1.42965637       0.37974542
O        8.20222364       5.67602742      13.31298313      -0.53964359      -0.21070248      -0.50847236
O        4.91172491       2.64041441       7.13294887      -2.19328775       0.61452660       0.53930911
O        3.01518478       4.70435558      14.08650728      -1.57712970       0.20388568      -0.30991703
O        5.81083329       7.68787851      20.16438740      -0.86236668      -1.60658561      -0.57099461
O        0.53593174       2.49074845       7.04127661      -0.37845618      -0.80873015       4.26090591
O        7.31977525       9.49198383      13.11180709       2.43377693       1.96068279      -2.07375437
O        0.29449817       7.65882372      13.45245294      -0.48197632      -0.95041987       0.73480966
O        2.65971400       0.58671491      14.08802213       0.00793205       2.14926756      -1.34050947
80
Lattice="9.77192453 0.01751879 6.90363604 0.24348012 9.76890588 6.90363604 0.01370155 0.0133883 13.86910312" Properties=species:S:1:pos:R:3:forces:R:3 energy=-576.83817432 source_file=vasprun.xml step_index=670 time_fs=5340.0 time_ps=5.34 file_index=2 pbc="T T T"
Na       7.86647001       7.12852005      18.26410184      -0.50336498      -0.11785336      -0.13431787
Na       6.76908394       1.70131365      14.03636200      -0.26817665       0.23470280      -0.30282965
Na       3.06595468       1.64805202       9.08176924       0.33055249       0.20067570      -0.08443673
Na       8.75923213       7.95389623      25.44162597       0.01137888      -0.65998404       0.30357510
Na       9.22337539       4.03894612      21.06732555       0.33179424      -0.40847232      -0.60963901
Na       2.86120565       2.18426444      15.21387501       0.22329809       0.85063482      -0.28886933
Na       2.16621746       6.04803202       7.05566661      -0.02447572      -0.26455162      -0.27534600
Na       4.57782985       7.24313005      12.93684384       0.09364087       0.79943130      -0.79544767
Al       7.41225100       5.46946201      22.68525875      -2.19578609       0.88084412       2.19768236
Al       4.89640476       3.04250875      11.47116345       0.51788615      -0.74876892      -0.59230106
Al       3.16436491       4.60840926      18.27706236       1.02277744       0.34427904      -1.05288846
Al       5.87323564       7.28342140      15.69213357       0.64585417      -1.04341317       0.72591266
Al       0.73790266       2.49307897      11.40380685       1.23496500      -0.07263348       3.69169980
Al       8.50997261       9.47650927      22.71084652      -1.04749187       0.81703472       0.15846079
Al       0.31384527       7.54216357       9.06169105      -0.51061311       0.49634485      -0.66757579
Al       2.30695549       0.65930144       4.51596061       0.52766911      -1.35541503       1.29647359
Si       3.28481387       5.46959788      15.28379057      -0.33910021       2.14464830      -0.77159857
Si       4.68004095       7.62827064      18.49667649      -3.00932659      -1.37411074       3.58361285
Si       7.54238057       4.44928255      12.05501918      -0.32754633       0.33491260      -3.22899628
Si       6.29134767       2.64225840       8.40274011      -3.70840293      -1.90115718       0.38752556
Si       1.34664754       7.46204855      12.08257653       0.35897945      -0.79917083       2.40326908
Si       3.04477967       9.09549869       8.52412151      -2.96151571       0.40087648      -2.26971616
Si       9.51076929       2.72229968      15.46717364       2.32033430       1.26004730      -2.48894020
Si       7.71535329       1.02297517      18.73691801       1.43302704      -0.66141912       3.11090576
Si       0.61561568       3.22736733       5.52314115      -0.56429501       0.50857331      -1.68519796
Si       7.77243835       9.56960275      14.66629767      -1.59524326       0.17157477       2.06532699
Si       0.47362051       7.04437195      15.15187112      -0.24593585      -2.60823678       1.38495446
Si       3.08656182       0.58829542      12.51768897      -0.51638044       0.50980103       1.89430820
Si       8.18975931       5.43259435      14.83809120      -0.70473231      -0.03634861       3.58220826
Si       4.87186014       2.09736592       5.66872416      -1.68567733      -0.42159999       1.61205844
Si       2.65654201       4.79896712      12.38361558      -0.12120802      -0.36080383      -0.95468127
Si       5.87161443       8.04587563      21.47928259      -0.29076402      -0.78461863      -0.26724695
O        9.03396909       5.94955727      22.48459580       1.88868624       0.95646162      -0.97649761
O        4.15252942       1.86379089      12.72449209       0.79197326      -1.45242458      -0.46390826
O        1.47593923       4.43921267       4.86997929       0.59631551       0.66716128       0.38503275
O        6.41891837       8.55251546      14.74625488       1.16582717       2.07673168      -0.52209230
O        1.26712261       3.96033648      12.42323022      -1.07102384      -0.56069507      -0.73945210
O        7.01698441       9.18410258      21.67708674       1.63970227       0.53233279       0.20851274
O        9.61627031       6.08711527      14.93939809       2.89032716       2.78113398       1.06691008
O        3.90302568       0.84724398       5.30459047      -0.58514306      -0.20645293      -0.36086171
O        3.75065616       6.16948699      18.77337738       0.93002362       3.09998206      -0.79403267
O        4.43743432       6.63757260      14.96804857      -0.63475589      -1.01864104       0.43754798
O        6.99334557       3.98330448       7.98006238       1.42692116       0.99865101      -0.18561719
O        6.30633063       3.46765440      12.44605379       0.29947851      -0.12387103       0.32500173
O        2.00928397       7.82736147       8.51500185      -0.36305534      -0.29475132       0.79660667
O        2.13217086       8.79565865      12.23353709       0.40514746       3.29388932      -1.01985357
O        8.97413080       2.09415393      19.04232119      -1.31189060      -1.18873249      -0.65966921
O        8.75758187       1.32495521      15.39114112      -0.00770556      -0.06968203      -0.89613261
O        3.63564981       4.52693386      16.50503908      -0.76169819      -1.06067568       0.79399437
O        5.75571096       7.78371239      17.34697300      -0.54875549       0.23917129       0.55353516
O        7.05485295       5.31657027      10.61517602       1.45352304      -0.88104780       1.77847165
O        5.34771406       2.51315096       9.73757062      -0.42850843       0.84944755       2.49222312
O        0.27715309       7.28826976      10.91642720      -0.90854920      -0.02103169      -1.96805653
O        2.50897931       0.46256234       2.70575074      -0.07792517       0.36263299       2.05457011
O        0.72029406       2.91273085       9.81715785       0.11397568       0.08137209      -2.85984343
O        8.00779128       9.78281529      24.40747822       0.38870577      -0.57280684      -1.28417181
O        9.93236386       8.48401090      22.70012585      -0.62873461       0.34893213       0.45113338
O        1.99434911       1.24752553      11.58824808      -2.15217072       1.10082045      -1.41169099
O        1.11725307       1.82067998       5.02948467       0.81233899      -1.77440642      -1.14167661
O        9.03351986       8.98268926      15.49560761       0.65562738      -1.16943209       0.48479801
O        3.73298826       4.31176266      11.29069146       0.01137624      -0.44399334      -0.10733773
O        6.27376405       6.62158041      22.02757767       0.80220973      -0.55209998       1.37068427
O        7.22365697       6.16050658      16.03507399       0.65875910      -1.13000152      -2.12801299
O        4.17091769       3.43352898      19.01254806       0.38764435       0.17037702      -0.01134886
O        8.87691778       3.46842389      11.72150154      -1.06127814       1.07000217       1.37733033
O        7.27905985       1.40593031       8.41171764       2.27866244      -3.43643537      -1.13148198
O        1.89989209       6.40567715      15.60824741       1.47922616      -1.26810005       0.81942873
O        3.61531955       8.97011381      18.63429156       1.89441258      -1.76219529      -0.59363548
O        8.45887755       3.87725652      15.30085870      -3.12771625       0.98348929       0.19958777
O        6.33753472       1.76724089      18.94532302       0.49873385       0.81769058      -0.87734653
O        2.61638054       6.43197860      12.04073480       0.10666867      -1.89956143      -0.08435551
O        4.55700645       8.69399281      22.21387590       1.62060635      -0.60334265       0.18464346
O        7.76022846       5.55486470      13.30317355      -0.88989250      -0.43448249      -2.07622555
O        5.07530719       2.19729519       7.34784162      -0.40554478       0.26447641      -1.67861608
O        3.23290016       4.50727510      13.89212399       0.04094477       1.08975109       1.98562059
O        5.49040872       7.57215172      19.95568607       0.56496948       1.49513067      -1.02093422
O        0.67579492       3.26010849       7.11985563      -0.49478330      -1.21950830       2.96090954
O        7.94991200       9.50294003      13.06972080       1.10335013       2.16322973      -2.73360637
O        0.73844735       6.98723422      13.60710564      -1.36522892       0.85972704      -3.99767558
O        2.37119770       0.18139609      14.05209625       1.51738360       0.51700642      -0.95357507
80
Lattice="9.77192453 0.01751879 6.90363604 0.24348012 9.76890588 6.90363604 0.01370155 0.0133883 13.86910312" Properties=species:S:1:pos:R:3:forces:R:3 energy=-576.37971888 source_file=vasprun.xml step_index=310 time_fs=74620.0 time_ps=74.62 file_index=37 pbc="T T T"
Na       7.94712187       3.27950633      20.49448720       0.15615741      -0.03452270      -0.31397087
Na       8.23348968       1.27457958      10.23621718       0.16214117       0.10680458       0.42252989
Na       7.71232361       7.35673185      19.70171481      -0.36717816      -0.15263233      -0.32157877
Na       7.00841557       7.16523199      11.38186878      -0.44942015       1.58004050       0.56164486
Na       1.66442332       2.25629881      15.88053080       0.51226548       0.51644322       0.04647390
Na       5.86509700       2.18297058      14.59821483       0.14718385      -0.30233889      -0.26629132
Na       3.60507303       0.36009068       7.99673565      -0.47475177      -0.04098619       0.03215755
Na       1.34657920       6.44832975       6.74706915       0.32190837      -0.24494196      -0.03290141
Al       6.93137017       5.39581531       9.08262668       2.70466927       1.91251216       0.97011660
Al       4.73957524       2.69894259      11.67082506      -1.44365271       2.27136177      -0.49488121
Al       3.03942093       4.46695248      18.34896388       0.33660674       0.79244195       0.77190472
Al       5.27646529       7.19130682      16.02821356      -0.32017655      -0.65827781       1.05813495
Al       0.25727421       1.84851328      11.44517573       0.68767557      -1.25720828       0.09505911
Al       7.81153224       9.55974282      23.01870055       0.72442611      -2.23108011       0.20694432
Al       9.49435051       7.71494175      16.12836354       0.34805690       1.52488547      -0.51976653
Al       2.15463785       0.28176231       4.61179928      -1.44907801      -0.19912540      -1.27030703
Si       2.52073797       5.56623180      15.49327454      -0.44017784       2.46935290      -0.39320414
Si       4.47000968       7.26706591      19.23153356      -0.64643308      -0.23347954      -0.17131917
Si       7.58003140       4.33623775      12.09208725      -2.43141114      -2.82801141      -2.33704952
Si       5.56225096       2.81621202       8.48306507       1.12625800      -2.79063786      -1.97864167
Si       0.86910169       7.20171238      12.12504839       1.14570543       2.19136807      -1.24970928
Si       2.57007495       9.03697432       8.46741662      -1.32032105       3.81860345       0.85218313
Si       9.00099116       2.46836747      15.28772736       2.58161977      -3.15409315       0.74118916
Si       7.25337542       0.37175196      19.14275938      -2.09508091       0.02236822       0.82704837
Si       0.56392650       2.76777456       5.63102503      -1.40994036       0.67491398       0.31741482
Si       7.03385620       9.46249773      15.07772121      -1.34883602       1.94880121      -2.36445704
Si       9.53884298       6.92650776      22.04066483       0.16783957      -1.19612705       1.38026031
Si       2.92871282       0.35513457      12.49353702      -1.28330142       0.88494629      -0.53155156
Si       7.84905819       5.39676697      14.78959877       0.47306535       1.67772312       0.60853331
Si       4.53369755       1.94150147       5.49877623       0.66313352       1.86895279       1.27113534
Si       1.74161011       4.21787226      12.67670113       5.43933135       2.59581186      -1.95018957
Si       5.35466847       7.98388636      22.21064581      -1.89302708      -2.17497334      -1.75693330
O        8.38701866       5.71044699      21.93726135       0.96328921       0.97319538      -0.25947098
O        4.38722478       1.14839991      12.27008480      -1.33730634      -1.57262387       1.12449052
O        1.59075738       3.95366547       5.34166592      -0.14860954       0.82764294       0.75495502
O        5.61527847       8.92617927      15.66677254       0.25085461      -0.50038563      -0.21580864
O        0.48836890       3.37702188      12.28772691      -1.87685417      -1.19526821       1.28899059
O        6.09711650       9.25710448      22.61689559       1.38314951       3.50532379      -1.28244685
O        9.15261850       6.22466598      15.45742406      -1.12633466      -3.13279156      -3.10850195
O        3.38721715       0.78338894       5.67406361       1.63815496       0.87399250       0.32406553
O        3.58719654       5.90573288      19.34328595      -1.05983387      -0.58766492       0.14333282
O        3.69865863       6.74144142      15.35388535      -0.14772297      -1.15147801       0.19634295
O        6.40070952       4.14142113       8.17266428      -1.01186234      -2.42505902      -0.86295507
O        6.32802825       3.21428436      12.40287875      -0.83973866       0.87638665      -0.65000167
O        1.16028114       8.25616862       8.36584719       0.31074616      -0.19127504      -0.12746712
O        1.98390755       8.46451190      12.00168464      -1.61711059      -1.94539323       0.49095535
O        8.54668091       1.21703087      19.11237780       3.23468073       1.53258224       1.09496982
O        8.19785209       1.04190480      15.13414345      -1.42548515       1.42037708      -0.73263972
O        2.61905597       4.49357586      16.64799524       0.73066490      -0.82285614       1.44008879
O        5.26697643       7.04202558      17.84701851       1.03129337       0.85480884      -0.63671262
O        7.48003633       5.29593937      10.77130875      -0.14610236      -2.38528868      -1.13835026
O        4.95576088       2.60228739       9.91079468      -0.26952839       0.14923562       0.51495775
O        9.53201995       7.42377336      17.77990352       0.41254919       0.13024652       3.39425185
O        2.45071383       0.35577168       2.87508624      -0.26801433      -1.07931100      -1.50768482
O        9.67066196       2.26763456      16.73383408      -0.37324450       1.20825272      -0.68841135
O        7.31874927       9.42588777      24.67757088       0.63362918      -1.76906309      -0.91596073
O        9.06241715       8.20893510      22.85192797      -1.86710029       1.35315893       0.05296655
O        1.63340915       0.67038307      11.46235693       0.90322192       1.01618182       1.51891499
O        0.86396181       1.59060594       4.56893400      -0.02344235      -1.35407127       0.21870982
O        8.35547442       9.03782555      15.81492979       0.79342236      -0.24830910       0.95049203
O        3.12494221       3.62215725      11.90920821       0.19171358      -0.38594698       0.69233169
O        5.99366564       6.79079475       9.12916311      -0.11181597      -1.02297069       1.55722407
O        6.61705187       6.18954561      15.45555816      -0.58656148      -0.70533365       0.13379181
O        4.22085411       3.20060731      18.34725305       0.50870605      -1.67975393       1.10092706
O        8.75657232       3.25773657      12.02190732       2.36611485      -0.59728559       0.14019453
O        6.80544598       1.43848130       8.25697387      -0.44867889      -0.00338879       0.67301793
O        1.13423158       6.42118310      15.90260274       0.33689952      -0.61066837      -0.93320404
O        3.40987720       8.54945147      19.19413428       0.97376205      -1.92486801      -0.07118501
O        8.16602887       3.74573095      14.84240149      -2.03842258       2.25874981       0.77003672
O        6.10511463       1.53536546      19.11237852      -1.37973589       0.55033059       0.21143829
O        1.49264118       5.74298103      11.99254832       0.37023641      -1.20498446       0.35442049
O        3.73947179       8.00774412       8.68846579       1.11599397      -1.05579958      -0.67265749
O        7.49597361       5.50660044      13.12097063       1.29104087       2.11756338       3.90993868
O        4.67935672       2.48850306       7.15669795      -1.22443504      -0.30968590      -0.45264092
O        2.34875107       4.55463976      14.20209782      -1.25817936      -0.42177577      -0.49110410
O        5.46982134       7.49323004      20.60064247      -0.17635336       0.28805494      -1.43997260
O        0.45016865       2.41957527       7.26481927       0.38806330       0.12088095      -1.53689332
O        7.08716123       9.03796438      13.38788287       0.65383949       0.82749431       1.26011779
O        9.91658247       7.29172052      20.50519558      -0.53521561       0.57750201      -1.42908171
O        2.40311498       0.42192618      14.11757462       0.50548149      -0.54618738       0.63548632
80
Lattice="9.77192453 0.01751879 6.90363604 0.24348012 9.76890588 6.90363604 0.01370155 0.0133883 13.86910312" Properties=species:S:1:pos:R:3:forces:R:3 energy=-577.53554248 source_file=vasprun.xml step_index=500 time_fs=25000.0 time_ps=25.0 file_index=12 pbc="T T T"
Na       6.19201217       2.13131084      14.08727382       0.08682259      -0.79614500       0.56838568
Na       8.61830671       3.63282021      20.35467826       0.06596862       0.04466325      -0.17304981
Na       2.23553542       6.35828510       6.91514034      -0.48013940      -0.02781776      -0.11710231
Na       7.65333804       7.53835239      12.32569735       0.35929799      -0.06691376      -0.25426389
Na       7.42268065       8.33708266      18.03583067       0.66235500       0.32410299       0.55466464
Na       2.87403935       2.36828310      15.84610460      -0.42091107       0.16554287       0.21524192
Na       4.54014495       6.01265173      10.37863742       0.26219590      -0.25876043      -0.03973624
Na       4.13056397       8.94456945      13.80886658      -0.53198627      -0.07167237       0.06698420
Al       7.33372961       5.14825730       8.89701237      -1.18533572       1.02472366      -0.44197372
Al       4.64064293       2.96546843      11.53350012       1.94476496       0.48243883      -2.33298589
Al       2.97386365       4.66303837      18.40130569      -1.55760729      -4.72966288      -1.69894773
Al       5.66262398       7.07393584      15.84063249      -0.81887179      -1.71934954      -1.28939896
Al       0.60084749       2.09200592      11.20066361      -0.09216807      -0.10356121      -0.52530761
Al       7.95064057       9.34495625      22.67376915      -0.61685484       0.64612426       2.01722216
Al       9.60379939       7.81146457      15.97503955       1.45909715      -0.62915300      -3.44833832
Al       2.29112594       0.51669006       4.41748161       0.33068005       0.00641595      -0.29191095
Si       2.77578441       5.57021941      15.34275641      -2.34735279       1.09424614       0.28870399
Si       4.54461631       7.38421894      18.75981419      -0.79557934      -0.65698531       0.87269172
Si       7.48321390       4.10189931      11.89836243       1.29817788       2.57403454      -2.56424959
Si       5.76366605       2.72115424       8.25236171      -2.83549214       0.56545173       1.14019246
Si       0.82246542       7.47396187      12.05986534       1.71012000       2.62252289       0.64482895
Si       2.84398184       8.98204765       8.33275431      -2.50999534       0.76875457       1.22366791
Si       9.29557945       2.29851534      15.10752628      -1.04872152       0.26196578      -1.19796592
Si       7.51489670       0.86032338      18.95691023       0.73579124       1.09928937      -2.47898578
Si       0.60734725       3.04665136       5.27949004      -0.37931412      -0.50832729       0.47823568
Si       7.31525995       9.68931275      14.92010526      -1.52659542      -1.76861118      -2.28683314
Si       9.75081449       6.87888303      21.89942715      -0.16719410       1.25238306      -0.44176745
Si       2.97227564       0.38720142      12.42278775      -0.55641809       1.43835175       0.55612163
Si       7.98624610       5.30209288      14.66314898      -2.33863031      -1.21067020       0.68806402
Si       4.70035730       2.14183354       5.51082657       1.58484171      -0.66683805       2.72212273
Si       2.10566766       4.72653561      12.40719494       4.39991188      -1.40305981       2.11505872
Si       5.55636400       7.70568419      21.70808283      -0.39815522       0.51513963      -1.18015668
O        8.90890145       5.54057748      22.15745263      -0.12196658      -1.11187588      -0.98864058
O        4.14839005       1.54669985      12.40224193      -0.04441019      -0.67148116       0.05267297
O        1.43470478       4.46242824       5.54026909       0.58859790      -0.66303375      -0.46581990
O        6.04693665       8.54523653      14.91112399       1.20576250       0.11848800       0.79016880
O        1.02007516       3.73998451      11.90183807      -1.77183186      -1.58306963      -0.95390890
O        6.33374654       9.12837218      21.87281339      -0.07022588      -0.14247898      -0.25799026
O        8.85704299       6.59872314      14.64190201       3.12065202       2.45419050       1.52093614
O        3.90157867       0.77286383       5.23294007      -0.80984294      -1.64708129       0.21115538
O        3.56348823       6.11437912      18.73609683       1.08199893       2.81597646       0.99059892
O        3.97960666       6.69051129      15.10429656       1.22086429      -1.14540914       0.79733083
O        6.74748495       3.87407879       7.79304295       1.39996504       1.23647979      -0.08695193
O        6.35850727       3.13685345      12.22593977      -4.24775348      -3.22323547       1.26075212
O        1.42889938       8.19489942       8.26201497      -1.64297346      -1.30616715       0.97423633
O        1.93112952       8.71897173      11.88940300      -1.10855104       0.17392614       0.51943381
O        8.91473782       1.73888960      19.01677186      -0.54429818      -0.02858649      -0.03931592
O        8.07457321       1.16350218      15.11945934       0.60408856       0.99807938      -0.52113837
O        2.58962076       4.56482128      16.66082955       1.09154403       0.95458037      -1.31228801
O        5.52413309       7.52700229      17.52551776       0.63984577      -0.02649035      -0.95643646
O        6.98693439       4.83003091      10.52833705       0.62591577       0.78442618       0.58444140
O        5.12077444       2.97354722       9.68805050      -1.72220172       0.72447029       2.69083899
O        9.58088688       7.52643806      17.67620995      -0.02852663      -0.80343497       0.55615248
O        2.77644110       0.04649936       2.78929083       0.42243911       0.77024035      -0.53123838
O        0.47952089       2.04194404       9.43314296       0.41500462       0.62908313       1.15473602
O        7.75444811       9.53785219      24.57236294      -0.66585563       1.30478412       0.24102013
O        9.08462747       8.06566397      22.69365360      -0.80834104       1.05485563       0.77354993
O        1.75423935       0.83897397      11.49412963       0.24355297       0.23473989       0.54947620
O        1.36723572       2.09400990       4.15845463       0.17093284      -1.12351787       1.30283127
O        8.63768082       9.18259569      15.64804551      -1.00671183       0.90708418       1.18544558
O        3.67290605       4.42340982      11.81431764      -1.08841808      -0.07810244      -0.40111905
O        6.28040396       6.69115501      22.70532506      -0.27313950      -1.45860015      -0.15413924
O        6.78780590       5.61154333      15.77289695      -1.06289469       1.23708946      -0.82530971
O        4.01140551       3.16104456      18.45528125      -1.31717070       3.74822683      -1.39213296
O        8.86140329       3.33822885      11.55328086       1.24514600       0.10873541       0.69284632
O        6.38827222       1.29272361       8.48819184       2.75092225      -2.77645227      -0.05521860
O        1.47634314       6.66842667      15.44099001       2.31304309      -1.06175553       0.23979780
O        3.58569255       8.66016801      18.89112305       0.33613832       0.00951016      -0.30331001
O        8.52141085       3.83081956      15.18027114       0.53288547      -0.61983228      -0.86688545
O        6.39436485       2.16794034      19.17330828      -0.05650831      -2.17573230      -0.67170977
O        1.89881504       6.28659807      12.33756142      -0.59531503       0.71993419      -1.76888870
O        3.85685765       7.76711509       8.13778779       2.79979740      -1.43797351       0.39847790
O        7.44896779       5.31070353      13.01037061       0.97864549      -0.09724964       1.85867694
O        4.57006830       2.45854441       7.17829187      -0.48300499       0.09554568      -1.88073302
O        2.37263221       4.53837412      14.06711212       0.40770674      -0.09848847       0.53463698
O        5.40793590       7.17727474      20.11518109       1.66043721       0.51244810       1.26623844
O        0.33368498       2.22803779       6.73997900       0.08820045       0.50166095      -0.34213415
O        7.66184958       9.59595708      13.24096206      -0.40256239       0.21485080       2.09873315
O        9.76526792       7.56269052      20.36034070      -0.86657732      -0.66896804      -0.88037590
O        2.60402755       0.23247222      14.04852888       0.52303716       1.35436103      -0.97001056
80
Lattice="9.77192453 0.01751879 6.90363604 0.24348012 9.76890588 6.90363604 0.01370155 0.0133883 13.86910312" Properties=species:S:1:pos:R:3:forces:R:3 energy=-577.32571626 source_file=vasprun.xml step_index=550 time_fs=45100.0 time_ps=45.1 file_index=22 pbc="T T T"
Na       9.38236355       1.21964662       9.69554311       0.22778900       0.46443788       0.41870234
Na       5.64762033       3.47448808      16.69113000       0.33206395       0.15724760      -0.06781984
Na       4.45945202       5.28625412       9.89529454      -1.14472593      -0.37971469       0.74059128
Na       1.50931118       8.99452001      17.04816335      -0.23627870       0.07908277       0.39176796
Na       8.64503480       4.13447484      20.59005795      -0.15977009       0.21160670       0.05546421
Na       6.56393870       0.53326005      12.43141407       0.03343247       0.01175061       0.54333817
Na       1.28386831       6.27393469       7.25221648       0.78209567      -0.86358174      -1.37292080
Na       3.82919840       9.34818231      14.38514325       0.34432629      -0.20708576      -0.29784949
Al       7.11342603       5.33221277       9.24174937      -1.06945026      -0.76358957       1.56395743
Al       4.82866112       2.94082354      11.69580746      -2.03684288      -0.62042241      -2.13549484
Al       3.37215664       4.64299057      18.40886629      -0.53396315      -0.46640905       1.58727521
Al       5.54403301       6.98389566      16.28725742       0.86286904       1.77451632      -0.21212427
Al       0.50811902       2.36218977      11.73814573       1.42191822      -0.05290281      -0.26835730
Al       8.02215575       9.76437192      23.07208984       0.13728158      -1.44526944      -0.89331884
Al       0.23673186       7.91659415       9.17785786      -0.64022430      -0.54826328      -1.86144720
Al       2.04170508       0.31969439       4.74154102       1.91826989       2.33041387      -1.20261950
Si       2.79374137       6.13571277      15.60503388      -0.42300962      -4.82702811      -1.92659589
Si       4.41137832       7.36759444      19.25909851      -1.27260307      -0.44482924      -1.23166442
Si       7.47698681       4.32242166      12.25060041       0.62510486      -1.36493330       0.45041253
Si       5.82702913       2.51595364       8.50460718       0.84653889      -1.15323633      -0.34468492
Si       1.03696689       7.51298030      12.14465906      -0.83912631       1.90331274       5.01775924
Si       2.82955884       9.29598647       8.52739651       0.73565826      -1.60335581       3.21414216
Si       9.33076369       2.65226357      15.60697949      -0.39290757      -0.14653510      -1.64879955
Si       7.61828215       0.93224913      19.14477004      -3.00671458      -3.86890576      -0.87305706
Si       0.57524630       2.99641812       5.59474642       0.33149292      -0.12513210      -0.03095556
Si       7.37508610       9.56898084      15.14858521      -0.33402570      -0.30518727       0.07433990
Si       9.64015751       7.05802876      22.09062572      -0.67175385       4.32725538      -0.89003914
Si       3.02122022       0.46900937      12.70504183       1.29101227      -1.02929909      -4.21927988
Si       8.00552105       5.41796028      15.18503415       0.84079903       1.07838231      -1.22152012
Si       4.83168188       1.99803660       5.65022881       0.33384311       3.01102010      -2.36224365
Si       2.19292186       4.84208128      12.56078835       2.69676424       0.19821787       1.97633241
Si       5.44989545       7.99199256      22.21521723       1.79013829       0.39032801      -0.40748467
O        8.58550271       5.96402981      22.52748843       0.74602232      -1.10626105      -0.08155367
O        4.41731793       1.27946586      12.25590516      -1.12734186      -0.12852931       0.18069267
O        1.75645322       3.98628780       5.09875678       0.38240453       0.38762406       0.43830649
O        6.20927559       8.58477287      15.62809878      -0.83328541      -0.96118310       0.19442316
O        0.93127253       3.89615667      12.61958043      -1.66018850      -2.22212150      -0.68754270
O        6.52219892       9.25922738      22.23778742      -0.36718988      -0.83518917       0.38078494
O        9.31977704       6.41292388      15.47844736      -1.07614464      -0.98819269      -0.31555449
O        3.63581459       1.09040506       5.23465352      -1.94254932      -1.97586851      -0.24954627
O        3.38821705       6.13387116      19.47666067      -0.08016390      -1.39536791      -0.41546670
O        3.97448166       7.14411891      15.48844331       1.26119349       1.89611299      -0.10740138
O        6.82632202       3.76432780       8.30778665       0.67116082       2.12516530      -0.45253510
O        6.33077508       3.14663395      12.43616205       1.32473120      -0.59241063       1.58593633
O        1.72822121       8.17189073       8.19496728      -1.61859160      -0.49326621      -0.26182652
O        2.04306041       8.77964840      12.70121466      -0.98725424      -2.30179564       0.07256292
O        8.71944156       2.02532880      19.39397653       1.97472396       0.99362725       0.16108607
O        8.44794703       1.30767448      15.16789094      -0.03668654       1.72631827       1.58311807
O        3.33973733       4.90274713      16.62874502      -0.63914612       1.15359746       0.36974749
O        5.41540575       7.07740523      18.02964148       0.18250826       0.13714298      -0.23513007
O        6.72500433       5.09102574      11.09344882       0.69631072       1.60098910      -3.74037677
O        4.91855005       2.77014988       9.73470577      -1.83622856       0.98983354       3.68316392
O        0.33543889       7.97800396      10.83339049      -0.79450837       0.74632605       0.86059694
O        2.15312294       0.26474862       2.97240742      -1.04147938       0.76366541       0.09263808
O        0.59044425       2.46933027       9.96431830      -1.24996202       0.16337734       0.08170796
O        8.00529309       9.53406173      24.83152357       0.57393689       2.43268195       1.05882756
O        9.30040697       8.61677343      22.66995968       0.67736449      -2.47688891      -0.41948886
O        1.69911133       1.01459528      11.94867590      -0.65616355       0.58472147       0.40386361
O        0.84098920       1.56597347       4.82546248      -1.19147063       0.29015869       0.99683134
O        8.78935633       9.07255333      15.72410494       0.31688685       1.20668781      -0.18505191
O        3.48741707       4.16613119      11.75882341       0.04395782      -0.07547099       0.69889831
O        5.86463093       6.52510674       8.99357732       0.22297755       0.94164303      -0.97043869
O        6.57124443       5.63893022      15.83732937      -1.56146633       1.52188710       0.64854158
O        4.83670889       3.55483900      18.83543159      -2.90909812       1.16090520       0.08993833
O        8.90685352       3.51540001      11.74785379      -0.70816420       0.68356305       1.44484416
O        6.91074003       1.31287155       8.87481918       0.28836766      -0.28121642       0.19226445
O        1.39395853       6.92215101      15.70966660       0.52314509       0.04019351       2.08190103
O        3.33695205       8.59469625      18.91521864      -0.00131385       2.77621101       0.90295490
O        8.21895439       3.97391687      15.83425652       2.39025781      -3.53961076       0.31221065
O        6.26218206       1.78789482      18.73841263       1.22322037      -1.47495401       0.27431687
O        1.82935206       6.21324697      11.79675251       1.26740726      -1.22831047      -1.30902850
O        4.08532191       8.36993933       9.16665788      -0.02670097       0.25786965      -1.30819868
O        7.74832470       5.33629771      13.52666793       0.66808914      -0.58770053       0.18932663
O        4.83589676       1.95293497       7.26044801       1.21521742       0.55568380       1.74512910
O        2.46180853       5.33491739      14.14107084       0.77339886      -0.37379839      -0.21334363
O        5.20126997       7.76817680      20.57507262       0.81846980       0.55926823       1.74859282
O        0.52853345       2.91347743       7.33537979      -0.56143659       0.59538496      -1.36606751
O        7.15538313       0.02378483       6.64109075       0.68444614       0.54210815      -1.40059564
O        9.70223481       7.10508560      20.44112694       1.28914517       0.27323859      -2.42175991
O        2.97410904       0.51791645      14.28622010      -0.06979920       0.21426487       1.06109330
80
Lattice="9.77192453 0.01751879 6.90363604 0.24348012 9.76890588 6.90363604 0.01370155 0.0133883 13.86910312" Properties=species:S:1:pos:R:3:forces:R:3 energy=-576.2244729 source_file=vasprun.xml step_index=970 time_fs=7940.0 time_ps=7.94 file_index=3 pbc="T T T"
Na       7.91672719       8.87653560      18.08858122      -0.26009273      -0.36025836      -0.10670695
Na       6.22551259       1.88337449      14.24347637       0.09122379      -0.16087044       0.19089522
Na       3.11427638       3.08106552       8.68454157       0.07590728      -0.29825011       0.02540521
Na       8.70701288       7.04728481      11.49226515      -0.31720809       0.76571624      -0.24283865
Na       8.87466054       4.04011925      20.33525467      -0.17487155       0.15826247      -0.26402814
Na       1.25843160       1.56036969      15.57991783      -0.55284787       0.51420294      -0.10557140
Na       1.86197538       6.59267865       6.34597897      -0.00296875       0.25795762       0.49760042
Na       4.56155599       8.30117829      13.08722178       0.07074247      -0.07408913       0.44716628
Al       7.43648652       5.29434562       8.91969555       0.36700227       0.98192761      -0.41989558
Al       5.14239594       2.99175248      11.57277838      -1.00993618      -3.33241055      -1.32426203
Al       3.24113821       4.66855267      18.29319962       1.77129333      -0.91099589       0.45385086
Al       5.84302985       7.13762714      15.74691565       1.00627922       1.86146608       2.52305222
Al       0.96880170       2.29552209      11.36339109      -3.30501919       1.97101537      -0.72627361
Al       8.32579354       9.40529329      22.77504817      -1.66546124      -0.68855052       0.59980233
Al       9.88998736       7.60138498      16.04305086       0.87440795       1.99543945      -2.27155028
Al       2.46577918       0.66086477       4.47151584       1.30137434      -0.93231647       0.66718405
Si       3.06230102       5.59760882      15.43396025       1.07927093      -1.29149780      -0.63402804
Si       4.86043327       7.47732657      18.93487706      -1.55447870      -1.84901949       0.40579030
Si       7.78499655       4.30820467      11.96808650      -0.01050071       0.12355136       2.01336587
Si       6.25340020       2.52813331       8.43287309      -0.64353945      -1.63048186       3.76068908
Si       1.33800255       7.55916686      12.06075076      -1.40164117       2.14480691       1.71502243
Si       3.08668208       9.12771052      22.30705357      -3.45134383       2.12915594       0.11720291
Si       9.70898409       2.47516995      15.29975223      -2.62389161       1.43793528      -4.07083100
Si       7.81668624       0.69059149      18.72920754      -3.82879453      -1.99271377       2.54152179
Si       0.89818566       3.23758383       5.35665127      -2.53131311       0.23176731       2.20396917
Si       7.70456239       9.51225559      14.72355591      -2.38126818      -0.54726935       1.34100015
Si       0.24615376       6.89811529      14.99914515      -1.91003552      -0.23851105      -1.83589033
Si       3.31674466       0.57431837      12.42480358       3.05239089      -0.12108557       2.52431604
Si       8.29110207       5.37346590      14.73416779       1.63851531       3.27674447       0.43537878
Si       4.96060105       2.06823552       5.68966651       0.71216429      -0.56803597      -0.57572519
Si       2.62083537       4.84092237      12.37742346       0.91244212      -3.32764882       2.59425843
Si       5.71481293       7.97294451      21.90092274       2.50927085      -1.90428378      -1.10542686
O        8.84678652       5.78430771      21.81294101       0.90038425      -1.18421452      -0.01640683
O        4.80120436       1.43569424      12.55244650      -1.55658487      -1.03599715      -0.95764034
O        1.55373996       4.71226514       5.06303431       0.26239682      -1.03310278       0.07264244
O        6.31758654       8.62985679      14.86459329      -1.02513215      -0.27900567       0.15048252
O        1.29786435       3.99817697      11.94307386      -1.30454436      -0.72287944       0.29637738
O        6.61248848       9.34903091      22.08719158      -0.16115873      -0.31708001      -0.31076853
O        9.73162894       6.32974820      14.82223035      -0.85371651      -1.10134424       0.51202255
O        4.12290007       0.60605336       5.44814265      -1.08413141       2.28823582      -0.40056778
O        3.89987992       6.09556158      18.94375022       0.52243626       2.43650652       0.95603188
O        4.29768722       6.69694417      15.18886860      -1.54030648      -0.72446417      -0.31946567
O        7.18322055       3.74038149       8.12416899       1.25093951       2.74475606       0.54013892
O        6.57375989       3.36358698      12.33553859       0.53946379       0.02948304       1.16516511
O        1.58284954       8.50744651       8.32394168      -1.03217840      -1.77518765       0.20011808
O        1.86801015       9.09613331      12.13621729       0.97814958      -0.76860813      -0.22402910
O        9.09511121       1.54643977      18.77315625       4.55276001       2.82595726      -0.15269824
O        8.72426969       1.13675838      15.35468593       1.18470808       2.07244987      -1.03610672
O        3.51378903       4.47814508      16.61325755      -1.54423759       1.85071422      -2.16174631
O        5.81467966       7.51491499      17.70577499       1.43838973       0.26641321      -3.70811531
O        7.68738415       5.12595774      10.66105825      -0.31403684       1.45742748      -2.92576980
O        5.24561437       2.50868346       9.82102924       1.35315966       0.83776468      -0.59772524
O        0.31430305       7.45080865      10.84869187      -0.83304032      -0.64732741      -0.93288657
O        2.69488335       0.41315396       2.75145038       1.31652866      -0.20435284       1.42197217
O        0.87625335       2.54112757       9.61246639       1.34157221       0.27254755       1.82648336
O        7.89562321       9.34363216      24.48483731       0.15294129       0.83561723       0.56187493
O        9.32923014       8.01113131      22.81937391       0.48992885       1.13703020       0.48641811
O        2.43763865       1.61282767      11.54903630       1.65052360      -3.15489308       0.95282374
O        1.37009581       2.01259848       4.48263063       1.03282757      -0.25445498      -0.67825056
O        8.70752509       8.96694327      15.80669395       2.08874748      -1.61730675       1.76057278
O        3.95352037       4.10541746      11.86439782      -1.31602953       2.05184026      -1.05055799
O        6.46347740       6.73088572      22.63758445      -1.02032426       0.18827695       0.29945096
O        7.29337441       6.19851091      15.75806775       0.47711445      -1.82484113      -1.18237923
O        4.37545054       3.41620444      18.88878417      -0.97394535      -0.86950210       0.30638458
O        9.02801910       3.33402225      11.92788437       2.80779957      -1.01016748       0.43156393
O        7.29281108       1.29258704       8.35104727       0.06859962      -0.57833637      -0.25078927
O        1.60831423       6.39338827      15.62970595       2.30980574      -0.85786519       1.11730848
O        3.68629990       8.67422457      18.84316537      -0.42831720       2.74318486       1.08128259
O        8.54628141       3.84101203      15.07160478       1.19292604      -3.11169559       0.93148533
O        6.50770609       1.78160299      18.94918513       0.96277599      -1.03190505       0.03798860
O        2.42902919       6.38418733      12.12556672       1.20532437       1.53096155      -1.16529685
O        4.10616730       7.92423679       8.56263615       2.52243499      -0.36277840      -0.76406235
O        7.98008497       5.52356424      13.10060895      -0.38613842      -0.32613079       0.49262704
O        5.19217383       2.51096799       7.30851688      -3.51283893      -1.15071896      -3.55896585
O        2.89623238       4.68416076      14.04421331      -0.71954898       0.62858009       0.20885345
O        5.88798663       7.50965496      20.22307254      -1.40851074       1.30152823       1.75713574
O        1.05161438       2.83399303       7.05348501      -1.16292144      -0.37913600       0.09089823
O        8.08974220       9.32418525      13.20185864       0.87603224       1.76555167      -3.55651885
O        0.46229022       7.41909125      13.45234018       0.03158348      -0.20224525       0.13526720
O        2.87028732       0.51458375      14.19283707       0.84637497      -0.37349334      -3.22342961
80
Lattice="9.77192453 0.01751879 6.90363604 0.24348012 9.76890588 6.90363604 0.01370155 0.0133883 13.86910312" Properties=species:S:1:pos:R:3:forces:R:3 energy=-576.02526332 source_file=vasprun.xml step_index=795 time_fs=53590.0 time_ps=53.59 file_index=26 pbc="T T T"
Na       6.42892431       4.44041255      17.46682017      -0.51157441      -0.25873456       0.47026074
Na       8.44828542       3.81786874      20.80476812       0.31993572      -0.46954571      -0.48970860
Na       0.36353992       6.51922425       6.17064054       0.33469863      -0.26740390       0.24077919
Na       4.64954014       8.40629340      12.71991606       0.19828788       0.15212301       0.16312152
Na       2.51330183       2.38073912      15.62337143       0.09049257      -0.02616678      -0.22201239
Na       6.79876606       0.70855474      12.79468869      -0.26668476       0.40371174       0.44598175
Na       1.75758152       9.15763105      15.94748124      -0.42079228       0.22496835       0.30495081
Na       3.60584425       5.65567539      10.01522816       0.27871074      -0.38615111      -0.21842384
Al       6.81545731       5.14458075       8.92640843       1.44481844       1.42258449       0.75899022
Al       4.67235113       2.73337143      11.51506198       0.93619976      -1.17149628      -0.03073679
Al       2.68496399       4.64415846      18.40719389       0.97661050      -3.14985947       2.45804096
Al       5.33512027       6.98495161      16.01195212      -2.10016694      -1.57988185      -1.33719925
Al       0.49133459       2.23417553      11.52571229       0.24433808       0.69129447      -1.27413148
Al       7.58343143       9.39379023      22.93982992       2.15312051      -0.13818268       1.12254382
Al       9.46883630       7.65611313      16.02715835       0.30005758      -0.98302629      -1.36929510
Al       2.27632094       0.33641926       4.37192267      -0.16584193       2.14956019       1.55594797
Si       2.29346009       5.39216145      15.47198485       1.69587617       1.77348011       3.20928380
Si       4.22404246       7.12178287      18.93506791      -0.18242782       1.75424385       1.81972889
Si       7.45649481       4.26532937      12.01287960       1.49307736      -2.25811304      -0.55658661
Si       5.46453850       2.35280749       8.45175139       1.88079726       2.37146362      -1.79821752
Si       1.37761281       7.25654410      11.99791655      -1.15129642       1.79555519      -0.12320906
Si       2.19091714       9.19405166       8.17746944       2.28670327      -0.11357097      -0.78693383
Si       8.64191984       2.31861547      15.41289412       0.88474437       0.64744961       3.90261104
Si       7.48409753       0.98494982      19.03174393       2.01920704      -0.59334983      -1.09551412
Si       0.47623029       2.83110249       5.79947196       0.17522128      -0.89430175      -0.20617942
Si       6.92193671       9.23553068      14.79228668      -3.91132582       2.83346315      -0.48375629
Si       9.51718620       6.95557206      21.75964149      -1.90049133      -0.64450284       0.66336131
Si       2.96856199       0.37536449      12.36769419       1.05894759       0.25169412       2.49550398
Si       7.86762428       5.21251883      15.00340775      -1.57488305      -1.68095820       2.02386164
Si       4.88216115       2.22213958       5.34346966      -2.94279366      -0.80136376       0.24300843
Si       2.30366081       4.61656397      12.68543527       0.07043346      -5.81610971      -2.34412877
Si       5.06794778       7.64143101      21.86491285       2.57212622      -1.06950645       0.14255707
O        8.41820411       5.75151478      21.90730230      -1.65545899       0.00657871      -0.44425574
O        4.42609936       1.03829992      12.28985786       1.44648663       2.19620601      -0.97698669
O        1.59793862       4.05257416       5.91676954      -1.33347404      -0.73925395      -1.05974334
O        5.43376976       8.36609516      14.97703191       1.63905717       1.69899447      -1.00050076
O        0.92107838       3.87427576      12.35714142      -1.43908053      -1.29521124      -1.91524193
O        6.20454455       8.82128287      22.13644923      -2.04344324      -1.20384942      -0.71523078
O        9.21787937       5.99842291      15.28799540       1.11213290       1.43271704       0.52869287
O        3.95547834       0.81385259       4.87930368       1.20461492       1.32781605      -0.09766777
O        3.01575525       6.12422513      19.13555901      -1.16197611       0.61814936      -0.53481075
O        3.75518678       6.15985124      15.43997278      -0.94162783       1.03905428       0.26279258
O        6.42340093       3.71392448       8.07494588       0.75419261      -1.20913273       0.30226394
O        6.23761947       3.21580582      12.18004766       0.11410284      -0.82102122       0.20798247
O        0.80200799       8.43852748       7.88493052      -0.03998419      -0.84456097       0.81200890
O        2.49145652       8.50832387      11.93555732      -1.49565361      -1.84931641       0.49388248
O        8.89177814       1.80646697      19.44563895      -1.13409812      -0.98456897      -0.03431810
O        7.49438699       1.18080101      15.25619076       0.57239841       0.12428281      -0.28181890
O        2.29607045       4.35977283      16.77149871      -0.48070310       0.02626755      -1.01073667
O        5.18335735       6.85957777      17.71112055       0.80627719       0.24567978      -0.00597807
O        7.19049047       5.08686394      10.66914016       0.45054166       0.43935241      -0.13598313
O        4.64266015       2.97869249       9.68383226      -0.84080569      -1.24492430       1.79511540
O        0.20306569       7.37153961      10.77796680       2.03864052      -0.13056712       1.03091389
O        1.96557675       0.22916765       2.67700707      -0.00280792       0.40192444      -0.61696302
O        9.81249386       2.28072397      16.65067869      -0.72380199      -0.89620285       0.69396029
O        7.86205571       9.66161456      24.71903720      -0.47559020       0.78155492      -1.10761820
O        9.07126373       8.32457462      22.48880756      -0.51354009       1.07532123      -0.30728334
O        1.88812383       1.09574573      11.52262914      -2.30332474       1.15948653      -1.96562254
O        1.05067186       1.41850380       5.15823090       0.77085808       0.17347290      -0.44882079
O        7.97630296       8.41231501      15.54046245       1.78839927      -0.66271838       1.59840341
O        3.60645033       3.77074834      12.28758909      -0.53522230       0.70481265      -1.10842793
O        5.53457409       6.34265651       8.99783076      -1.45373992       1.37585291      -0.96006505
O        6.49018853       5.77454280      15.66760022       1.20662127       0.07129733      -0.47107951
O        4.19953150       3.58231384      18.71331395      -0.38145782       0.97804330      -1.41725814
O        8.90510416       3.29354702      11.87062759      -1.42867119       1.42924144      -0.50747319
O        6.35858257       0.99445887       8.62864374       0.32966161      -1.24683031       0.25916680
O        0.90954638       6.31363914      15.76905925       3.51017969      -0.64650636       0.38661789
O        3.54108690       8.63565732      18.88794330      -0.62658060      -1.56843319      -0.70857465
O        7.82999321       3.70753610      15.88902261       0.47264495       1.16564568      -2.32124387
O        6.49964083       2.32704303      18.72849645      -0.75536580      -1.52715856       0.41731427
O        2.54988075       6.02951312      12.13430802      -1.00751617       4.57207905      -2.42654229
O        3.52374648       8.06180983       8.19694190      -2.41303381       1.16057230       1.01179016
O        7.74915588       5.12901440      13.40169261      -0.21934951      -0.02217597      -1.62675699
O        4.79946204       2.25146745       6.97164127      -0.84920960      -1.14192283       0.25234904
O        2.34868777       4.44413134      14.19944786      -0.82001239      -0.35213933       4.70616140
O        5.06238857       7.04396205      20.33059165       1.22897387       0.40512559       0.32098851
O        9.54214518       2.35347249      14.13125656       1.30377778       0.59154607      -1.81979940
O        7.20105193       9.61816795      13.18004088      -0.59373625       0.02894237       1.81159389
O        0.45680173       7.11338284      13.38330361       0.50867514       0.41363932      -1.13860652
O        2.34731234       0.59004876      13.96112089       0.12348241      -1.44088258       0.59222914
80
Lattice="9.77192453 0.01751879 6.90363604 0.24348012 9.76890588 6.90363604 0.01370155 0.0133883 13.86910312" Properties=species:S:1:pos:R:3:forces:R:3 energy=-575.99073301 source_file=vasprun.xml step_index=225 time_fs=54450.0 time_ps=54.45 file_index=27 pbc="T T T"
Na       7.29276106       6.36704352      18.39685693       0.70235152       0.04593211      -0.10099684
Na       8.55147097       2.67112650      21.53199583       0.16378352       0.00216998      -0.42756602
Na       1.42440457       6.38380503       5.85046771      -1.01623463       0.47223033       0.65767890
Na       3.14620407       8.71647125      15.47786931      -0.13796467       0.22015452      -0.46668544
Na       4.40450644       1.69942883      16.42206840       0.06515253      -0.14485886      -0.04391433
Na       6.14172435       0.82253972      13.39531493       0.14495509       0.42422889      -0.57977517
Na       2.26856203       3.18367696       8.85679563       0.09240919      -0.04786685      -0.38755266
Na       4.60975170       6.17850413      11.10903447      -0.11064526       0.10272896       0.06053484
Al       6.94802918       5.35115485       8.98648543      -0.02957756       0.70272391      -0.27678978
Al       4.50934016       2.52021494      11.26553745      -0.18915394      -0.70696700      -0.43609273
Al       2.51445781       4.11431450      18.15152157       1.21092134      -0.47145841       4.27396216
Al       5.36379494       6.92772874      15.99873633      -0.82988327       1.14985871      -0.15631348
Al       0.38000898       1.87211655      11.48933549      -5.20159135       5.30500767      -1.63698756
Al       7.65957972       9.36219834      22.59896620       0.37425532       0.88102848       0.93001905
Al       9.52544804       7.66715434      15.74496713       0.36606585       1.21330584      -2.07764753
Al       2.18218154       0.27752795       4.47687563      -1.95659554      -0.45492041       1.83889426
Si       2.37187792       5.58518901      15.41495212      -1.34314583       0.57463425       0.83500388
Si       4.23934284       6.95723521      19.04555956      -1.28750189       0.22735709      -2.30230191
Si       7.18517917       3.95312508      11.90670055       4.09322525      -0.71430819       0.67643303
Si       5.56644935       2.62843000       8.19170149       1.36677373      -1.75459821       0.82487507
Si       0.90886434       7.03334111      11.75272647       0.43890529       3.67283700       1.50296154
Si       2.58780480       9.16549909       8.30030686      -1.66751689       3.12442786       0.55291226
Si       9.05894536       2.37610199      15.33466892      -1.44662065       0.00410297      -0.68360090
Si       7.36612394       0.53444375      18.95976067      -1.16418480       1.27435521      -2.60596759
Si       0.32514301       2.79772703       5.56985365      -1.75858028      -0.39137045       1.01666531
Si       6.97340063       9.39216556      14.85732103      -0.95551663       0.10853269      -2.01958743
Si       9.37274600       6.71235418      21.46658232       0.94293376       1.89458230       0.75000758
Si       2.78327577       0.01584897      12.35764178      -1.89146734       0.80106282      -0.94992283
Si       7.88120019       5.20891802      14.73596323       1.09137440       1.27106917       0.44707173
Si       4.39751802       1.75854444       5.57469598       1.80827420      -0.50315441       1.00840925
Si       2.13074568       4.46475299      12.46136750       0.09541898      -0.32044101      -0.92189752
Si       5.16609394       7.75955411      21.88980730       0.75731566       2.56321360       3.61326720
O        8.62278843       5.52482595      22.24228796      -1.20055564      -0.71190941      -0.70693461
O        4.07809926       0.72895673      11.66479488      -0.04724667       1.74734039      -0.33488681
O        1.01983077       4.20175837       5.41731169       2.92217721       2.04282609      -1.84464543
O        5.60604864       8.59139543      15.33642503       0.02827211       0.24479753      -0.65262842
O        0.98078840       3.38950790      12.11690289       0.13514423       0.94406803       0.44667544
O        6.03739479       9.16785727      21.92584851      -0.31881246      -0.03528081      -0.13812206
O        9.21328389       6.23116194      14.78181611      -0.98356450      -0.91955725      -0.56458624
O        3.58432063       0.33746354       5.61037634      -0.24470717       0.56282806      -0.29816316
O        3.39206088       5.54025835      19.06637405       1.05612099       0.83612435      -0.50855800
O        3.68898220       6.46032576      15.53071288       1.97855086       1.05962022       0.06190486
O        6.24004839       4.05850164       8.00477616       1.85185047       0.89061569       0.80772146
O        6.03603509       2.88222612      12.08177768      -1.75628970      -1.37965302      -0.20622491
O        1.21513550       8.50457310       7.81858596      -1.48887932      -1.20153848       1.48361604
O        1.61632293       8.52982815      12.14471778      -0.53778020      -1.23537192      -1.39091846
O        8.45023354       1.75197234      19.28368636       1.98315979      -0.65967771      -1.77745139
O        7.80305548       1.30510504      15.14665768       0.97127983      -0.89419029       0.12262902
O        2.39872195       4.43462587      16.55399719      -0.65446880       0.58378357      -2.09240571
O        5.26533301       7.30213593      17.75788047      -0.48871039      -1.47846920       1.08688502
O        7.10348644       4.90901004      10.62464242      -0.59134544      -0.45066261       0.90302437
O        4.56541738       2.52801294       9.43772281      -0.46793310      -0.00745464       2.88766941
O        9.83314638       7.04044437      17.32493419      -0.71143943       0.31293576      -1.08264836
O        2.26847044       0.51025733       2.71655136       0.52850406      -1.54238875      -1.37139912
O        0.36267119       2.26325640       9.61654943      -0.01261984      -1.14462011       2.61525798
O        7.53166050       9.48231480      24.35353261       1.01001246       0.87376342       1.94927842
O        8.56240481       8.13654046      21.74915271       1.15207673      -1.17971308      -0.35352566
O        1.25192846       0.63849669      11.83829550       6.39919433      -6.13492298       1.80094488
O        1.09699445       1.61903367       4.95184860       1.69435995      -2.17457622      -1.66797109
O        8.20856567       8.86453675      15.61869256       2.56095654      -1.42294719       2.37216950
O        3.52133007       3.91552500      11.80416498       0.70958329      -0.78902793      -0.23955195
O        5.80166488       6.81368126       9.20069895       0.70407444      -1.97685871      -1.54065682
O        6.67625330       5.96404608      15.54558076       0.39524534      -0.86364572       0.42657696
O        3.69990884       2.72121282       4.50426144      -0.97512749       1.52240441      -1.09077786
O        8.61821291       2.93132300      11.86284892      -3.09610900       1.17538720      -0.56949014
O        6.61489477       1.26631758       7.95341757      -1.30338429       2.80428234       1.97755764
O        1.11776818       6.71235775      15.41752869      -0.47667451       0.03188276      -0.86199745
O        3.04260210       8.14036546      19.08070348      -0.29618574      -0.25828735      -1.05368883
O        8.23253271       3.77920009      15.40295340      -0.39383944       0.68120365       0.79597431
O        5.95993436       1.42627216      18.97463212      -1.20508249       0.47903910      -0.51569230
O        2.12877998       5.98212761      11.71496784       0.46851046      -1.63107800       0.06758983
O        3.71357455       8.15918159       8.73542587       1.58953052      -2.55762253       0.21104020
O        7.34457530       4.88352534      13.24323689      -0.40688507       0.30245555      -0.79034006
O        4.56923985       2.63821902       7.01162113      -3.35541473      -1.51248136      -4.20245062
O        2.14333878       4.83756178      14.03764532       0.28558192      -1.42067757      -1.46812842
O        5.07379037       7.41229579      20.35606618       0.74027314      -1.85655777      -0.83087774
O        0.31003163       2.54757002       7.18074073       0.09525745      -0.50700883       0.58227438
O        7.54028537       9.37195201      13.27482570      -0.68425753      -2.57554222       0.88837262
O        9.50806088       6.51729198      19.74965657       0.14586459       0.19995898       2.10615592
O        3.02565541       0.20443163      13.94052870      -0.40573447       0.71479717       1.65249803
80
Lattice="9.77192453 0.01751879 6.90363604 0.24348012 9.76890588 6.90363604 0.01370155 0.0133883 13.86910312" Properties=species:S:1:pos:R:3:forces:R:3 energy=-577.59500926 source_file=vasprun.xml step_index=535 time_fs=97070.0 time_ps=97.07 file_index=48 pbc="T T T"
Na       7.87193123       6.35176348      18.32023182      -0.38864571       0.24975557      -0.35355812
Na       7.90924059       1.05419347      12.83478837      -0.31132566       0.29197190       0.28173636
Na       2.78132465       3.26256540       8.76383069       0.58622758       0.09682983      -0.47154334
Na       8.29699116       7.54423168      11.23081959       0.01119757      -1.37680217       0.41711746
Na       9.16851376       3.03691097      20.70203678      -0.92842220       0.33014533       1.11002828
Na       4.06724323       2.53418337      15.46633728      -0.21394790       0.10384731       0.29820504
Na       1.97442160       6.61067555       6.50409305      -0.15462439       0.06931262       0.21185709
Na       3.93152604       8.68921258      13.71737892       0.08502658      -0.37908722       0.00490166
Al       7.52762294       5.48232020      22.74735412       0.78528113       0.00937871      -0.20033840
Al       4.84495887       2.79753517      11.39749870       0.50436712       2.50732381       3.00027032
Al       3.59004610       4.57228864      18.54692954      -0.96425492       0.70270645      -0.83133382
Al       5.74535109       7.26362342      15.67180449       0.85655702      -1.00040257       0.02748252
Al       0.76737115       2.42411976      11.41063659       0.28100094      -1.23660350      -1.69087598
Al       8.44049168       9.51750426      22.90054011      -1.94983569      -1.00865364      -0.72447456
Al       9.93283947       7.90436758      15.92457716       0.42090795      -0.49122376      -0.89157817
Al       2.53058113       0.55972989       4.47780805      -1.30612709      -0.77311662      -2.06920858
Si       3.12307657       5.62833975      15.48653022      -2.21421978       2.26678894      -1.90785688
Si       4.70033205       7.61552662      18.74253423       3.06539259      -1.96318249       0.72419667
Si       7.72633000       4.36881857      11.88761861       2.53773324       0.28784899       2.70756264
Si       5.73663494       2.64298880       8.46888747       1.69454501       0.27075107      -0.64732950
Si       1.05613423       7.38737255      12.06993244       1.20564073       0.13201675      -1.85843588
Si       3.09069887       9.43665068      22.18963022       0.89747393       1.09166126       1.70668971
Si       9.55798097       2.62121359      15.47802916       0.13323844       2.96110891      -0.98436571
Si       7.87463548       0.75983222      18.87368548      -3.09449156       3.04983366       1.48442007
Si       1.00894979       3.02989359       5.73603172      -2.92121221       4.31175612       1.42923237
Si       7.49929974       9.61821263      14.72695728      -0.57276556       0.02309648       1.29145520
Si       0.21019906       6.83178224      14.92233167       0.28173680      -0.91095344       1.94632687
Si       3.16401029       0.60561856      12.46700153       4.29746689      -0.73875610       0.45251220
Si       8.32111761       5.63233447      14.74384844      -2.09567722      -2.77530056      -0.58191293
Si       4.92035800       1.94866101       5.62324376       0.41611282       0.63025932      -1.60820265
Si       2.34406393       4.63284360      12.76638459       1.55938389      -3.50718732       0.38626898
Si       6.05057423       8.17515575      21.51291000      -1.10963263       0.50126062       2.25602039
O        9.19705003       5.36971807      21.87925572      -0.69979028       1.26417725       0.25769939
O        4.61796354       1.32607190      12.14074102      -0.88199483      -1.99912801       0.89553111
O        2.06703330       4.37707991       5.75181902      -0.28841445      -1.66953447      -0.21189494
O        6.10129084       8.69494141      14.64209295       0.88164044       0.39341000      -0.00901664
O        0.93345282       3.71845436      12.53339607       1.21823954       1.65964871       0.37031630
O        6.97258261       9.54476138      21.77633099      -0.19070787      -0.93822463      -0.42180126
O        9.61205990       6.52356743      14.74051136       2.06426660       1.95423955       0.83781812
O        4.04378570       0.61920175       5.30738184      -0.09615156      -0.42113402       1.03846925
O        3.92796614       6.25332970      19.09775755      -0.22940861      -1.59251326       0.15484034
O        4.21669970       6.66368206      15.01726678       2.48178411       1.40815955      -0.56512187
O        6.63717300       4.10406715       8.15352193      -1.42862217      -2.43183689       1.15898526
O        6.49908534       3.32644336      12.00109780      -0.37833703       0.03768580      -0.65804220
O        1.65895081       8.57991675       8.29933705       0.58918361       0.07057656      -0.10900159
O        1.85037371       8.73103678      11.66837129       1.48306337       1.53843235       1.16497986
O        8.81800354       1.90860799      18.38714572       2.79370029       1.91266401       0.70180541
O        8.75849734       1.26350400      15.47801838      -0.43043206      -0.10359413       0.28853729
O        3.34486135       4.92760230      16.81104403       0.46395782      -2.00616701       3.61579736
O        5.58499598       7.54154297      17.39371813      -0.31795119       0.46545417       0.17679332
O        7.93048024       5.34795274      10.65051990      -0.97120588       0.30727343      -2.43159305
O        4.69758967       2.53498809       9.77872381       1.49074328       0.51778644      -4.64366887
O        9.94228150       7.21949388      17.57268706      -0.06559992      -0.80376315       0.96089858
O        2.94870881       0.73224697       2.72580728      -0.47108074      -1.57787376      -0.41838150
O        0.98268914       2.77333847       9.66560544      -1.10290013       0.07809854       1.46346593
O        7.95962394       9.54186574      24.61111589      -0.67899012      -1.62097468      -2.31565354
O        9.20340622       7.91168216      22.85359473       1.44334000       0.23749396      -0.71552822
O        1.95457781       1.15079275      11.71259626      -3.15270568       1.06783798      -1.54608582
O        1.46696935       1.89956213       4.84510617       1.71865689      -3.21068486      -2.37162271
O        8.54844609       8.91977400      15.74145660      -0.25812374       0.43712842       0.12576465
O        3.49249377       3.90964479      11.82122318      -0.37743723       0.54533128       0.33940723
O        6.76219695       7.05171571      22.45068668      -0.53943884      -1.08739999      -0.22554446
O        7.06361924       6.00147013      15.71117987      -0.39543788       1.47536642      -0.12013294
O        4.53328831       3.07647724      18.29346952       0.16387466       0.05927366       2.10097192
O        9.19725246       3.51039839      12.11642685      -0.01516240      -0.19225552       0.11633671
O        6.88159445       1.34742554       8.50993329      -1.03817412       0.94159322      -0.60387542
O        1.82006224       6.66691591      15.42775306      -2.52942825       0.39411584      -0.52108325
O        3.66799113       8.74633173      19.01513732      -2.40468556       2.80885101       0.49977891
O        8.67078379       4.11326867      15.36831704       1.21963171      -2.40921826      -0.12371980
O        6.51689383       1.60851604      19.50123997       0.19710230      -0.11355063      -1.35297174
O        2.21127582       6.18397216      12.47234444      -1.58666077       2.26713105      -1.08243153
O        4.39054859       8.33586905      22.22341187       0.63811813       0.98915424      -1.60005576
O        7.82249379       5.56453505      13.13485157      -0.31849081      -0.93686281       0.02863055
O        4.65964467       2.47389900       7.16996139       0.09018875       0.34249538       0.89988138
O        2.86107503       4.46818642      14.39653316      -0.70509433      -1.17695963      -2.51115215
O        5.92202298       7.71665485      19.95013680      -0.07872779       0.32627238      -0.46971573
O        0.67037789       2.34083222       7.20392385       0.99542516       1.07572281      -0.58545521
O        8.09472254       0.02743934       6.39187107       1.04464864      -1.76591513       2.07319838
O        9.83526377       7.44921167      20.27393210       0.02502383       0.13794514      -0.05514368
O        3.03793771       0.90872495      14.07352902      -0.77601039      -2.37384590       1.48640994
80
Lattice="9.77192453 0.01751879 6.90363604 0.24348012 9.76890588 6.90363604 0.01370155 0.0133883 13.86910312" Properties=species:S:1:pos:R:3:forces:R:3 energy=-576.08259852 source_file=vasprun.xml step_index=770 time_fs=23540.0 time_ps=23.54 file_index=11 pbc="T T T"
Na       9.66342577       1.27759091       9.58790435       0.01524406      -0.07763972       0.29009454
Na       6.09166340       3.23066873      16.98321681      -0.34432053       0.24784363       0.20606554
Na       7.85105162       7.35882994      11.73294957      -0.21794456       0.38032919       0.34080858
Na       1.55471364       9.20778773      17.28610437      -0.48287342      -0.84495738      -0.58582533
Na       8.99299452       3.90692646      20.69394638      -0.40703418      -0.18967700      -0.23167136
Na       6.30694425       1.24097334      13.43657160       0.35873158      -0.44393957       0.19946561
Na       1.61162066       5.91718998       7.52765274       0.18701152      -0.48870469      -0.15054227
Na       3.71404909       9.16973576      14.45437999       0.31001113      -0.32049627      -0.60577528
Al       7.26382262       5.37941684       9.20051820      -1.34727235       0.19719917      -2.68377079
Al       4.67235551       3.07107374      11.81334827      -0.10111263      -0.21997202      -1.33761188
Al       3.03996352       4.62514702      18.45485899      -0.16986541       1.06640746       0.99512689
Al       5.58094532       7.04360178      16.00850665       1.09756913       2.36815648       1.32775817
Al       0.44585975       2.47135460      11.40368755       0.12943430      -0.24075645       2.03549180
Al       8.05058859       9.35416442      22.88625611       0.69053572       1.80056152      -1.88516263
Al       9.52678370       7.77388377      16.22721516       1.77472585      -0.67150019      -0.01682510
Al       2.18357039       0.29281698       4.69629315      -1.65615477       0.58397784       0.70779729
Si       2.81249035       5.82913282      15.50420286       0.40486259       0.37057609       0.79592596
Si       4.45657001       7.29278869      19.13380965       0.13764462       0.55684078       0.14076424
Si       7.44871385       4.27221217      12.22830270      -1.35729069       1.74793357       1.78840205
Si       5.78597447       2.66938424       8.56743967      -1.62801837      -2.98289485      -0.29663488
Si       0.78121679       7.63394715      12.37865908       1.08634417      -0.80932502      -0.59450420
Si       2.59751681       9.06843352       8.60125828       0.37697357       0.14732707      -2.54872125
Si       9.15037964       2.39937300      15.19545702       0.80772767       0.64781401       1.94118957
Si       7.54592159       0.96354923      18.97557373      -1.14881192       0.72572122       2.37082417
Si       0.51420986       2.97337100       5.52766078      -0.65855379      -0.82966434      -0.36891067
Si       7.38035773       9.52304430      14.88061035      -2.76766356       0.08953354      -2.33874480
Si       9.67623102       6.82318998      22.12624774       2.99185834      -2.43578891      -2.87089934
Si       2.84453998       0.31814722      12.54380657       1.41250957       3.72483589       2.51499817
Si       7.96951341       5.14301279      15.09534110      -0.90410422       2.77362674       2.98228968
Si       4.43385246       2.13174925       5.81849031       2.91978402      -1.27900368      -2.45282541
Si       2.20030650       4.88546387      12.54525396       0.59619089      -0.53369034       0.87490612
Si       5.63946040       8.22930325      21.87501583       2.14714804      -1.92289593      -1.58314277
O        8.90109892       5.38577145      22.25666984       0.04001456       0.70190635       1.12619815
O        4.37401684       1.28371803      12.38798610      -2.74958095       0.08674516      -0.38413797
O        1.38915031       4.28759286       5.18589876       0.07747717       0.03536503       0.02919287
O        6.11020524       8.52227835      15.03544861      -0.09489936      -0.86948678       1.48131406
O        0.94130825       3.88369303      12.34019242       0.10044123      -0.66801458      -0.25629021
O        6.49183091       9.60516884      22.08182882       0.96174043      -0.33491740       0.36852852
O        9.17420673       6.07151189      16.01481100      -1.56818172      -2.10067586      -3.13641401
O        3.62700997       0.79537769       5.44275518       0.27998990      -0.58032050       1.01297654
O        3.84093360       5.81767053      19.63217709      -0.63787246       1.31403948      -1.34224585
O        4.11141365       6.73885123      15.35426293      -2.41928481       0.67699987      -2.31056055
O        6.59430668       3.94840714       8.27786027       2.59844300       3.06451834      -0.54045195
O        6.18013157       3.44326791      12.96572796      -0.28603071       0.69454095      -2.95647172
O        1.39200351       7.90930637       8.42155530       0.90526782       0.97310758       0.68203677
O        1.83273551       8.84926136      12.73907072      -0.00343295      -0.72402123      -0.26898441
O        8.75327000       2.09156627      19.33868442      -0.92504264      -1.59980755      -0.98923135
O        8.86215957       0.82062174      14.98449403      -1.26739751       0.15940866       0.71420309
O        3.06949860       4.94363892      16.79451745      -0.16352494      -0.56840432       0.11948656
O        5.16334849       7.40541533      17.69838995       0.18305655      -0.35283722       0.08142680
O        7.17307189       5.27614697      10.92351733       0.30744336      -0.69419149       1.50840323
O        5.05941680       2.95529496       9.96167713      -0.22530335      -1.04382527       2.35309481
O        9.74350049       7.88262932      17.91082199      -0.18707372       0.89230386       1.00789727
O        2.00780525       0.28139456       2.95213617       0.61591235      -0.99249957      -0.49689285
O        9.72154506       2.77126307      16.71986342       0.17965897      -0.75080401      -1.92247569
O        7.80618782       0.15255201      17.59340884       0.02548391       0.10787292       1.26173353
O        9.05958124       7.95804989      22.90630339      -1.83321801       3.23608750       3.81837556
O        1.61338358       1.11701773      11.75559083       0.70255371      -0.58688293      -0.55356030
O        0.87630917       1.48666492       4.96151515      -0.36198539       1.84175936      -0.64379739
O        8.71086958       9.21046330      15.64901909       1.20651114      -0.63255916       0.83718032
O        3.54495051       4.49645916      11.72661230       0.81312210      -1.93896905       0.91082890
O        6.49818016       6.97160513      22.52017854      -0.31980842      -0.20477593       0.70797017
O        6.58343488       5.71984606      15.85300858       2.24747130      -2.12368889      -1.06539131
O        3.99297810       3.23111693      18.57412527       1.00170692      -0.72742683       1.16759050
O        8.66372549       3.29473445      11.96409968       1.98694888      -1.42533389      -0.46465570
O        6.74102083       1.28907213       8.21810797      -0.40621175       2.53636168       1.94348242
O        1.52496507       6.80044857      15.78385120      -2.14260506       0.91918050      -0.21995196
O        3.22055364       8.53257050      19.09846700      -0.06140252      -1.55570100      -1.46061020
O        7.75805851       3.51246256      15.31649536       2.07357816      -1.36649297      -0.68896573
O        6.06952362       1.75750492      19.00395303      -0.06426841       0.62434837      -0.03509165
O        1.79304518       6.31513579      12.00557515      -1.26362779       2.42520412       0.23485308
O        4.21600545       8.54730900      22.40355464      -4.34402429      -0.01115598       2.22878023
O        8.03886098       5.39411267      13.46644173      -0.26544462      -0.34231609      -1.11143526
O        4.57785240       2.29681236       7.41929571      -0.21883607       0.80546409       0.18306972
O        2.39861300       4.99863589      14.22527044      -0.21256084      -1.46282913      -2.29446308
O        5.46777975       7.96064108      20.24409064       0.21246119      -0.33172315       0.40988084
O        0.53141170       2.83104906       7.15744240      -1.32106260       0.50553132       1.58474665
O        7.49777083       9.51299612      13.21442002       1.80074900       0.22700601      -1.67361234
O        9.53394882       7.38211922      20.56253361       0.97837617      -0.82699830      -0.48741739
O        2.39060789       0.28708100      14.15725599      -0.19719345      -0.13001407       0.59279962
80
Lattice="9.77192453 0.01751879 6.90363604 0.24348012 9.76890588 6.90363604 0.01370155 0.0133883 13.86910312" Properties=species:S:1:pos:R:3:forces:R:3 energy=-575.38868177 source_file=vasprun.xml step_index=680 time_fs=9360.0 time_ps=9.36 file_index=4 pbc="T T T"
Na       6.91766763       4.86587828      18.75615801      -0.26915818       0.49577427      -0.25426518
Na       7.83475055       8.71427555      19.71985805       0.11826627       0.34149542      -1.15037736
Na       2.68325557       2.78732517       9.29958820       0.39805413      -0.21051751       0.10884398
Na       8.61513845       7.43951766      11.76721571      -0.12104279       0.34770443      -0.09942174
Na       9.29728649       3.35207581      21.08150448       0.30544164      -0.19506489       0.01758628
Na       4.27562059       3.17449185      14.90772187      -0.14671581      -0.25844445      -0.22050786
Na       2.33552550       6.32055791       7.23068539      -0.24807766       0.02085710      -0.21133054
Na       4.71501861       8.48609391      13.13944476      -0.25187506       0.07295697       0.14540257
Al       7.59253634       5.32299085       9.04198586       1.57741368      -1.15457479       0.40380818
Al       4.95711942       3.37190340      11.50435510      -0.16134226      -0.52501494      -0.16439594
Al       3.12728473       5.09521473      18.26899181      -1.22308572      -1.54564244       0.97424765
Al       5.77773915       6.95427564      15.82949945       0.71081868       1.33385909      -2.07206905
Al       0.63484822       2.16662536      11.38141443      -0.37291600      -0.82738967       2.04629240
Al       8.12121781       9.51479019      22.90792749       1.22786939      -0.45834358      -1.00567088
Al       0.33306520       7.88920946       8.88093651       1.51954665      -0.59978285       0.95004516
Al       2.52198960       0.78736314       4.43103435       0.67493001      -0.69179638       0.64638774
Si       2.88519788       5.84170112      15.13412724       1.74059577       1.07444467       2.19638930
Si       4.78017599       7.64985055      18.79661756       0.01024285      -3.46406329       1.18089541
Si       7.73904671       4.58120914      12.06033920       0.57517177       1.48870506       0.64615562
Si       6.26948308       2.65755494       8.49143637       0.09235770       0.90994994       3.95198079
Si       1.24016298       7.85081621      12.01751977      -1.50169547       0.41346686      -0.62135350
Si       3.47910771       9.24054998      22.26314644      -4.59445750       2.74660733       1.64556037
Si       9.37585649       2.27456242      15.17489637       0.63514912       2.68190796      -0.26158704
Si       7.63095286       0.87248034      18.91847424      -2.05242435      -0.57998649       2.10833255
Si       0.76085173       3.00149418       5.52741126      -1.12071615       3.15574309      -0.24667607
Si       7.35480799       9.44473850      14.72490214       3.89396203       0.40659953      -0.98551057
Si       9.86956266       7.25875341      21.80320513       1.66304920       1.97885480       1.95244854
Si       3.38204207       0.86119662      12.53739970       0.56742224      -0.90410231       0.55472876
Si       8.41261553       5.34601648      14.90114648       1.41235302       3.39211007      -0.10087799
Si       5.04768070       2.64331842       5.61607485      -1.21214464      -0.52070893      -2.51615192
Si       2.17576691       4.85992853      12.29598936       1.05045437      -4.31786317      -0.16853958
Si       5.94361132       7.51969186      21.73255306       4.12878849      -3.74024457      -4.80299777
O        8.94062782       5.93950091      21.93215615       1.07765627      -0.27095544      -0.58313940
O        4.51360751       2.04411945      12.62363247      -0.22220826      -0.40810427      -0.19994201
O        1.58156405       4.47578134       5.28621882       0.54660763      -1.36371633       0.27107743
O        6.08965612       8.62000707      15.06601188      -2.08466148      -2.01260472       0.24046626
O        0.87337271       3.73109790      12.17271034       1.13454533       1.78607222       0.16557310
O        7.14851861       8.57267388      21.68323253      -0.09692558       1.22097272       2.29810464
O        9.89982495       6.24346275      15.13211139      -0.90801661      -1.43218598      -0.62540479
O        3.88154188       1.51347365       5.37767258       0.51501165       0.14475412       0.19484415
O        3.49144971       6.56605171      19.05857748       0.83859953       1.87569865      -0.42634080
O        4.38330950       6.41981869      14.77005481       0.95770590       0.42479855       0.92719533
O        7.61886472       3.58262554       8.74995136      -0.92107715       0.10285236      -1.10224176
O        6.30137792       4.07356253      12.36255548      -2.69932138      -1.80540111       0.33822732
O        2.05103569       8.42612733       8.45691947      -0.98904656      -1.39405740      -0.52219490
O        2.40683840       8.96005243      12.17538769       0.14919016       0.37698027      -0.09153598
O        8.94963261       1.54049024      19.33864809       4.94423775       2.18865926      -0.42830019
O        8.53136227       1.01607095      14.84965663      -2.68674268      -2.07437695       0.72382141
O        3.02056371       5.00972409      16.54760561       0.02186067      -0.25334270      -0.89061910
O        5.57649751       7.54280400      17.40329095      -0.89927311      -0.38373244       1.50690958
O        7.52180572       5.50383275      10.73940406       1.54055094       0.76452000       0.27779959
O        5.33273275       2.70380001       9.89987434       0.26929143       0.27049594      -1.57089547
O        0.36992604       7.83473384      10.64845067       0.04292124       0.60134002       0.82522002
O        3.22620360       0.37003766       2.89128235       0.98598177      -0.52834610      -1.41456983
O        0.29283916       2.10629682       9.71857188       0.79905646       0.29385777      -0.31706948
O        7.66339245       9.76083894      24.58968430       0.25607621      -2.12959856      -5.41402412
O        9.41332368       8.30589569      23.09953362       0.52280724      -1.18291080      -1.85962454
O        2.21433855       1.33853826      11.49861344      -0.24200516      -0.45285166       0.53981273
O        1.12611214       1.82204806       4.57557195       0.96203625      -1.20757939      -1.68916815
O        8.80328245       8.82774412      15.28570166      -2.55613860       1.99840363      -1.00273658
O        3.41661579       4.29499874      11.24155980      -1.19134036       0.62432055       1.57045732
O        6.27222664       6.00407648      22.19981886      -2.52514647       1.90507774      -0.03731676
O        7.38417963       6.18458318      15.85928234      -1.26863138      -1.23657672       0.04344261
O        4.51210293       4.14833465      18.81900979       2.45169173      -2.76982065       0.80746498
O        8.92311378       3.48273650      12.14142708       0.54253303      -0.23928164       0.03481752
O        6.89461400       1.26783500       8.15085578       1.49208734      -3.00692175       0.12493721
O        1.80380277       7.01011566      15.29940806      -2.89860564       0.66921587      -0.98433303
O        4.15694261       9.03734120      19.14123844      -0.61885079       3.68374020      -0.16899811
O        8.52117167       3.79036411      15.41780191       0.63478279      -1.06378470      -1.35375897
O        6.57896006       2.06981826      18.68083840      -3.80999590       3.40351919       1.71738113
O        1.89854638       6.36455611      12.05546819      -0.06973619       1.23567180      -0.20932261
O        4.59794415       8.12292404      22.05191819      -3.01377602       1.26678975       1.44690393
O        7.90069017       5.75287134      13.28636303       1.55430586      -1.31645537       1.20592025
O        5.32011724       2.80208543       7.21449872      -1.14628147       1.59451461      -1.36422813
O        2.57347576       4.83459936      13.95763382      -0.74221851      -2.48150191      -2.50897530
O        5.92440690       7.13559804      19.97134635      -0.60088888       1.23092803       0.07931661
O        0.72970299       2.28367813       7.01915578       0.02050261       1.46899681       1.57793745
O        7.52604509       9.41786944      13.01416300      -0.74833505      -0.15247664       2.05106692
O        9.84012330       7.92989649      20.20699372       1.05227514      -0.91115442       1.02280587
O        2.99956958       0.60575424      14.14196318       0.56060835       0.10923621       0.14958377
80
Lattice="9.77192453 0.01751879 6.90363604 0.24348012 9.76890588 6.90363604 0.01370155 0.0133883 13.86910312" Properties=species:S:1:pos:R:3:forces:R:3 energy=-576.27868847 source_file=vasprun.xml step_index=260 time_fs=68520.0 time_ps=68.52 file_index=34 pbc="T T T"
Na       8.30229055       4.60344375      18.62448243      -0.09268352       0.28113958      -0.13708621
Na       8.42224734       1.46496782      10.24446288       0.32521398       0.00155457       0.10614569
Na       3.63244182       4.71784145       8.04035109       0.11286544       0.11365019       0.05831470
Na       4.19296518       8.17267535      12.89997109       0.02902670      -0.54415245       0.62376300
Na       2.56238145       2.44313095      16.25299937       0.34817312       0.66092245      -0.56391286
Na       6.35954636       0.94593211      13.37899483      -0.26543726      -0.01110109       0.43366982
Na       1.24983138       8.90642713      16.80868506       0.65809729       0.36221774       0.07513358
Na       9.65606341       7.94312671      12.79677317      -0.32299262      -0.16239707       0.59975652
Al       6.80966608       5.44292521       9.42901436       0.63667447      -1.35561515       0.01403923
Al       4.59050752       2.66359935      11.42900011      -1.10838724      -0.19230700       1.34194215
Al       3.13613807       4.41049863      18.66891952       0.05641638       1.58504404      -1.83037647
Al       5.37916407       7.16931743      16.13746090       0.23301713      -1.31350460      -1.26322147
Al       0.44158269       2.35679319      11.70757609      -1.35335201      -5.50888377      -1.38296990
Al       7.96424926       9.50107906      22.83695050       0.50206491      -0.73444673      -0.19660257
Al       9.58804484       7.60685408      16.06791723      -2.71453043      -2.30350157       0.36316396
Al       1.95612015       0.34028729       4.74878327      -0.67362467      -0.80013954      -1.21418320
Si       2.77654589       5.65263446      15.54874739      -1.49327430       1.15387816      -2.07470591
Si       4.32409977       7.31017079      19.17244058      -1.55896750       0.25937867      -1.00178461
Si       7.31224923       4.08342106      12.28750231      -3.35855290       0.86029958       0.69923252
Si       5.51498063       2.46778474       8.56174098       4.08396032       0.77900163      -3.62881369
Si       0.99889069       7.07033774      12.22622129      -1.69525160       1.45724699      -2.71670781
Si       2.26693271       9.14926376       8.60207429       1.03206475       1.60515202      -1.48578085
Si       9.08811992       2.59312943      15.67907644      -2.72749772      -1.63771173      -0.27223970
Si       7.48572335       0.77602982      19.02532698      -0.49783882       1.32310320      -0.67099249
Si       0.53435040       2.97720837       5.87764887      -2.76054664      -0.07057243       2.06447570
Si       7.23749953       9.43631589      14.98954671       0.60550870       1.22805116       2.24738896
Si       9.51967393       6.82961520      21.88717217      -0.42505024      -1.33183016       0.19236170
Si       2.56236964       0.20436993      12.66137543       2.67171217       3.83755862      -0.35585381
Si       7.59695973       5.19215735      15.15622941      -1.23404335       1.25547933       0.74597400
Si       4.50978636       1.85651994       5.51612634      -0.05718286      -0.93999080       2.46146535
Si       2.26917749       4.44916151      12.76400987       2.62911404       1.30825995       2.56683228
Si       5.15609941       7.92043174      21.99216404       1.30413330       0.24504480       2.89609479
O        8.28309742       5.87937686      22.45706121       2.15992045       1.33918141      -0.86469008
O        3.79229733       1.32285403      12.25091588      -0.10729771      -2.06362588       0.50794008
O        1.76074377       3.97175014       5.76319533      -0.14914070       0.76735601      -0.21753527
O        5.95830629       8.44663776      15.11650514       0.71452156       1.60804969      -0.51685160
O        0.88853531       3.79628914      12.28549523       0.78245000       2.57287804       1.15935163
O        6.32054792       9.03946584      22.38340642      -0.74018063       0.04653825      -0.84227682
O        8.76622861       6.24809976      14.83643519       1.77807003       2.10218157       0.58632029
O        3.53270146       0.58489797       5.47185546      -0.98198832      -1.69493468      -0.58517752
O        3.78949261       5.75826760      19.66452753       0.72244973       1.80320437      -0.79322618
O        3.93135688       6.75503728      15.20070753      -0.63959373      -0.41537162      -0.04393126
O        6.39001685       3.88520857       8.54483519      -0.81426165       0.02209102       0.14801391
O        6.24703726       2.78382142      12.02212820       1.15843288       0.51038674      -0.35552733
O        0.99738391       8.31453429       8.23854178       0.39827180      -1.33890706      -1.95745746
O        1.64712463       8.55704471      12.20778427       0.42427194       0.16460163       0.18745647
O        8.59158452       2.10473197      19.34103025      -1.72459557      -2.26441484      -1.08845164
O        8.16566440       1.24362284      15.13361579       0.29596439       0.97742003       0.90985874
O        2.98394977       4.91292059      16.90830438      -0.03384598      -1.14249341       3.50458291
O        5.00498776       7.46107658      17.74277160       0.02530894      -0.09558529       1.91508787
O        7.16253224       5.32140835      11.23530532      -0.58770300      -0.45523435      -1.13448968
O        4.51373504       2.61893745       9.69064612      -3.05164910      -0.15946766       3.08862865
O        0.26566858       6.82001376      10.71467498       0.24453301       0.38810076       0.46112741
O        1.58117911       0.46966844       2.81479850       1.62353543      -0.51464521       2.79251568
O        0.26565760       2.18539052       9.97891110       0.09559561       0.21609165       0.56689546
O        7.79621285       9.47331878      24.60288015       1.36913201       1.71604668       2.10677449
O        9.43668187       8.37878176      22.30774438      -2.34631769       1.89114009       0.99904385
O        1.29891417       0.74560964      11.85684894      -1.87764275       0.48451542       0.00372488
O        0.84119178       1.56945752       5.09958971      -1.31048646       1.73686046       1.02701545
O        8.52832875       9.05693154      15.98523652      -1.60529767      -0.14489308      -0.32207375
O        3.65358450       3.94665284      12.16298787      -0.34880588       0.25901898      -1.10877874
O        5.56719019       6.56158523       8.96959120      -1.22795005       0.45538544      -1.02283751
O        6.56933060       5.89918750      16.23681140       0.30145193      -0.51508560      -0.64819749
O        3.90140593       2.88767629      18.35867482      -0.21853870       1.58598367      -0.46049760
O        8.76774242       3.47455780      12.16126891       3.43880207      -1.31381089      -0.08707724
O        6.77572416       1.34957885       8.71824996      -1.20931782      -2.18611839      -1.24237962
O        1.27895064       6.47302102      15.51705888       0.68733219      -0.52265065       0.55769223
O        3.07002528       8.53811209      18.86249101       0.20198428      -2.65976587       1.35173820
O        8.11814677       3.89473798      15.95242357       0.46980895      -1.52525439       2.03092900
O        5.96064505       1.51632585      18.86257225       3.52907642      -1.06552636      -0.24718795
O        2.19644441       6.09276726      12.56698442       1.28997321      -1.14443395      -0.45814487
O        3.53038365       8.09793236       8.66855286       1.46898838       0.48289633      -0.02766826
O        6.84327766       4.59437161      13.83345618       0.71613462      -0.13647090      -1.57952337
O        4.56206289       2.16146889       7.18168430       0.76763006       1.00373412      -0.23123216
O        2.57796806       4.39397367      14.48220058      -0.70471667      -0.39870022      -1.39546507
O        5.21297047       8.02024658      20.35806016      -0.38611994      -0.84723732      -0.15664027
O        0.13815911       3.10342961       7.56600332       2.94244627      -0.12931693      -4.78020950
O        7.67081346       9.50947815      13.40091616       0.42936565       0.46449629      -0.74416243
O        9.61156188       6.76478143      20.21183035      -1.14399021      -0.16460351       0.84639961
O        2.37391399       0.45753105      14.30391098       0.29332652      -1.10230319      -0.53236976
80
Lattice="9.77192453 0.01751879 6.90363604 0.24348012 9.76890588 6.90363604 0.01370155 0.0133883 13.86910312" Properties=species:S:1:pos:R:3:forces:R:3 energy=-576.134135 source_file=vasprun.xml step_index=400 time_fs=36800.0 time_ps=36.8 file_index=18 pbc="T T T"
Na       9.43819563       1.07060469       9.72265934      -0.70433647       0.05043201      -0.32347556
Na       6.15747647       4.11147953      17.68686699       0.51074046       0.19421432      -0.88404060
Na       4.21135826       5.56779230       9.69887039      -0.11778106      -0.04843818       0.26067911
Na       1.05573365       8.74354224      17.20461738       0.41293024       0.22364401       0.51968102
Na       5.75047443       1.50130328      13.94486581       0.17767151      -0.49248704       0.42099713
Na       8.87041162       4.13937845      20.27453852       0.11256883      -0.62438367      -0.30071619
Na       1.39833614       5.81628046       6.56375428      -0.35252849       0.60429830       0.52119030
Na       4.36553196       8.29547586      13.15934882       0.66703968      -0.06342286       0.14576016
Al       7.31827164       5.20550022       8.98422030       1.52935192      -1.02519882      -0.67770622
Al       4.86255673       2.83701940      11.46179327      -0.82919997      -0.51039128      -0.16603943
Al       2.82948850       4.74059061      17.96743972       5.01915302       1.29429492      -0.68059671
Al       5.43731049       6.88013170      15.67700830       0.58540473      -1.94312254      -1.52110638
Al       0.37621397       2.05492162      11.28203586       1.09059433      -0.88393333      -0.08084040
Al       8.23109675       9.53080662      22.66214989      -2.68892467       0.01578255       1.10478376
Al       9.83089013       7.85754201      15.89126184       0.97087713      -2.78835398      -2.94293013
Al       2.24071853       0.15870969       4.72673434      -0.25701238       1.26675917      -2.44325317
Si       2.88141081       5.62788819      14.95410772      -0.80992324      -1.31263137      -0.44002154
Si       4.28253540       7.41448487      18.69463001      -1.87877169       2.55703558       2.80032637
Si       7.61029797       4.11016015      12.05351351       0.88177885      -0.04130547      -1.29354332
Si       5.78564540       2.54428112       8.38847964       3.80344172      -2.54807994      -1.23627070
Si       1.15157091       7.38373407      11.76209665      -2.21720190      -0.25051308       0.73023780
Si       2.99442192       8.80371250       8.56944582       0.13993391      -0.18029750      -2.37015017
Si       9.24327405       2.40248589      15.10537726       1.16898781      -2.74783451       1.30754021
Si       7.32913686       0.97633541      18.78026510       0.66597272      -3.38225283      -1.73626558
Si       0.68459942       2.92791448       5.29401906      -4.08677657      -1.87890051      -1.39100378
Si       7.23560174       9.33066908      14.67551164       1.72914136       0.88149682      -1.23550693
Si       9.83747771       7.01756597      21.57727558       0.52956608      -2.99894571       2.75517061
Si       2.91618343       0.31431658      12.52414287      -2.54992836       0.56704305       2.11282095
Si       8.09786240       5.09530986      14.91402369      -1.07399628       3.82205426       1.28323081
Si       4.59089418       2.28465187       5.43473013       1.53004642      -0.04455584       0.04136671
Si       2.25505200       4.61774957      12.13038725       2.68729257      -1.08266044      -1.72827997
Si       5.58331371       7.62714072      21.65792838       0.75928888       0.52355485       3.77005126
O        8.91470849       5.65187525      21.76765651      -1.52463445       0.22472790       2.12081314
O        4.12274541       1.33898300      12.25382365       0.94972588       1.38511921      -0.96010755
O        1.34753625       4.23240632       4.63105296      -1.21491928      -0.06857032       1.61558216
O        6.09101804       8.21245856      14.75013059      -0.16076692      -0.30540538       0.78816708
O        1.06162508       3.64514003      11.69000499      -0.69086656      -0.75112825      -0.09354665
O        6.59919244       8.78450443      22.29290685      -0.46186927      -0.35639378      -1.89060471
O        9.10543393       6.34036726      15.26223146       0.58833296      -0.83974256       0.52537265
O        3.65483820       0.92713250       5.36847650       0.81674671       1.11805998       1.13747872
O        3.25321708       6.27453128      19.13586494      -0.86577126      -2.84903301      -1.37249052
O        4.12896039       6.43331877      14.44715307       2.16609833       1.75747152      -0.03114983
O        7.07594028       3.45842302       8.57603852       1.55214176       2.34841723      -0.68541835
O        6.31016957       3.14502474      12.49439485       0.60009571       0.83974098      -0.84519329
O        1.72638251       7.87481449       8.25043745      -2.50423924      -0.53718854       0.05313259
O        2.29703442       8.31969924      12.42263655      -0.29384502       2.07511404      -0.55024274
O        8.45394728       2.08722482      18.61270234       2.11512067       1.74696948       1.72108278
O        8.16478969       1.21523623      14.68769962       0.28756235      -0.09212759       0.27238665
O        3.47207463       4.85892074      16.26490254      -1.90768549      -0.16554093       1.39705601
O        4.89109165       7.31806302      17.26147356       1.59481464      -0.52063546      -0.66044406
O        7.31332492       5.10035566      10.75207769      -0.03825028      -0.27480356       0.88854332
O        4.95025303       2.67985474       9.67045758      -2.35887575       0.08630353       3.06798045
O        9.89262475       8.14060946      17.53920793       2.02987665      -0.82601269       3.59144672
O        2.84626047       9.59388351       9.90771400      -0.36517503       1.06083312       2.13103826
O        0.31877349       1.70662944       9.49745557      -0.03058921       0.65803217      -0.60695632
O        7.92503580       9.71404790      24.41903885       0.14684204       0.73560233      -0.09729782
O        9.30459717       8.16231245      22.58607963       0.97898499       0.46391726      -1.07595265
O        1.30245666       0.73449920      12.23885876       0.47440746       1.45552730      -1.17161739
O        1.04629934       1.57369018       4.38383418       1.60540630      -0.57340825       2.56134326
O        8.76026534       8.93236321      15.20597343      -2.47919071       2.48534102      -0.59993202
O        3.86561341       4.26275350      11.65815771      -2.17036304       0.28408565      -0.21357701
O        6.01191833       6.12759890      22.16681934       0.64690315      -0.20957792      -0.48574566
O        6.59518087       5.39230039      15.67813867       0.39401555       0.89502115      -0.80301916
O        4.19371293       3.67123618      18.51428395      -1.33345686      -0.83954602       0.61499229
O        8.85507025       3.05205025      11.63939996      -0.35188112       0.49031076       0.47890991
O        6.61968173       1.02958812       8.30820165      -1.31364622       1.05850410       1.47127286
O        1.65484410       6.65628763      15.27589685      -1.69738874       0.75585805       0.12297105
O        3.16027658       8.72314822      18.53001860       1.63025477      -0.89538699       0.07676408
O        8.48054182       3.71120639      15.62693944      -0.04359455      -0.42241258       0.48427153
O        6.09626638       1.98344714      18.55647790      -2.93074698       0.35662409       0.16523954
O        1.98578905       6.03156117      11.29187511      -0.67732154       0.59777936       0.25512045
O        4.13306827       7.61165507       8.69092651       0.95708432       0.97235798      -0.51043257
O        8.35492290       5.04819281      13.27859835      -1.94996708      -1.16685595      -0.64373135
O        5.14921757       2.80300954       6.93855623      -2.03549263      -0.48043430      -1.24094280
O        2.34877523       4.59908809      13.72136765      -0.31079352       0.96020967       2.25307281
O        5.14783165       7.83793235      20.15057967      -0.18166174      -0.51253389      -3.97653635
O        0.46227510       2.87008573       6.95537156       1.30459900      -0.14252044      -0.81719274
O        7.29507885       9.68108380      13.05473383       0.42397176       0.41232430      -0.82241970
O        9.89513291       6.98106008      20.00041587       1.16024911       1.25455741      -3.69331709
O        3.04979175       0.11639384      14.23649852       0.07032036      -0.81791057      -0.25509067
80
Lattice="9.77192453 0.01751879 6.90363604 0.24348012 9.76890588 6.90363604 0.01370155 0.0133883 13.86910312" Properties=species:S:1:pos:R:3:forces:R:3 energy=-575.08607223 source_file=vasprun.xml step_index=690 time_fs=57380.0 time_ps=57.38 file_index=28 pbc="T T T"
Na       7.12036089       8.09024757      18.65459801       0.51985620       0.05858568      -0.39012936
Na       8.31431740       3.97176566      20.01221849      -1.09972599       0.00789577       0.65871672
Na       1.07600356       5.84295658       6.87170449      -0.03193753      -0.18579556      -0.38537127
Na       5.68143282       8.69088930      12.66047470      -0.84437333      -0.66221844      -0.43201711
Na       1.57538728       2.18669082      16.27787397      -0.11023843       0.22451244      -0.38528974
Na       5.52293938       1.57572539      14.39446551       0.17607884       0.16211924      -0.30809518
Na       2.40440730       1.20572555       8.67689233       0.51081783       0.20101940       0.15896433
Na       4.57888106       5.90079396      10.44389459      -0.73267928      -0.73810332       0.84058180
Al       6.97131445       5.13100641       8.94181973       1.39208877       0.65798257       1.36162266
Al       4.33798563       2.72197772      11.43104378       0.70990060       2.09788943      -0.17439962
Al       2.81382789       4.27687849      18.29287842      -0.48317631       1.68054489       1.70583523
Al       5.20202130       6.80903318      15.61143690       0.80754233       0.15951458      -0.27164402
Al       0.44398203       1.92933691      11.28614112       2.36386132       1.49811500       1.69178009
Al       7.90342399       9.38449451      22.89868857      -1.64454391      -0.60003944      -0.15610857
Al       9.44225959       7.47988880      16.07620617       0.11447218       1.06465496      -2.71118205
Al       2.17495950       0.05307071       4.38813729      -0.63174975       0.73721987       2.39761908
Si       2.47430309       5.37131805      15.40249970      -0.65245461       2.35976578      -1.47623223
Si       4.36604434       7.05421499      18.82345465      -1.39483675       0.44628113      -2.47342976
Si       7.30810008       4.05759226      11.99396152      -0.55306621       1.51583025      -0.69247432
Si       5.58582543       2.42723205       8.46735660       0.18736037       1.91639312       0.59413155
Si       0.50078191       7.26541714      12.18622422       2.94751610       1.55150359       0.82630756
Si       2.48515274       8.77069916       8.23676334      -0.50653600       0.64212472       0.53803065
Si       9.33386286       2.25281724      15.33184766      -4.17335959       3.36991975      -1.81144403
Si       7.35368125       0.78922738      18.93966898       0.60131314      -2.59476759       1.16681479
Si       0.34707714       2.79398986       5.45274627      -0.07309673       1.38604832      -0.02266681
Si       7.04826658       9.41585678      14.99229868       1.30851901      -1.81474153      -0.49617881
Si       9.36014408       6.63979508      21.95858171      -1.22933149       1.04489401      -1.00447065
Si       2.99795118       0.31989345      12.44207968      -2.08355867      -0.82780183       0.31574358
Si       7.85659215       5.03495027      14.94644373      -5.63945123      -1.20615623      -2.94799915
Si       4.48325382       1.97169721       5.70392058       2.85071757      -5.11012150       3.14813901
Si       1.76964030       4.46856829      12.53790337       2.59203794       0.70500535      -0.72979429
Si       5.39687035       7.73701941      21.62695205       2.21840988      -1.29148832      -1.10447654
O        8.56793664       5.23848911      22.11817636      -0.08214431       0.71382467      -1.20114089
O        4.25439711       1.33486540      12.45123174       0.28632684      -1.31366428       1.02616243
O        1.09135141       4.21700525       5.00080194       0.48135303      -1.05899795       1.34620411
O        5.73944243       8.43059777      14.92964190       0.14544154      -0.24353458       0.00150997
O        0.41030573       3.52449170      12.35291740       2.51437336       0.12025416      -1.15566818
O        6.38269205       9.09873304      21.73153842      -0.74157969      -1.01009723       1.00478108
O        8.80917080       6.17220440      15.18098428       3.68332587       2.97354431       0.75124442
O        3.74877304       0.56609846       5.19392948       0.24233463      -0.74655146       0.63603582
O        3.49267145       5.73444055      19.13409109      -0.69621381      -0.10890125      -0.58658083
O        3.56366106       6.61690906      15.06630920      -1.00220892      -2.34778016       0.65514986
O        6.41756008       3.81530902       8.08728970      -1.41696968      -3.81264756      -0.94307597
O        5.76250021       3.51484140      12.18178942       1.03617608      -0.65645639       0.40067079
O        1.40249177       7.51453246       8.45756537      -0.54666457       2.35647493      -0.38485180
O        1.57576642       8.54225420      12.20475908      -0.50279782       1.12894533      -0.77043481
O        8.72727192       1.54742298      18.80386169      -0.64124508      -0.42629821       0.48396111
O        8.39993948       0.97763227      15.18470170      -0.87413870      -0.58376780      -0.09462419
O        2.43976268       4.30873806      16.62749072       1.21084669       0.39056983      -0.75961683
O        5.12130096       7.01283508      17.33123425      -0.40349478       0.54365921       2.60389228
O        7.22148371       5.00373482      10.64241104      -0.40659931      -0.30095287       0.87363675
O        4.63721518       2.55110863       9.73300840      -0.51655154       0.09474110       1.71814095
O        9.70186324       7.06550601      17.63208617      -1.69045571      -0.20429948       2.11278828
O        2.75094578       9.75730580       9.55232711      -0.96558270      -0.58287880       0.41100010
O        0.49177273       2.13400813       9.62164150       2.31458424      -0.05528865       1.52983536
O        7.34444878       9.48272992      24.64207775      -0.03930130       0.60972169      -1.08475429
O        8.70730530       7.92823549      22.64658766       0.66680532      -0.72843752       1.11836812
O        2.02056561       1.06495250      11.29165101      -0.15002464      -1.03686836       1.62802558
O        1.11883764       1.55548835       4.77408525       0.40811362      -0.84167425      -0.89209507
O        8.24384108       8.77378616      15.90916531       0.18307356       0.24973929       0.06276053
O        3.08796929       3.99227465      11.48003749      -2.09898443       0.52349517       1.71146347
O        5.77664144       6.38022140       8.77102569      -0.73899559       3.26625070      -2.12377024
O        6.27648407       5.45598256      15.25089441       0.42235463       0.02981370       0.72782460
O        3.89696567       3.00702733       4.84028314      -2.25836105       4.87784663      -3.21765320
O        8.56631028       2.98676729      11.75054076       0.18903230      -0.96323188       1.01615818
O        6.45627542       1.08771959       8.70791952       0.57498381       0.43621841      -0.29910077
O        1.04786619       6.23796293      15.45593232       2.23664531       0.13147155       0.57575163
O        3.48140301       8.48666010      19.09105183       0.18477973      -0.10536424      -1.26640359
O        8.29577408       3.65897975      15.59518847       0.99098961      -3.06045513       0.35723903
O        6.21029206       1.86381108      19.19892379      -2.87460106       1.16337079       0.77479904
O        1.69946214       6.17441509      12.27440741       0.05969759      -4.24030491       0.80318193
O        3.81572033       7.94557498      21.77686446       1.36348148      -0.82241691       0.60551410
O        7.77204327       5.02430704      13.25241239       0.34826749      -1.19713479      -0.15091384
O        4.35682054       2.22363476       7.42894493      -0.54666222      -1.16068683      -4.42956395
O        2.26055381       4.33597128      14.15356513      -0.13377789      -0.71557182      -1.73473369
O        5.51914696       7.27468625      19.89286774       2.06171465       0.32729934       3.89325190
O        0.48372352       2.70855673       7.19551307       0.27030700      -0.37034706      -2.90512778
O        7.58114825       9.53118218      13.38150353      -0.16491847       0.97613985      -0.06263667
O        9.18586913       7.26771190      20.34353583       0.69366703      -0.96643704      -1.07764274
O        2.29845957       0.21090971      14.02867106      -0.49774941       0.29296394      -1.10555731
80
Lattice="9.77192453 0.01751879 6.90363604 0.24348012 9.76890588 6.90363604 0.01370155 0.0133883 13.86910312" Properties=species:S:1:pos:R:3:forces:R:3 energy=-575.90633909 source_file=vasprun.xml step_index=485 time_fs=28970.0 time_ps=28.97 file_index=14 pbc="T T T"
Na       5.81840282       2.68140112      14.18879275      -0.14958168      -0.73718925       0.90147742
Na       5.86450661       4.54622753      19.73643043       0.39852463       0.43312681       0.16963047
Na       1.81247989       5.79665464       7.06072817      -0.23548203       0.38778196       0.38144002
Na       1.65096772       9.64114907      16.38008046       0.22948226       0.04504323       0.33748508
Na       7.67331660       8.75164633      19.28683890      -0.00118100      -0.28632443       0.02311676
Na       1.32623801       2.35956613      15.65831362       0.11895657       0.32941129       0.12138290
Na       8.10535594       7.53281420      11.56849515       0.08572232      -0.42438123       0.69310846
Na       3.65784071       8.30353162      13.32183891       0.62216013      -0.82205462       0.55469775
Al       7.33577922       5.42189200       9.10137893      -2.66721984      -1.34315945      -0.69758834
Al       4.71690405       2.80355593      11.26321629       1.06595214      -0.70470947       2.15712363
Al       2.81649094       4.44855360      18.36925981       0.74952746       0.69528950      -1.62587356
Al       5.39790607       6.77980396      15.98284905       0.85774319       0.55803321      -1.24170547
Al       0.44441774       2.22708044      11.15895332      -0.12418319      -1.35845322       0.55837057
Al       7.99449291       9.56869166      22.82998655       0.38015890      -2.00720738      -1.36815386
Al       9.51142270       7.96060219      15.92113938       2.69110915      -2.21685156      -0.23856939
Al       2.33140658       0.31873436       4.50776158      -2.42892862       0.36860458      -1.05734003
Si       2.64973065       5.41166016      15.16367068      -2.80292086      -0.61644719       2.79804543
Si       4.36399722       7.25276877      18.97344287      -0.41971168       1.31656714      -0.80693647
Si       7.51233718       4.33834017      12.00802080      -1.15813772      -1.06994747       1.27548412
Si       5.82847937       2.58515810       8.28145548       0.47437194       0.54446191      -0.94320030
Si       0.80742928       7.35726872      11.94941174       1.47999024      -0.74109755       2.05073470
Si       2.83913430       9.04110816       8.39458781       1.30068381      -2.42535524      -0.40701775
Si       9.00788948       2.40442128      15.24904072       2.29016026       1.67920227      -0.96721676
Si       7.45626057       0.71908753      18.83495117       2.76046830       0.65174638       1.63045381
Si       0.27881746       2.80536257       5.42210467       3.46019630      -0.51364391      -0.88996179
Si       6.99496489       9.31943440      14.73331306       2.97798540      -0.97580102      -0.09928312
Si       9.81240190       7.16169330      21.91832889      -0.62546407      -2.16655900      -1.50650817
Si       3.20264684       0.37440888      12.44650614      -3.35068584       2.43942711       1.33237357
Si       8.11313378       5.42495270      14.98273566       1.79329799      -0.22788419       2.45084256
Si       4.57661822       1.93901890       5.55367951       2.01156845      -0.22268226       1.51916572
Si       2.16155677       4.35230899      12.27331557      -2.18654715       3.60326246       1.09931950
Si       5.55729807       7.58353254      21.60798493      -1.03929397       1.41980393       1.65489983
O        8.84915202       5.84513828      22.36873244       2.29223076       2.54029566      -0.98462484
O        4.55140757       1.11555071      12.10242916       1.15033309       2.36046672      -0.53530720
O        1.34697661       4.17078831       5.29754547      -2.66732746      -1.71087964       1.29760664
O        5.84467235       8.16284714      14.91639312       0.04108615       1.51784823      -0.10309136
O        0.79252052       3.83719172      11.61367226       0.52407625      -0.91736428       0.30573447
O        6.63615714       8.82640294      21.96479475      -0.92289142      -0.63048841      -1.10954777
O        9.18010982       6.64231690      14.73739781       0.32867545      -0.48933128       1.12554877
O        3.67707212       0.55839992       5.56152148       1.40406880       1.24071057       0.97078089
O        3.55785017       5.92759286      19.33579536      -1.65820197      -2.16388807      -1.17262453
O        4.08051642       6.02959854      15.08691442       1.91346741       0.76858785      -0.24114459
O        6.84371379       3.86376437       8.12238825       0.37863900       0.36208511       1.39064223
O        6.12219066       3.46839778      12.31745602       0.18922362       0.73849909      -1.96277190
O        1.44151344       8.23140331       8.41142593      -0.80080174       1.03672012       0.04380734
O        1.92102987       8.58528586      11.98753901      -0.87582020      -0.81286833       0.47346967
O        8.77552432       1.77141032      18.93200377      -1.88858055      -1.73820230       0.00190454
O        7.91553797       1.24917479      15.04354690      -1.60512537       1.54682778      -0.86549283
O        2.26916700       4.68042899      16.62458988       1.61821997      -0.77602058       0.45740571
O        5.16435880       7.25281269      17.60542882       0.14283503      -0.45847662      -1.10125061
O        7.42909021       5.52339609      10.89026432       0.13501217      -1.14914664       0.33376121
O        5.10289231       2.41143281       9.68135713      -0.24980817       0.24148620      -0.37943715
O        9.64853397       7.35109087      17.59631031      -1.30176193       0.80897871      -1.65359791
O        2.94156169       0.01941264       2.88113174      -0.33954281       0.69427193       0.01603696
O        0.21143419       1.79399396       9.43743008       1.53283471      -0.43699245       2.30637412
O        7.90139851       9.43358239      24.51496925      -0.67580509       0.92385953       0.30056317
O        9.58994549       8.58548227      22.64129949      -1.27108939       0.29214755       0.04254958
O        1.81999433       1.18384567      11.74021209       1.88195911      -1.27832366       0.64744839
O        0.88511573       1.45763701       4.61607805       0.90562277       0.98629192      -0.22652257
O        8.40649677       9.16446850      15.72647132      -3.70483589       1.46429022      -1.26249183
O        3.52990960       4.02437162      11.55886670       0.19153842      -0.44485200      -0.03241339
O        5.89572676       6.43348177       8.76869683       1.33126117      -1.69400684       0.55172617
O        6.87488237       5.89748626      15.84567834      -0.58808871      -0.76057748       0.42325486
O        3.92256977       3.06399261      18.55139133      -0.95657120       1.92922425      -1.85654033
O        8.61136000       3.12592676      11.67038229      -0.68685872       1.12838087      -0.25031167
O        6.46245761       1.11069501       7.91761695      -1.09148095       1.68015361       0.64514136
O        1.60294362       6.71317693      15.38341078      -0.25624234       0.67051165      -1.57202700
O        3.43910875       8.66718981      18.77217917       0.24950935      -2.97917613       0.24120033
O        8.67129543       3.96251091      15.78107612      -0.77853776       0.09443957      -1.62816876
O        6.17710092       1.68615485      18.78876214      -3.00322317       0.78947052       0.54866924
O        1.67973025       5.99894442      12.15968393       1.71109428      -0.42358782       0.34051311
O        3.85042380       7.73218714      21.76452514       1.39457607       0.93248742       0.62396008
O        7.91657656       4.98362528      13.49918237      -1.20059702      -1.45271485      -4.12703556
O        4.76790454       2.92536750       7.01138182      -0.20579600      -2.43993505      -1.03243388
O        2.31917407       4.27195209      14.04038878      -0.18524862      -0.60253461      -1.84654305
O        5.63509292       7.13382315      20.01008994       1.19079740       1.07105065       0.77801207
O        0.26944456       2.37503198       6.98470105      -1.54324443       0.59485379       0.98964698
O        7.50328905       9.34323665      13.10263244      -0.01197016      -0.52412197       0.12080828
O        9.53269330       7.39184133      20.21172395       0.65441902       0.44725397       0.93357064
O        3.15885942       0.29906689      14.18282897      -1.26868071       1.44153155      -1.82627151
80
Lattice="9.77192453 0.01751879 6.90363604 0.24348012 9.76890588 6.90363604 0.01370155 0.0133883 13.86910312" Properties=species:S:1:pos:R:3:forces:R:3 energy=-574.84542479 source_file=vasprun.xml step_index=435 time_fs=70870.0 time_ps=70.87 file_index=35 pbc="T T T"
Na       8.20283160       3.64998815      20.26187062      -0.30184365       1.20491367       0.99263561
Na       7.72373235       1.27529608      11.26988979       0.04988602      -0.38624344      -0.51721650
Na       9.55237714       5.23678643      17.41266860      -0.01195027      -0.37979954      -0.00316235
Na       5.15388511       8.10389624      12.88500557      -0.42677570       0.36456041       0.13445715
Na       2.38731532       2.47872716      15.75031583       0.06225431       0.31324673       0.06180838
Na       5.84099359       1.04675942      14.11712988      -0.29431161       0.28611085      -0.33427914
Na       0.56567059       8.87982526      17.54514936       0.53133130      -0.08587765       0.01751904
Na       1.31389552       6.57465744       6.59935149       0.30259278      -0.95962624      -0.30361284
Al       7.02573215       5.23788816       8.97627249       1.73455985      -1.03372550       1.06999465
Al       4.49196353       2.72192572      11.47833239       3.74438046      -1.89252617       1.36331854
Al       3.10143805       4.70702116      18.56049817      -0.47042949      -1.16130036       0.33636312
Al       5.45320417       7.11471700      16.05988468      -0.40676816       1.11341182       0.21058697
Al       0.36538686       2.09305114      11.64370923      -2.54824888       2.22606852      -0.99042184
Al       7.69931271       9.59625557      23.12126303      -0.27027095      -2.16075854      -0.04516799
Al       9.64869340       7.98899967      15.72450864      -0.96819076      -1.35525653       0.97235308
Al       2.02734609       0.24772965       4.59344880       2.38997616      -1.27808132      -1.56855983
Si       2.41811295       5.85872051      15.45831575       0.83486972      -4.30037972       0.82413811
Si       4.39167560       7.45822804      19.05429566      -0.32558977       0.12464159       3.01293189
Si       7.53642833       4.19417261      11.96918830      -3.72591387      -1.41074510      -1.88220766
Si       5.47583673       2.46760894       8.61650430      -0.38239244       0.91799671      -1.43735957
Si       1.00853395       7.34262273      11.99255152       1.64349502       0.67844312      -1.84565263
Si       2.68255154       9.16177613       8.35252712      -2.19768709      -2.08119262      -2.26370356
Si       9.14820275       2.41607940      15.48594784      -1.27752505       0.12561353       0.20689354
Si       7.45183008       0.70082993      19.10949213      -0.57138320       0.44030607       0.37202191
Si       0.48468721       2.81505813       5.54050512       1.70899980      -0.71560237       2.46545639
Si       7.34106762       9.77596898      15.14570885       0.00688008      -2.80083494       0.22829220
Si       9.36677120       6.95193485      21.73713940      -0.60955765       2.30577668      -1.60667067
Si       2.87786503       0.38116399      12.45808252      -0.03791292      -1.37254566       1.70157163
Si       7.84314749       5.38223205      14.80469172       1.85940362       0.23673921       5.52882552
Si       4.59006629       1.94156190       5.49485351      -1.79458148      -0.70160650       1.19341588
Si       2.14696847       4.51966365      12.52955226      -0.90981261       0.44627815       2.68949204
Si       5.42786293       7.86555650      21.93215315      -1.67478514       0.19559655       1.33473916
O        8.54431322       5.61293719      21.90147940      -0.72125145      -1.26699377       0.45892331
O        4.35906246       1.08234652      12.22060813      -1.99253520       0.12939413      -1.08631160
O        1.57987411       3.98158751       5.59703595       1.06031172       1.08791082      -0.60046205
O        6.22100733       8.61189677      15.23972353      -1.94092054      -1.87122108       0.06302745
O        0.69056912       3.69649473      12.33658545       0.94937233       0.26538084      -1.30302296
O        6.03175271       9.21923963      22.69033434      -0.25788978      -0.28773885      -0.44033042
O        8.99042098       6.50613422      14.77600022       1.01088648       1.34505673       0.43362463
O        3.60156534       0.63537981       5.14808904       2.24494445       2.01380517       0.76881525
O        3.67603409       6.09720442      19.55036896      -1.23396313      -1.07285165      -0.68153005
O        3.80040309       6.59569104      15.39307718       2.31988230       2.04240810      -0.94032250
O        6.63548485       3.68327982       8.22797438      -1.81950959      -1.05029287       0.81596540
O        6.21435694       2.93545165      12.05418825       2.40247949       1.73661300      -0.42284286
O        1.22072558       8.27626701       7.81449794       2.67532896       2.36740703       0.75825548
O        2.24091087       8.45203932      12.20018727      -2.56412609      -1.13916060      -0.07021019
O        8.51740459       1.86104698      19.31270591       2.27361118       0.73255874      -1.48286110
O        7.75905865       1.33106798      15.42230816       2.04173690       2.12633654       0.55984737
O        2.60886753       4.96323552      16.86347954      -0.45472164      -0.30927780       0.20481007
O        5.28900787       7.35749171      17.82858306       1.85950533      -0.41893360      -4.11377955
O        7.22968470       5.35071921      10.84235783       0.48458277      -1.56396403      -0.44150600
O        4.39766882       2.71845883       9.83928722       0.92857563       0.03819441      -3.95339240
O        9.86796572       7.39251010      17.43824797       1.59093773       0.19684978       1.37613064
O        2.27304054       0.15443913       2.77847483      -1.19250637       1.88233033       2.46258608
O        0.36291666       1.95759076       9.86741148      -1.10002282       0.22738143      -0.96226420
O        8.12678955       9.27011404      24.98649040      -0.68409292       1.07112946      -2.81732066
O        8.38555730       8.31890175      22.01914632       2.59888887      -1.18557939       1.47254031
O        1.29104132       0.85484976      12.15048600       4.27914264      -2.69303242       0.63354070
O        0.91406576       1.42458112       4.85627601      -2.01200724       1.71449819      -0.22871683
O        8.62581181       9.34503063      16.04341888       0.01651603       0.70555081      -0.14822430
O        3.53846900       3.82912340      12.17592007      -2.52123267       1.77357381       0.98745711
O        6.02385574       6.48685029      22.50167026      -2.12943092       2.24136135      -0.64047627
O        6.60327524       5.87351954      15.70645198       0.22633866      -0.91249340      -0.45726360
O        4.27739058       3.37259241      18.63483153      -0.63670566      -0.14232077       0.48882547
O        8.91225667       3.35398905      11.79096702      -1.79247797       0.32611391      -1.85270861
O        6.48677554       1.25329833       9.07404635       0.31502816       0.70891806       0.09311990
O        1.06953963       6.68972411      15.60290987      -1.95681292       2.26083031       0.02824662
O        3.12413908       8.51584902      18.77641968      -0.31832348       2.33922108       0.99835763
O        8.75032226       4.04955322      15.77443230      -1.35935190      -0.12410218      -1.23049211
O        6.08726658       1.63229003      18.82289138       2.01222822      -1.93955522      -0.32579119
O        2.06690397       6.02690394      11.89907448      -1.02275894      -0.84213816      -0.24546920
O        3.72904188       7.99090461       8.44516072       2.75595980      -1.97051930      -0.24608964
O        7.55786965       4.79995657      13.43229512      -0.91744602      -0.59834991      -2.07120418
O        4.69653509       1.87482955       7.22618072       0.58929923       1.24500312      -0.22315196
O        2.08927590       4.60782979      14.23702162       0.82935812       1.66392996       0.78866554
O        5.43660523       7.94816866      20.29316062      -0.40353274       0.42506990      -0.33167077
O        9.74381822       2.35277627      13.96376343       0.33490880      -0.01094921       0.68068926
O        7.81406115       9.64895557      13.54439207      -1.33282811       0.44689430       1.47604166
O        9.72586077       7.22064547      20.09863934      -0.18988814      -0.51081188       0.92159618
O        2.98247588       0.49701618      14.18630007      -0.90714602      -0.10166356      -1.08015174
80
Lattice="9.77192453 0.01751879 6.90363604 0.24348012 9.76890588 6.90363604 0.01370155 0.0133883 13.86910312" Properties=species:S:1:pos:R:3:forces:R:3 energy=-574.85636659 source_file=vasprun.xml step_index=835 time_fs=1670.0 time_ps=1.67 file_index=0 pbc="T T T"
Na       1.68993024       2.30003180      16.38801034       0.43199020       0.31447158      -0.33559786
Na       7.64307901       8.65903892      18.34855830      -0.25705189      -0.50074677       0.11284274
Na       9.17793783       7.53511500      12.33316378      -0.48612691       0.13537032      -0.10741171
Na       2.67639198       2.35252798       8.62469185      -0.23237500       0.11115920      -0.26492792
Na       8.79140651       3.70045702      21.08327286      -0.01906062      -0.35122338      -0.46995209
Na       5.89650711       2.57057411      14.78774977       0.13773751      -0.30559635      -0.11459585
Na       2.06887484       6.49167953       7.17562499       0.09939710      -0.44896119      -0.22520935
Na       3.76667751       8.49053461      13.88824415       0.02257056       0.31407612      -0.11513546
Al       7.01956991       5.44636408       9.05189361       4.59621023      -3.71870622       0.49457020
Al       4.60462517       2.71785462      11.41095619      -0.23848506       1.21199812       0.62239465
Al       3.05740072       4.41309376      18.51782645      -0.79296194      -0.15882212       0.36570403
Al       5.45670726       6.89716699      15.92683442       0.58883459       1.56881647       1.00158435
Al       0.15694535       1.88291031      11.68598433      -0.33942989       0.46245608       0.30277699
Al       7.58411768       9.38804605      22.91065266       0.78649040       0.96838841       1.83506538
Al       9.83983560       7.90977155      15.93432890      -2.12126808      -1.63059067       0.07810677
Al       1.95466583       0.23455275       4.77444585       3.30077875       1.91291890      -1.11435502
Si       2.36629982       5.46778464      15.62570616      -1.12813250      -0.34059453       0.39191563
Si       4.52037832       7.22757508      19.03424809      -0.67573580       0.94328917       0.63488871
Si       7.38726827       4.25562597      12.14391718       0.22505353       0.05723664      -2.16853005
Si       5.75917657       2.68403873       8.34463208      -2.01575167       3.07235811       0.22935686
Si       0.97351929       7.05289575      12.15314456      -0.78483740       5.88650933      -2.56918752
Si       2.74598757       9.09690509       8.55754588      -1.77463844      -2.17717943      -1.81466321
Si       9.20001047       2.34139374      15.38026986      -1.13925426      -1.06063505       2.83214060
Si       7.01750465       0.37048383       5.28556427       2.51537425       1.40792366      -2.69726524
Si       0.51412655       2.78222189       5.70694589       0.73868709      -0.11400999       0.62669218
Si       7.23553646       9.58073665      15.13364985      -3.90612387      -2.13748743      -0.53922919
Si       9.43027739       7.00096062      21.79397167       0.97941467      -0.73432140       1.09212704
Si       2.84939654       0.27132264      12.69423561      -1.87939216      -1.17309697       0.59756359
Si       8.21217299       5.39161964      14.85216383       0.06988684       0.48975929       0.81747926
Si       4.39470656       2.02500586       5.62523129      -2.06606883       0.04753819      -0.69676713
Si       2.10113829       4.20148829      12.83177002      -2.76824015       0.97254599       1.80590805
Si       5.39457319       7.81635539      21.84199661      -0.97966674      -0.96451048      -1.43952204
O        8.64025545       5.63281157      22.00679542      -2.24854677       0.27756094       0.30036630
O        4.03096049       1.19997032      12.14473344       0.80715340       0.58903447      -0.81485469
O        1.85170599       3.74460454       5.89667092      -0.96679428       1.58472544      -0.49414841
O        5.71523763       8.77035166      15.32438504       0.77163275      -1.85445537      -0.04979734
O        0.70242827       3.38215588      12.66276071      -0.16371547      -0.93391567      -1.19009584
O        6.06952723       9.24900533      22.07240813       0.00338121       0.28061989       0.27662179
O        9.60787902       6.26492592      14.89158525      -0.43112452       1.70719818       0.76496629
O        3.26236743       0.89790483       5.87789814      -0.79906823      -1.28945992      -0.02709327
O        3.58823580       5.92274462      19.39729330       0.38971695      -1.42515632      -1.53808154
O        3.78798408       6.23809923      15.57738824       1.55755143       0.72590578      -0.96801446
O        6.84098186       3.86274167       8.34316992      -0.51046847      -0.87080414      -1.30941831
O        6.02580936       3.33498989      12.32498271       0.71927430       0.13704219       0.63561981
O        1.11005386       8.77675309       8.03136554       2.49744915      -0.51700581       0.75635585
O        1.90378646       8.50174271      12.17876947      -0.87242815      -4.25313361       2.42409406
O        8.33692961       1.45898253      19.31140049      -0.25141893      -0.22110219      -0.84499216
O        8.09189535       1.18563897      15.74545599      -1.32541896       0.94759414      -2.04036213
O        2.13313820       4.68017693      17.00109380       1.13609545      -1.01788097       2.11604670
O        5.31085864       7.42716751      17.62002186      -0.14714164      -0.81491460       0.94648277
O        7.33768598       5.09515885      10.71253377       0.47622381      -0.71642748       2.38916549
O        4.83518510       2.96920248       9.65637077      -1.36164517      -0.92636946       1.33685293
O        0.41207141       7.32000975      10.61469544      -0.49057728      -0.86396365       0.88231927
O        2.52674036       0.03846568       3.03617648      -0.11032811       0.47689090       2.20435271
O        0.16353186       2.21696743       9.92486899       1.71690480       0.93884031       0.54504832
O        7.28486794       9.20287509      24.69071880       0.49515800       0.54908406       1.09427836
O        8.84232769       8.29026448      22.53555410       0.34449566      -0.74332167      -0.41504052
O        1.30116419       0.64240020      12.15641927       1.98007522      -0.45998825       0.35115003
O        1.22059417       1.74261996       4.65561302      -3.37997634       0.70297134      -0.69279979
O        8.31974768       8.93093242      16.12972101       0.87681259       0.01118496      -0.07687541
O        3.35905305       3.89678299      11.99873975       1.96730800      -1.43996181      -1.23900162
O        5.91957321       6.52514769       8.74329857      -2.90469835       3.38072098       0.12113395
O        7.00355258       5.90092322      15.86496454      -0.56319886       0.21517422      -1.12351344
O        4.15393440       2.99396406      18.17703819      -0.75253044       1.42998175       1.21656093
O        8.63921925       3.08739160      12.25852681       1.47944647       0.83004540      -0.20592809
O        6.51668426       1.34319241       8.55950338       2.34854822      -2.91334692      -0.27863160
O        1.04367861       6.42980303      15.66754459       0.96993829       1.85961356      -1.45108268
O        3.30687695       8.38549895      19.26367823       0.41116845       1.40197656      -0.28005085
O        8.56522919       3.81617441      15.03890773      -0.67357540      -0.54209353       0.88930777
O        5.68230148       1.24570396       5.25785716       2.55709953      -1.40563073      -0.31920361
O        1.80096892       5.81512304      12.43986277       1.88872115      -3.00192622       0.77266256
O        3.71699923       7.77391767       8.08129249      -0.86065131       0.84019615       2.16307309
O        7.75409415       5.43309977      13.28051656      -0.90443683      -0.23223425      -1.09293504
O        4.59658518       2.67315745       7.10827890       1.10142943       0.79771427       1.38407270
O        2.14952190       4.19307079      14.55282628       1.03450691       0.66984584      -1.21849503
O        5.63287234       7.39966342      20.26414904       0.06068862       0.35346318      -1.51309320
O        0.46624343       2.11599182       7.26068522       0.39393947      -0.63667715      -0.90473177
O        7.49229557       9.24466900      13.51937676       0.45703833      -0.66772584       1.21169357
O        9.60223018       7.32595059      20.18175146      -0.54402343       0.03901623      -0.01088205
O        2.91792582       0.37673919      14.42943495       0.93863362       2.96657322      -3.85013793
80
Lattice="9.77192453 0.01751879 6.90363604 0.24348012 9.76890588 6.90363604 0.01370155 0.0133883 13.86910312" Properties=species:S:1:pos:R:3:forces:R:3 energy=-574.9209469 source_file=vasprun.xml step_index=810 time_fs=19620.0 time_ps=19.62 file_index=9 pbc="T T T"
Na       7.72441068       7.53384867      18.25327869      -0.06692231       0.19117066      -0.11335287
Na       8.48196573       4.14717154      19.96920639       0.10412970      -0.22655207       0.35086376
Na       1.69533681       8.60390702      17.90371346      -0.16544732      -0.06925552      -0.18684405
Na       7.79242626       7.55423803      12.10164707      -0.02978980       0.42286771      -0.67547791
Na       1.79803173       2.56323063      15.53666824       0.12409406       0.32351430       0.41763148
Na       6.59915536       1.89322607      14.10035613      -0.26926333       0.25780081      -0.37002803
Na       3.13858763       3.90813206       9.11917900      -1.16671450       0.40523965      -0.20324403
Na       3.98649970       9.09500482      13.73982675      -0.09107308      -0.34600151       0.13454471
Al       7.78058168       5.40280510      22.88857603       0.68699844      -0.62069012       0.94718518
Al       4.79813846       2.97268654      11.45207965       0.18863608       0.59629588      -0.31791284
Al       2.95738271       4.65917964      18.36177930      -0.45877988      -0.73811215      -0.76552462
Al       5.58522535       6.98489437      15.74040706       1.35106057      -0.17330381      -1.02281276
Al       0.69704280       2.25313320      11.56263373       0.77166031      -0.18298411      -2.42169760
Al       8.36182386       9.72444271      22.64328935      -2.20032101      -1.18304283       2.97139521
Al       0.32837324       8.02122420       9.03535412      -0.19959589      -1.40197047      -1.28557292
Al       2.12694892       0.95781641       4.61009888       2.61187824      -1.93774047      -1.42417618
Si       2.79787539       5.59228740      15.47104162      -1.88407299      -4.72607242       0.79851007
Si       4.54302480       7.49508310      18.71701119       1.19395983      -1.31404733       2.37795555
Si       7.55721875       4.47615958      12.08919949      -2.66573048       1.54029528       1.07738931
Si       5.99004573       2.76930421       8.46853105       0.78291564       0.61412549      -0.85043797
Si       1.23077818       7.57814797      12.01034556      -0.43718577      -0.64697414       0.33720306
Si       3.19780684       9.46606068      22.48083433       0.91763063      -1.24411420       0.49696194
Si       9.77010320       2.73544400      15.26127108      -1.69651961      -0.30087284       1.08157883
Si       7.51884237       1.01058832      18.80553740      -2.15106502      -4.09376630      -0.58364865
Si       0.62355012       3.19584697       5.48057209      -2.19982263       0.68731687       2.34971720
Si       7.40883573       9.62626947      14.79266045      -0.25223035      -1.19511920       0.78616453
Si       0.30289478       7.16813914      14.99773067       1.46597997       1.44728154       1.72880089
Si       3.40084197       0.66137809      12.63031944       0.73738190      -1.56383508      -0.58948153
Si       8.44162853       5.70885206      14.71575684       1.80412997      -1.95527554      -0.12195485
Si       4.68469469       2.27768084       5.58132286      -0.57466206       2.87083673       0.37188133
Si       2.29065243       4.65937303      12.61108759       2.00737259       0.29433740      -1.89275146
Si       5.72050860       7.71912610      21.95172148       1.41370652       1.23395879      -0.45325430
O        9.39587405       5.78051999      22.13802859      -2.21056135      -1.08820897       0.65904175
O        4.73600913       1.42018645      12.18658830       0.16409582       0.30225912       0.62708612
O        1.58019948       4.50164513       5.49555193      -1.81326825      -1.04744427       1.10457296
O        5.94528589       8.73462214      14.97242686       0.49263519      -0.67514405       0.12777719
O        1.03334491       3.74610658      12.27402654      -2.65819338       1.14289544       0.79491512
O        6.79840575       8.98649584      22.21518564       0.03969106      -0.03130598      -1.65914025
O        9.74065377       6.61527743      14.91129354       0.30462780       0.65268427       0.57040594
O        3.55567380       1.17925734       5.73304108      -1.35202588      -1.88520664       0.01706560
O        3.50855009       6.22715637      18.50374798       1.68078201       3.87759076       1.13025939
O        4.31590083       5.79223384      15.08007066       2.41395746       2.41493732       1.26982884
O        7.20827166       3.90403198       8.33897712      -0.71970876      -1.78929550      -0.32785033
O        6.07436575       3.73566367      12.30719206       2.39793898       1.17106594       0.33381227
O        1.84366318       8.63573403       8.30583954      -1.69384746      -0.15069149       1.14640164
O        1.80625127       9.11803478      12.03771732       0.31114573      -1.06050949      -0.41806257
O        8.77684213       1.92241922      18.75794190       1.97267289       1.81077961       0.97547519
O        8.65027927       1.49234749      15.23776046      -0.52138596       0.30081911      -0.23241018
O        2.18854767       4.66522875      16.80868920       1.30416310       1.48845906      -3.53537601
O        5.58707931       7.33975554      17.46864843       0.18026590       0.17551278       0.37117221
O        7.83692518       5.24272802      10.77055207      -0.23643970       1.54251415      -3.19137225
O        4.85030174       2.89169425       9.69485683       2.67405987      -0.70228125      -1.39484902
O        9.89091120       7.26331843      17.66572572       1.93790769       1.55850491       0.43646340
O        2.90098407       0.84802947       2.82787070      -0.98647527      -0.36254392       1.84371078
O        0.80758242       2.70319783       9.77539894       0.45620679      -0.74547237      -0.00039629
O        7.84021389       9.65964147      24.48807535       0.26464909       1.52486913       0.35661439
O        9.52312260       8.47845206      22.82142050       2.26194071      -2.38964056      -1.17146888
O        1.98968210       1.09439200      12.01357098      -1.76344414       0.38858546      -0.44687683
O        0.90605292       2.08777318       4.35550916      -0.43108732       0.53749722      -0.29562690
O        8.74087385       9.06762300      15.56481148      -1.07778859       0.43770556       0.40465787
O        3.35154140       3.88706366      11.56021258      -0.71355145       1.48455993       1.25221276
O        6.42625845       6.31440647      22.46560226      -2.08328426       2.83206520      -0.72138808
O        7.09002999       6.15649063      15.37163216      -1.54080554       0.56741369       1.77858082
O        3.99931227       3.31524406      18.40480538       1.07605609       0.06070513       0.55064074
O        8.68049816       3.49314844      12.38316269       5.33405587      -4.71862311       0.44028188
O        6.95550499       1.38673185       8.45672434      -1.45489722       0.37486559      -0.26260049
O        1.97902286       6.94680698      15.30455570      -1.38718526       1.98504619       0.53811084
O        3.91358145       8.97856487      18.70636926      -1.62774190      -0.10853929      -0.08015744
O        8.90226867       4.12326651      15.18145932      -0.50156015       0.85992845      -0.27902147
O        6.13825498       1.95780799      18.86312686       2.67893560      -1.67170143      -0.52134466
O        2.40996812       6.33344813      12.19496857      -1.44199679      -0.15299980      -0.08199739
O        4.32103170       8.24179093       8.80930640       0.25607904      -0.23706209       0.12989044
O        8.07322058       5.67795371      13.11834311      -1.04602165       0.31558223       0.40870381
O        5.05257223       2.98269275       7.06650409      -0.00304803      -0.73307342       0.71355329
O        2.38921922       4.41435098      14.21612026       0.46459722       1.38713779       1.07139326
O        5.42020532       7.63471917      20.28738701      -0.54481030      -1.00567354      -1.81890499
O        0.85063667       2.39826604       7.01383706       0.63703466       1.01955914      -1.43740243
O        7.77842037       9.57174960      13.16539133      -0.52469049       2.00053974      -0.60758290
O        0.37208550       7.43524490      13.44092743      -0.79924206       0.76686210      -2.62379803
O        3.34165806       0.55138626      14.24378049       0.21344381       0.58241536      -0.91532849
80
Lattice="9.77192453 0.01751879 6.90363604 0.24348012 9.76890588 6.90363604 0.01370155 0.0133883 13.86910312" Properties=species:S:1:pos:R:3:forces:R:3 energy=-574.82612858 source_file=vasprun.xml step_index=440 time_fs=18880.0 time_ps=18.88 file_index=9 pbc="T T T"
Na       7.38594639       0.12695121      10.92428678      -0.22019013      -0.27480515       0.00708267
Na       9.03979327       4.49845831      20.06745789      -0.25034401       0.24246894       0.21801772
Na       1.22927545       8.77278644      17.31906554       0.83227485       0.15135092       0.73230752
Na       7.26153597       7.42126791      11.93372855       0.04948007      -0.07065999       0.12465225
Na       1.34432183       2.32286114      16.38862954       0.39028796       0.15777415      -0.19882879
Na       5.98187541       2.02969846      14.68127874       0.23734238      -0.32222462      -0.32603449
Na       2.03481253       6.68905286       6.43015850      -0.22713116      -0.73419118       0.07710644
Na       4.20979385       8.94812891      14.05208686      -0.70011797      -0.19327071      -0.07138925
Al       7.21993551       5.21928713       8.98831339       0.20783222       1.81226380      -1.79862560
Al       4.93771554       2.97098891      11.52349953       1.26097833      -3.09902741      -0.60666443
Al       3.55370994       4.56028884      18.51574667      -0.47171427      -1.07486013      -0.28644086
Al       5.72156484       7.19821655      15.91066286      -1.36925709      -1.00250328      -0.88805957
Al       0.76310692       2.34004805      11.53805843       0.10485289      -0.15828460      -0.42657158
Al       8.26797292       0.15504886      16.00394910      -0.62176546      -1.26257457      -2.75844603
Al       9.90071490       7.91875797      15.91844952      -1.25538458      -0.47531080      -1.26807969
Al       2.23132579       0.20241221       4.59228185       1.42135416       0.37739382       2.27934588
Si       2.81259573       5.64612483      15.56252352       2.85902459       0.82193789       1.44509252
Si       4.73395279       7.63877860      18.72617161       0.45967261       0.32733683       0.96517033
Si       7.70264428       4.07922051      12.06021943      -0.47257060      -0.16164157       0.60514290
Si       5.78926242       2.56534590       8.26260714       0.40792231       0.74544934       4.01293364
Si       1.09882478       7.40932276      12.02558918      -2.65232768       3.05721279       2.11758679
Si       2.97641037       9.09067646       8.40682049      -1.24578476      -1.20906235       0.11488172
Si       9.80758896       2.73068172      15.41406284       1.09891429       1.63674524      -1.99634827
Si       7.90910591       1.12398418      19.04706189       5.86610822      -2.21024393      -0.25286974
Si       0.92005314       3.07087257       5.65784279       5.29404953       0.32149199       1.54803641
Si       7.57098951       9.53541847      14.68421828      -2.96967753       0.61438506      -1.04361116
Si       9.92379070       6.91988623      22.04937271       0.69696876       2.28417902      -1.18634082
Si       2.97521540       0.47441086      12.39653849      -0.86033973      -0.42039429       1.72328862
Si       8.01986325       5.41612195      14.84549583       3.23512291       1.22616957      -0.32526560
Si       4.93514509       1.71613466       5.58662512      -3.08359910       1.88616584       0.73891079
Si       2.59488768       4.74021779      12.51332617      -1.38582232       1.14941915      -0.23500066
Si       5.96515567       8.12214496      21.67138383      -2.46570902       4.01950923       0.44453238
O        8.89844536       5.68893814      22.23497713      -1.17896941      -0.32113844       0.60745640
O        4.18752669       1.47885720      12.25130900       0.59224171       0.71847333      -0.69441366
O        2.04670265       4.34985948       5.45024429      -3.19465018      -0.93962391       1.16812476
O        6.30719874       8.43237969      14.81776070       0.37884678       1.29867769      -1.27003538
O        1.31266055       3.75378572      12.35018805       1.19756068       0.15484558       0.16105084
O        6.80853803       9.46486390      22.18687224       1.42352978       0.52355804      -0.28049485
O        9.21325637       6.59674516      15.00716649      -1.55881834      -0.59332499      -0.30394788
O        4.02154004       0.40914505       5.21425614       0.19952964       0.09988792       0.11412811
O        4.03904589       6.17315639      18.83583633       1.11689978       2.09978107       1.16318066
O        4.03199132       6.73699246      15.28870473       0.94759595       1.09650102       1.02996682
O        6.70317416       3.91029557       7.87847894      -0.75341195      -0.18843121       1.15474880
O        6.59606592       2.81841279      12.39031216       0.70380374       1.90962303      -0.70672423
O        1.67267725       8.01321484       8.22334911       1.73929975       1.16645216      -0.96758053
O        1.99765155       8.61854679      12.65417265       0.60558930       1.99513945      -1.88971735
O        9.01051586       2.34137370      19.28050924      -1.85835906      -1.27262419       0.27040538
O        8.65844378       1.69702186      15.22920206      -2.54259705      -3.32708838      -0.18530182
O        3.02528348       4.76343944      16.90987959       0.53185640      -1.33142068      -2.93552412
O        5.77404406       7.85807803      17.51532095      -0.23209116       0.16472682      -0.21810964
O        7.32559328       4.86345082      10.68632370      -0.18311716      -0.18265507      -0.23885029
O        4.97400484       2.59157311       9.82849599       2.09992384       0.50595124      -2.55125906
O        0.21136432       7.81618568      10.69799895       0.61901058      -0.27173661       2.86345167
O        2.57253582       9.74735896       9.81785553      -0.30492391       1.20403131      -0.52791475
O        0.82223401       2.54232795       9.83140609       0.94208222      -0.13556876       2.09152169
O        8.32672121       0.30982157      17.69250294      -0.35301619      -0.06707349       0.66886618
O        9.81086512       8.62152259      22.52479159      -1.72580820      -2.15259632      -0.42112810
O        1.45630494       0.76475892      11.86573422       0.95881066       0.37031445       0.17457565
O        1.42672064       1.80417537       4.66165788      -0.92885907       0.19462946       1.02986176
O        8.54534656       9.14777831      15.80134452       3.59708658      -0.67892224       2.26995193
O        4.05365854       4.24327692      12.08256250      -1.22104501       2.05057286      -0.15636732
O        6.44192384       6.92449386      22.46470255       2.16229673      -5.52958801       2.18881082
O        6.63899634       5.74498231      15.66507359       1.53365558      -1.28336380      -0.75719212
O        4.30121659       3.04969023      18.80493834       1.34945342      -0.22477404      -0.62869593
O        9.24562403       3.53551487      12.13000158      -1.81787564      -0.34347876      -0.99389743
O        6.85208315       1.30877269       8.22059064       0.94197245      -0.99595418       0.04265274
O        1.47468070       6.36202560      16.12406087      -2.66302596       2.19250795      -1.99631510
O        3.37429794       8.73828559      18.56744128       1.91936724      -1.15161894       1.04526383
O        8.99889255       4.11211203      15.22430073      -2.34374787       2.01675224       0.00192610
O        6.53471041       1.72775918      19.08230311      -4.85835576       1.42604735       0.09518329
O        1.94194550       6.16329309      11.83584235       4.00567312      -4.95679584      -0.95973620
O        4.42171018       8.42143231      22.46216120       1.50696414      -0.98965781      -1.39988142
O        7.83509752       5.38704873      13.08845112      -1.19420364      -0.30253957       2.03238405
O        4.68103776       2.05252471       7.27777960      -1.02122255      -1.07633757      -3.16601244
O        2.76775872       4.97312294      14.10494477      -0.97687538      -0.68378877       0.76432827
O        5.83875176       8.02321170      20.01197977      -1.60020828      -0.10124966      -0.03644115
O        1.17761032       2.72036718       7.31235579      -1.06813809      -0.30670949      -1.99200126
O        8.17493313       9.52558210      13.12481809      -0.51002996       0.63401315       0.66945735
O        0.21976135       6.99809954      13.42897335      -0.45393416      -0.43878534       0.98056137
O        2.91342783       0.38193859      14.11649756      -0.70415957      -0.14013732      -0.77723705
80
Lattice="9.77192453 0.01751879 6.90363604 0.24348012 9.76890588 6.90363604 0.01370155 0.0133883 13.86910312" Properties=species:S:1:pos:R:3:forces:R:3 energy=-575.60996027 source_file=vasprun.xml step_index=920 time_fs=59840.0 time_ps=59.84 file_index=29 pbc="T T T"
Na       7.87883337       4.24105927      19.75428716       0.23309906      -0.10125942      -0.12897288
Na       8.51835783       2.66374124       9.14567724       0.22439363      -0.38864118       0.38987433
Na       1.08802540       7.33245792       6.06717492      -0.12939729      -0.37049069      -0.21312258
Na       3.36432566       8.57227582      14.16665780       0.01256931      -0.15102066      -0.19946999
Na       3.93360536       2.04819051      16.33901081       0.24708569       1.05950159      -0.45634057
Na       8.14958569       9.46506847      20.07312236       0.01252825       0.14657277      -0.01402187
Na       2.45907265       2.65153303       8.52780187      -0.03783791      -0.00455690      -0.01579560
Na       3.84744961       6.26725273      10.36857252       0.11171764      -0.06714594       0.02819452
Al       7.01803975       5.14331965       8.87992061       1.70918421       4.36375393       1.79675600
Al       4.42306978       2.69311582      11.33577050       0.91264063       1.34755030       0.09771301
Al       2.50522575       4.46369980      18.27483305      -0.98707522      -0.80830324      -0.95192934
Al       5.45392767       6.72986310      15.83995798      -1.30852678       0.89253357       0.07059925
Al       0.30021834       1.92359636      11.46987271      -1.08404434       0.44742620       1.22225084
Al       7.51726413       9.44283709      22.90449018       0.65108596      -0.27848942      -1.71512095
Al       9.48179648       8.01776172      15.78907371       0.88814713      -0.21588255      -0.47625949
Al       2.17179449       0.21454418       4.34025674      -1.11021143      -0.44174736       2.11361055
Si       2.38163478       5.58105508      15.33908185       0.03777853      -0.94575169      -0.53162394
Si       4.03092936       7.15632178      18.75500541       1.88255932      -1.64636012      -1.11352451
Si       7.24718823       4.04972958      12.01892906       3.04857056       0.68230122      -0.08356463
Si       5.44371100       2.69131052       8.38381376      -1.98303356       1.52872252      -1.58072864
Si       0.84470994       7.23142113      11.77940246       2.06847014       0.08012359       1.09879525
Si       2.83909806       8.95369337       8.37581663      -1.06452830       0.65871695      -2.56787811
Si       9.34634015       2.19300099      15.40947139      -0.01063290       1.80241114      -1.55413885
Si       6.95636507       0.80165957      18.86519044       1.31075811      -0.18930458       0.33285995
Si       0.27779961       2.67287090       5.44154951      -3.40749494      -3.18416991       2.35322709
Si       6.92969021       9.61935818      15.10426319      -0.50161716       0.95185659      -2.40151099
Si       9.36681897       6.85324902      21.67600731       0.85914121       2.66398101      -1.05190076
Si       2.93504856       0.33235430      12.38720530      -3.78631101      -2.37364866      -0.51843794
Si       8.10330398       5.21231711      14.78684738      -1.65223035       0.50767212      -3.18191520
Si       4.31822915       1.94564897       5.53985472       0.17064676      -1.13068540       1.34590780
Si       1.82750180       4.28719695      12.37580512      -3.03437232       5.20683738       4.46272316
Si       5.39415130       7.61860376      21.61711019       1.45218736       0.87728024       0.04807724
O        8.44560962       5.60830933      21.70172603      -2.26151617      -3.08460283       0.61820425
O        4.04351529       1.03202369      11.54895352       1.73546806       1.64550314      -0.06045805
O        0.74642935       4.09464237       5.02262870       2.94979035       1.63920499      -0.89055870
O        5.91185245       8.50235465      15.63698945       0.13621264      -0.35846527      -0.75192904
O        0.43932268       3.60623977      12.10482688      -1.73140785      -1.34282940      -0.19468520
O        6.22812963       9.04203744      21.70036702      -0.47606284       0.19738407      -0.05622581
O        9.13744696       6.39909526      15.06196025       0.84828355       1.70497312       0.38740897
O        3.53057631       0.37224575       5.67393959       0.73809945       3.36632347      -2.57288759
O        2.98529531       5.89812095      19.09629532      -0.07545522       1.62111931       0.11412100
O        3.77318749       6.45827805      15.13899390      -0.78925064       0.14331178      -0.55971328
O        6.37192036       3.96741643       7.97960788      -0.79812470      -3.86288790      -2.42856763
O        5.85493061       3.32506730      12.19048620      -2.26453912      -0.18455936      -0.21876096
O        1.45506311       8.12852483       8.18399875      -1.12801622       0.44815657       0.34145260
O        1.98963011       8.39365420      12.07872372       0.06638226       0.51722146      -1.08893370
O        8.39063255       1.63751125      18.83197140      -0.81714336      -0.83048920       0.20789814
O        8.12888187       1.15515891      15.36726102      -0.44126219      -1.00406702       0.34749426
O        2.60134970       4.39497409      16.46923607      -0.34516184       1.03188178       1.03237461
O        4.96249463       6.73587582      17.47540024      -0.44526747      -0.02399123       1.85258628
O        7.49791677       4.62951217      10.47212249      -0.31953812      -0.61886922       0.15568461
O        4.51643332       3.18540953       9.60592901      -0.42143742      -0.48075870       0.72150214
O        9.71366239       7.81487012      17.49282875      -0.40166473      -0.43216220      -0.44608225
O        2.60135849       0.34794545       2.55112827      -0.41815794       0.16318629       3.86326118
O        0.62642373       2.02597825       9.79148720      -1.00957363       0.59098934      -2.87240919
O        7.14300441       9.40092049      24.57052290      -0.45937865       1.62548692       1.52990419
O        8.50081229       8.16861946      22.20443546       2.48941841      -1.34121390      -0.43170769
O        1.34369360       0.70630335      12.03102391       1.81018461      -0.37609921       0.74805971
O        0.73635315       1.31513009       4.66952621       1.10075817      -0.10885380      -1.19208838
O        8.48901075       9.59402227      15.55103776       0.88229138      -2.11212935      -0.16186065
O        2.98767864       3.58230904      11.77273038       4.39779542      -2.50827469      -1.77833317
O        5.93731098       6.54821997       8.85683035       0.48435620      -1.05473022      -0.48354833
O        6.61574960       5.65414848      15.23620487       0.08135353      -0.45778767       0.66948928
O        3.54468633       3.05601146       4.68043532      -0.68945776      -0.55031735      -0.20339069
O        8.27844350       2.76366094      12.30497563       2.66096352      -1.04855757      -0.58822158
O        6.28591429       1.39657885       8.73019897       0.72049231      -1.04143682       0.41401725
O        0.98394138       6.50964258      15.59015178       1.13311572       0.68259648       0.15914700
O        3.32619124       8.59186153      18.51837243      -0.91058072      -0.44355326       1.26013373
O        8.51541146       3.74084757      15.27644716       1.66956556      -1.96479239       0.84272694
O        5.91014808       2.13366171      18.76311534      -1.46775637      -1.64209809       0.10006948
O        1.85668946       5.85821673      11.77478214      -0.74713216       0.85529399      -1.65573540
O        3.99920194       7.84145038       8.56197571      -1.98897778       0.36985422       0.52722841
O        7.91686247       5.21444783      13.01479697      -0.78622254      -0.53441837       1.40115240
O        4.31630367       2.45094594       7.12433930       1.03751240      -0.10637013       0.89857400
O        1.87209349       4.69167771      14.05219410       0.65471065      -0.85170661      -1.71644334
O        5.08831045       7.25296380      20.03347497       0.29312905       0.01580836       1.34421178
O        0.64317041       2.05288381       7.08432189      -1.55613414       1.50257429       0.97974818
O        6.47083232       0.08889040       6.44891432       0.95771620      -0.31285217       1.14781070
O        9.64334330       7.02597769      19.95020817      -0.92009940       0.42000168       2.35993059
O        2.87706758       0.23203382      14.03093003       1.04200510      -0.78561912      -0.29112559
80
Lattice="9.77192453 0.01751879 6.90363604 0.24348012 9.76890588 6.90363604 0.01370155 0.0133883 13.86910312" Properties=species:S:1:pos:R:3:forces:R:3 energy=-574.69603154 source_file=vasprun.xml step_index=835 time_fs=79670.0 time_ps=79.67 file_index=39 pbc="T T T"
Na       8.96691170       3.39405628      21.21944062       0.33161418       0.41175380       0.46161180
Na       8.66234488       0.22623989      10.91750819      -0.20876801       0.62588325       0.31123997
Na       6.40430837       4.38497812      18.26882010      -0.12575514       0.13033338      -0.50272999
Na       1.99959321       0.06207228       9.69136655      -0.27092498       0.11047579      -0.33477476
Na       3.26160783       2.12300443      16.49609180      -0.11444891       0.38501117      -0.17192400
Na       5.73449558       1.11208009      13.35530704       0.36994952      -0.05593060       0.44028678
Na       4.76910949       6.98043595      12.91291456       0.08649807      -0.21065500      -0.18858355
Na       1.10974160       6.40562219       6.49143513      -1.36940727      -0.14630938       1.07487826
Al       7.09561571       5.32889845       9.13336437      -2.30889611      -1.44410287      -0.02863700
Al       4.31988812       3.08627927      11.58416019       0.19674115      -2.39286404      -1.99447977
Al       2.80868778       4.91336202      18.73322315      -2.26092156      -2.82259226      -1.42337106
Al       5.09266781       6.80679989      15.99552572       2.10089479       1.23259639      -2.02535945
Al       0.20452187       2.07055605      11.73856266      -0.40246855       1.16670287      -0.66009142
Al       7.66118804       9.59423510      22.97008109       0.55263529      -0.91103022      -0.88259779
Al       9.55795212       7.80777419      15.87971366      -2.92016132      -1.22779630       3.61037157
Al       2.03047444       0.33087245       4.80592319      -1.96387228       0.73021590      -1.61701173
Si       2.45298669       5.63221007      15.60001317       0.51775298       0.09948997      -1.62713947
Si       4.25918791       7.35842631      19.06028788       0.41813950      -2.67468823       1.59916996
Si       7.02343651       4.26000459      12.07665601       2.02147226       0.88031281       0.84920976
Si       5.61630277       2.61881320       8.63184092       0.04472133       0.09192859       3.26994766
Si       0.93515226       7.62570117      12.30899161      -2.21730990      -1.32866377      -2.19988613
Si       2.46737699       8.90110308       8.57585635       2.15914313       2.26293872      -1.15908757
Si       8.89543837       2.43403596      15.52138182       0.10191404       0.78240316       3.74058973
Si       7.21537375       0.97642890      19.16063062       0.19866540      -0.55796370      -0.95252807
Si       0.17112956       2.84228604       5.78036720       0.86415729       1.40462222      -1.17802327
Si       6.92429607       9.45922494      15.07353960       1.13865364       1.98039593       2.65464201
Si       9.62097634       7.05814814      22.12771577       0.14139682       1.41732402      -1.40989540
Si       2.66745196       0.45384365      12.66477385       0.72132469       0.24981642       1.18703080
Si       7.56813296       5.22830716      15.05767945       1.95355333       1.88271010      -1.52872406
Si       4.36027411       2.37885667       5.70843268       2.50658235      -2.51860662      -1.15559875
Si       1.89339207       4.70244177      12.71405401       1.52622102      -1.16721239      -0.78522921
Si       5.28182507       7.66498101      21.81700013      -0.06682128       0.02478466       2.86703403
O        8.67891587       5.72797183      22.41416657       1.65663021       1.10543267      -0.57622184
O        3.71899893       1.56538085      12.31863582       2.86284595       1.02610947       0.42430952
O        1.25407472       4.18502794       5.61180485      -0.23245404      -1.22900534      -0.27243095
O        5.75083308       8.40931652      15.18060852      -1.63338573      -2.67272631       0.69937692
O        0.87709767       3.45241302      12.50411721      -0.16652637       1.50523065      -0.03948336
O        6.15926816       9.16710110      22.08492010      -1.47550591      -2.56657129      -0.31296121
O        8.80906581       6.33364241      15.28343409       0.07243230      -0.66551969      -1.01086592
O        3.31674755       1.20370665       5.41261157       1.22341958       0.91647016       0.34162023
O        2.95581006       6.40720481      19.48726106       1.49089842       0.64105042      -0.51797559
O        3.84592317       6.30024957      14.85132982      -1.16412527      -0.63566045       1.91180993
O        7.12636943       3.45118587       8.69921755      -2.66128201       1.09451797      -0.59575596
O        5.90128738       3.14434837      12.26490168       0.60449150      -0.62850329       0.59408936
O        1.29055992       7.90408759       8.31736371      -0.45933023      -0.05871021      -1.88945768
O        2.04915754       8.70542980      12.61731164       1.20910701      -0.40617532       0.94896665
O        8.54722343       1.90877219      19.66787024      -1.54849052      -1.27660583      -1.53749510
O        7.90122568       1.25378832      15.22548534      -1.20277179      -0.56282616      -0.73738067
O        2.61106140       4.72242127      16.93353455       0.22921453       0.54760359      -0.24731880
O        4.85867964       6.75543114      17.67640291      -0.78443418       1.03769509       1.79422615
O        6.81870906       5.27712631      10.84781209       0.30661724       0.04726748       0.79662450
O        4.42398111       2.91214671       9.82756012       1.70601498       0.14189020      -1.65611021
O        9.93310029       8.03299318      17.78216023       0.21660326      -0.39639179       0.04605517
O        2.14209063       0.12541299       2.93796566       0.27641130       0.13768538       2.01618225
O        9.76856665       2.24386457      16.94751571      -1.44308287       0.12396748      -2.31190622
O        7.32458882       0.12573509      17.73494766       0.44602299       0.53556208       2.61133752
O        8.95337400       8.44695409      22.58307898       0.00906405      -0.36334820       1.29393073
O        1.53887658       1.02340687      11.67835106      -0.87888662      -3.14899903       0.47328219
O        0.55488255       1.36465118       5.07212953       0.08708951       1.44381850       0.20527537
O        8.35704323       9.07198432      15.97150788      -2.07631914       0.76451638      -2.39087062
O        3.41144256       4.35891214      12.05792501      -3.15254761       2.70606688       2.16724967
O        5.52847137       6.15034927       8.58453465       2.74220593       0.65511320       1.15914656
O        6.42069773       5.68426913      15.98413828      -2.58782302       0.57054403       2.07437475
O        4.05726403       3.72339705      18.81066636       0.53106560       1.14282553      -0.42337684
O        8.52200599       3.38395560      11.83669699      -0.03504609       0.16607431       2.12443959
O        6.08247891       1.09225026       9.06597986       1.11298612      -2.02677462      -1.85846528
O        1.51693620       6.97103288      15.89847557      -2.68279766      -0.12558168      -0.93076380
O        3.54206276       8.75387238      19.06575610      -0.90043899       2.80970241      -0.46781644
O        7.97489122       3.80279976      15.65256785       0.48943739      -1.10616634       0.01105790
O        5.86781817       1.86236630      18.81142726      -0.84198354       1.23311519       0.65431689
O        1.58849509       6.16082453      12.02173219       0.48185911      -1.24810954       0.66586736
O        3.65295049       7.82321139       8.38698917       2.03765136       0.80710763      -0.03973248
O        6.89339551       5.29584453      13.50909550       1.47054222      -1.52611121      -1.04532602
O        4.86985423       2.60509923       7.17499402       0.11035371       0.50770714       1.87886495
O        1.75947492       4.66738864      14.40889479       0.75430852       1.14383704       0.31514874
O        5.37998151       7.14108344      20.31360601      -0.70922435       1.29006565      -4.41489905
O        0.13762716       2.60531949       7.44057663       1.45421218       0.53863855      -3.28040779
O        7.22425058       9.74395269      13.49425800      -0.11242542       0.01552488      -0.22395639
O        9.63062423       7.43296063      20.41398196       0.26810925      -1.00863383       1.96745732
O        2.51432342       0.42403644      14.34950471      -0.80927232      -1.38612900      -0.66564468
80
Lattice="9.77192453 0.01751879 6.90363604 0.24348012 9.76890588 6.90363604 0.01370155 0.0133883 13.86910312" Properties=species:S:1:pos:R:3:forces:R:3 energy=-575.22977723 source_file=vasprun.xml step_index=940 time_fs=75880.0 time_ps=75.88 file_index=37 pbc="T T T"
Na       8.04422606       4.07564969      20.52269857       1.03178109      -0.33570286      -0.68471875
Na       8.52341467       1.15544574      10.64396721       0.08551925       0.67117153       0.16729523
Na       5.73667077       4.04899092      16.99612175       0.50344931       0.35682617      -0.34646652
Na       9.42712813       8.17076947      12.65255250      -0.02817888       0.05195538       0.06076284
Na       2.56114633       2.84163579      16.68730814      -0.58957437      -0.54464035      -0.55052289
Na       6.60455178       0.53013920      13.54972947      -0.51953884       0.22618283      -0.10575150
Na       3.34498423       9.31403137      14.34801199       0.12870650      -0.29572576       0.10222036
Na       1.29610660       5.12707653       7.50038488       0.45425064       0.63845148       0.32436000
Al       6.59636659       5.34705870       8.90498599       1.42980022      -1.06198019       0.99545331
Al       4.64362597       2.57757503      11.42010503       0.22491540      -0.26018790       1.70223388
Al       3.12157754       4.63167889      18.70401604      -0.77846472       3.18795594       1.15825688
Al       5.34010989       7.41792025      16.19886581      -0.08414639      -2.82318486       0.37172566
Al       0.32251648       2.19861631      11.70762399       0.25867809       0.99168298      -1.13148110
Al       8.27610166       9.54920332      23.05375805      -3.27942973       0.69439579      -0.40808703
Al       9.69300568       7.69982181      15.98398794      -0.99721051      -0.38335752      -1.28963284
Al       1.74568473       0.11467595       4.60270165      -0.79936104       3.67425100       0.38948491
Si       2.64921701       5.85014538      15.52861774       1.04331239       0.71029486       0.79268059
Si       4.32026622       7.51872841      19.40067208       2.66657115       0.00472237      -3.78452594
Si       7.19253117       4.04693333      11.91991875       2.75937351      -1.64745916       3.45443935
Si       5.53405341       2.54653134       8.37801052       1.72148970       1.20163138      -1.48652579
Si       0.64726965       6.99890674      12.04541581       4.66949764      -0.06862900      -0.18296413
Si       2.35283812       9.46771616       8.48529084      -0.62800953      -1.93943980       1.49032132
Si       8.96677042       2.65671931      15.59195100      -0.76493447       0.35746604      -1.32470152
Si       7.44083975       0.82488845      19.11637561       0.51224694       0.28107113      -0.14100010
Si       0.32696799       3.04098284       5.82803467      -0.19815744      -1.17005046      -3.81897658
Si       7.22506436       9.73727404      15.26807570      -0.72391360      -1.79530208      -2.39950067
Si       9.32341680       6.75327443      21.85540362       1.48784727      -1.51585534       1.26265194
Si       2.40137368       0.18014557      12.45232265       4.54275797       2.86686644      -0.48521366
Si       7.85067894       5.48235960      14.83409133      -4.61892755      -3.86648977       1.36273901
Si       4.46182222       1.83983934       5.47775936      -0.70369691      -1.54858475       0.61980429
Si       2.40394636       4.50744158      12.64153327       1.08590981      -1.48049512       0.95567339
Si       5.20494430       8.24072799      22.27984659       2.50231243       1.32355008      -1.41485505
O        8.36892594       5.45565189      22.26382243       0.16441195       2.14789144      -0.34929403
O        3.88198704       1.13378207      12.11865780      -1.81428189      -1.39608728       0.27200061
O        1.51048666       4.10677493       5.40894700       0.71413499       0.39899050       0.56337391
O        5.86112028       8.90425222      15.65602694       1.42486037       3.23561167      -1.59184508
O        1.23022410       3.33076552      12.65733128       0.22869305       1.10009743      -0.14159757
O        6.44501935       9.25610140      22.53248131       0.48067901       0.94676481       0.87693423
O        9.05717084       6.48067050      14.67193801       2.08728372       1.11124515       0.30325325
O        3.07389773       0.89573722       5.42479287       2.77433841      -0.63396401      -0.29561310
O        4.01732169       5.98664621      19.63651786      -2.21443607      -3.24661534       0.59633288
O        3.73534130       7.15698719      15.42480943      -0.88846563      -1.46362435      -0.17721987
O        6.29714545       3.92473512       7.79055019      -2.11474464       0.05228384       1.60563775
O        6.52143150       2.56959559      11.99283895      -3.03664621      -0.87066170      -0.30755974
O        1.33413884       8.22769377       8.22056413      -0.56592150      -0.99525616       0.32106124
O        1.63607540       8.40807796      12.18181526      -2.07738096      -2.23064928       0.46040205
O        8.46286548       2.08902838      19.19178746      -0.61243435       0.34338445       1.13344454
O        8.13645953       1.25131974      15.06773132       1.85206378       1.41073717       1.84931459
O        3.00565327       4.99868178      17.01222285      -0.41410611       1.08916870      -2.62040464
O        5.09784568       7.42769293      17.89102059       0.14554317       0.34514932       1.99249789
O        6.90333669       4.76136097      10.59151083      -1.33595720       2.08918059      -2.24622004
O        4.67657705       2.70892539       9.68887132      -0.22063119      -0.33989970      -0.46410874
O        9.84761293       6.87089250      17.47473188      -1.39381649       0.65094190      -0.38020169
O        1.53186307       0.57229566       2.85527862       0.60418161       0.06127082       0.30836914
O        0.14176332       2.50407803       9.96582966       0.06332588      -0.13213648      -0.48061846
O        8.32113979       9.64711056      24.84094548      -0.22980645      -0.58995513      -0.31472590
O        8.90960160       8.25676544      22.17004274       0.70456923      -0.65354979       0.36478621
O        1.18276765       0.73279270      11.63615215      -0.56423903      -1.55985688      -0.23370533
O        0.56978765       1.48100269       5.33624695       0.09406290      -0.29895346      -0.19703610
O        8.45914326       8.95307650      15.95880859       0.31860072       1.12817176       0.64676779
O        3.85319046       4.01816568      12.04981996      -0.74624215       0.00024089      -0.20439356
O        5.70166952       6.80177111       8.85011500      -0.71845875      -1.62576866       0.59880477
O        6.58989933       6.08139120      15.71142566      -0.51078278       1.06275987       0.14439733
O        3.90919005       3.15629458      18.57382509       2.58567707      -1.00130836      -0.29376049
O        8.78723032       3.51632699      11.87378977       0.31712909       0.25188043      -0.76348659
O        6.92269479       1.59033587       8.50405386      -0.30746976      -0.29714124       1.70588229
O        1.13392927       6.48729632      15.51604244      -0.58101536      -0.10493295       0.35544319
O        3.00896585       8.39825821      19.01228447      -1.53637817       0.46252869       0.86458081
O        7.96581104       3.94478344      15.80577925      -0.26211265       1.47525653      -0.00687719
O        5.99687029       1.47891725      18.69576433      -2.24338763       0.30489870       0.01767895
O        1.90169907       5.86455559      11.90980318      -0.58822587       0.20678123       0.78983323
O        3.78053354       8.81651531       9.01304868       0.04318766       0.07788595      -0.52634908
O        7.23228309       4.73322434      13.49182826      -0.13647595       1.06247043      -1.65300105
O        4.70759907       1.87513503       7.10928488      -0.36231715       0.31196638       0.09298243
O        2.78271694       4.72476479      14.30917932      -0.42363160       0.69838639       0.47325610
O        5.26648762       8.21978819      20.55051819      -1.28984787      -0.04820955       0.53815288
O        9.77073612       3.40261002      14.23850917       0.17269556      -1.46162869       3.09724927
O        7.54038894       9.73100516      13.55591531       0.16336898      -0.81436414       0.20461473
O        9.55707828       6.65269913      20.25292221      -0.81759897       0.10566125      -1.76363244
O        2.08006227       0.44118118      14.05453679       0.72940063       1.12613276      -0.82792539
80
Lattice="9.77192453 0.01751879 6.90363604 0.24348012 9.76890588 6.90363604 0.01370155 0.0133883 13.86910312" Properties=species:S:1:pos:R:3:forces:R:3 energy=-574.59118915 source_file=vasprun.xml step_index=825 time_fs=27650.0 time_ps=27.65 file_index=13 pbc="T T T"
Na       6.10543184       0.26762777      12.69193055       1.50609351      -0.48312723       1.07888262
Na       8.43729235       4.85323653      19.48101358       0.13334894      -0.23791529       0.21805788
Na       1.06034302       5.86138265       6.96816178       0.40938450       0.59678364       0.45503839
Na       1.78760896       8.77280138      16.79043116      -0.37496165       0.07744459      -0.33097690
Na       8.09830145       1.85065774       9.68983609       0.38084672       0.19436802       0.31540500
Na       3.38916645       2.61012207      15.74664990      -0.35002916      -0.14524341       0.29174786
Na       7.32143108       7.16137902      12.29492545       0.16275256       0.73561758      -0.66617291
Na       4.27211336       8.20194633      13.05644452      -0.35244142      -0.17232894       0.24053072
Al       6.94075431       5.33963241       8.79119022       0.83234405      -0.56331352       2.01533579
Al       4.55922387       2.65037867      11.36389161       0.97966687       1.27945350       0.69886460
Al       2.87795563       4.38512701      18.51669561      -0.42152385       1.49225195      -0.22777640
Al       5.44242406       6.77088579      16.17488884      -0.70244731       1.97491731       0.85419319
Al       0.64858180       2.08131331      11.50694004      -3.05942811       3.13252613      -1.31849897
Al       7.90902295       9.48523459      22.96409049       0.99368535       2.04087707      -0.46886732
Al       9.25162700       7.72199020      15.78665478       3.88575638      -0.46984666       1.80215023
Al       2.17227759       0.26019504       4.55285722       1.98257309      -0.28253640      -0.71975764
Si       2.39459056       5.75682101      15.66506870      -0.10834842      -1.41690538       4.08275948
Si       4.42404818       7.22917651      19.00120578      -1.63231964      -0.87468683       1.30084530
Si       7.51707050       4.12039658      11.82255828       0.08511982      -4.13753952      -2.03154904
Si       5.34993604       2.65861622       8.25058707       1.04624046      -1.33307760       2.06754006
Si       1.08873774       7.20421585      11.94000194       1.92683370       4.55003329      -6.32540569
Si       2.38074675       9.09191457       8.44899668       2.51494701      -0.48005725      -1.91007476
Si       9.05601969       2.24308694      15.32032844       1.98759335       2.23111276      -1.39392978
Si       7.54605762       0.97257209      19.14475214       2.24044605      -3.44457258      -1.84649756
Si       0.66248716       2.90025273       5.65116556      -1.72955036      -4.15164230      -0.05211314
Si       6.93273833       9.37567863      14.94972596      -1.19987747       3.21953686      -2.61481030
Si       9.50837432       7.06879670      21.59418834       1.64590107       0.75616621       1.60551070
Si       2.91539681       0.19186043      12.33184552       4.03305737      -0.41679735      -0.82532528
Si       7.78419836       5.17122476      14.73427559      -2.37772987      -4.08472822       0.42492550
Si       4.70420084       1.92462420       5.27389784      -1.49155622      -1.81075445       2.37206100
Si       2.26209622       4.68255429      12.63233708       0.68544532      -0.27458233       0.35662752
Si       5.35421931       7.87607341      22.09524300      -1.67599706      -0.21112163      -0.31091816
O        8.34879000       6.00532759      21.76054612      -1.04742516      -1.22318415      -0.20263721
O        4.40390984       1.02006622      11.98054615      -3.09161608      -0.72460029      -0.06213461
O        1.43659308       4.25274119       5.67350497       1.10456760       1.28643179       0.68263929
O        5.69626010       8.27645348      14.85781957       1.10525762      -0.79699936       2.02085105
O        1.05076310       3.72833452      12.21973772      -2.30235143      -0.81343352      -0.11917898
O        6.51071504       9.01626293      22.10276905      -1.51347746      -0.60595846      -0.08502132
O        8.70265514       6.38895977      14.80669315       2.59658300       4.08636493       0.13960488
O        4.07694840       0.31948577       5.16911967      -0.66302714       2.73692924      -0.93029353
O        3.57111269       5.83386367      19.21618269       0.77650043       0.97122290      -0.34318088
O        3.70410669       6.59470336      15.98947844       1.53340622       0.98555300      -0.37991211
O        6.56959956       3.74859698       8.10797962      -0.15620491       1.37537790       0.60708736
O        6.33499734       2.93280523      11.90514601       0.29503148       0.56761723      -0.73766179
O        1.09730233       8.11756141       8.08764514       0.62195570       0.80257195      -0.32562349
O        1.88178570       8.60931594      12.29417079       0.52920830      -0.28889762      -0.07603203
O        9.02072346       1.63436110      19.33664037      -1.68576549       0.26739611       0.85158837
O        7.74334984       1.41810357      15.12195710      -1.19535281      -2.31538522       0.97919321
O        2.20788857       4.68738163      16.93554288       0.35293930       0.22441344      -1.74028062
O        5.68105337       7.26554701      18.03516906       0.91747853      -0.76830701      -3.67400884
O        7.32853144       5.19285046      10.65907062       0.39432164       0.01372694      -2.33218892
O        4.43902484       2.61411500       9.63156484       0.51644956       0.83252551      -1.67727769
O        0.24489906       7.53581116      10.53131654      -0.55362523      -1.15012125       0.42626198
O        2.11152294       0.40416504       2.72062532      -0.87884905       0.30996825       0.62275254
O        0.11389627       1.95515522       9.75536037       0.63527363       0.18730598       1.27989400
O        7.94020630       9.64555381      24.74177494      -0.30983572       0.52931771      -0.66811298
O        9.26557104       8.52149161      22.24458105      -0.80653369       0.61207593       0.15226542
O        1.73604941       0.89230749      11.59895530       1.05692217      -1.85438467      -0.80308944
O        1.57027456       1.77078751       4.88428983      -1.65034917       1.82767086       0.57550644
O        8.26180183       9.08030138      15.84475909      -1.83840824       0.94074258      -0.28076249
O        3.51278567       3.86722785      12.17082989       2.74893450      -1.38490491      -0.52789662
O        5.79353209       6.56602318       9.11925755      -0.86155408       1.03341406      -1.22282835
O        6.43275773       5.46855329      15.66415321       1.04824459      -0.66912130      -0.97425878
O        3.86377179       3.00705282      18.32079368       1.51256476      -0.51472559      -1.14815007
O        9.03205389       3.20965571      11.68926333      -2.10242035       0.91012427       0.00221542
O        6.36183523       1.30142812       8.43155284       0.26101988      -3.11728406      -0.01267732
O        1.11517350       6.69051118      15.61343616      -1.85326781       1.42693929      -0.52316696
O        3.30322312       8.41748564      18.45969668       0.30241418       0.81865260       1.83933845
O        8.75342931       3.92382257      15.25060335      -1.39676530       0.57963604      -0.31275662
O        6.33696016       1.98945841      19.03754325      -0.11113979       1.25131917      -1.45938728
O        2.21229075       6.08182415      11.73592972       0.56677326      -1.19196529       0.87957898
O        3.82030522       8.31796860       8.82198754       0.46318251      -0.73993934      -0.64481367
O        7.43584859       5.09867890      13.04835405       0.29211663       1.11358501       4.70223360
O        4.64206845       2.50481067       6.85286759      -1.89108839      -0.23616715      -1.02225228
O        2.41410460       4.98961729      14.31878901       0.12183573      -2.19482862      -4.68768300
O        5.12236298       7.59008069      20.44539043      -0.03787496       0.46231489       0.87087841
O        0.27516978       2.09579117       7.04390635      -0.29523611       0.64522123       0.69130505
O        7.25876283       9.53861144      13.22436731       0.36356091      -0.63949494       2.78489702
O        9.93564545       6.94901746      19.99632830      -3.94474734      -1.51641928       4.63084804
O        2.87224675       0.27184057      13.92302913      -1.91216862      -1.33863224       3.02598481
80
Lattice="9.77192453 0.01751879 6.90363604 0.24348012 9.76890588 6.90363604 0.01370155 0.0133883 13.86910312" Properties=species:S:1:pos:R:3:forces:R:3 energy=-575.43624148 source_file=vasprun.xml step_index=860 time_fs=13720.0 time_ps=13.72 file_index=6 pbc="T T T"
Na       6.11675004       4.96526765      20.00273480       0.08200241       0.17867552      -0.05352296
Na       8.14784855       0.40135181      12.92623974      -0.10046450      -0.06890509      -0.63921440
Na       2.43498177       9.69599618      16.51715242      -0.23366152      -0.17363785      -0.04922712
Na       8.47521280       7.60089605      11.49814521      -0.13639617       0.13012263       0.10298755
Na       9.44819371       3.83916530      21.08780506       0.09674278      -0.15977027      -0.41302776
Na       4.12075445       2.94853242      14.80987640       0.33120955      -0.36920343      -0.08112435
Na       2.00117120       5.29708164       7.54678362       0.30351831       0.29457910      -0.31287261
Na       4.55296902       8.54044009      13.15128568       0.03821431       0.02497937       0.45535575
Al       7.45978346       5.57420339       9.14504097       1.08783731      -1.28646442      -1.76825393
Al       4.87843502       3.21515852      11.04551918       3.35720417      -1.52834282       1.37152485
Al       3.07940409       4.63279944      18.16237705       0.10609587       4.07138338      -0.25615671
Al       5.75827414       7.37094534      15.97023787       0.40803146       0.27322977      -1.98894823
Al       0.80081367       2.14549748      11.29423249      -0.99310848       1.87806179       2.76260652
Al       8.16331960       0.02918223      15.84103937      -0.25281919      -1.71686404      -1.47738499
Al       0.44307847       7.93790130       8.87749703       0.07722615      -0.98366724       1.13347693
Al       2.25456368       0.53806819       4.76737596       1.52833527      -0.75773812       0.89044991
Si       3.08772580       5.76728165      15.04239643      -1.24015426       2.08745302      -1.63492296
Si       4.70734108       7.49174066      18.96420168      -0.75706860      -2.86946606       1.38120358
Si       7.66340281       4.44481073      12.22241238      -2.56072383       0.48398556      -0.58313971
Si       6.40576469       2.67546287       8.14710569      -3.50745233       3.09592222       2.91807845
Si       1.20449546       7.60009032      11.94371728       0.54936938      -0.36772887       3.45602094
Si       3.10783565       9.38402882      22.41507292      -1.02445362       0.96482609       0.57457380
Si       9.48465869       2.65905789      15.37741932       0.09286306      -0.40240995       0.16009966
Si       7.78683791       1.11249752      18.88171966      -2.92667914      -1.06109346      -2.54010773
Si       0.59660444       3.15136966       5.67536260      -0.27957909       0.88058275      -0.71039296
Si       7.61452667       9.76729551      14.72826360      -1.12841852      -5.83890919      -0.25539282
Si       9.74737642       7.14762577      21.53422696       4.09988641       1.40866981       2.15448593
Si       3.29935952       0.63787492      12.59298563      -1.63633954       1.56311469      -1.16873772
Si       8.54197191       5.46126835      15.15202641      -3.58383909       3.07402000      -0.29845031
Si       4.89530726       2.30503841       5.27020827       2.79609835      -4.46656958       2.70146251
Si       2.59818323       4.70879322      12.11370009       3.34334430       1.97530875       0.19903457
Si       5.93528626       8.15234634      21.66569589      -0.01748395      -3.39941511       1.91219548
O        8.98069954       5.88153815      21.99221705      -2.02516580      -1.83176250       1.60585980
O        4.13004617       1.98434326      12.03529098      -0.56146644      -2.85788978       1.46453213
O        1.53073243       4.41904673       5.11657996      -0.61123554      -1.26500047       0.11280023
O        6.06112603       9.11431250      15.04699929       1.44189831      -0.92995790       0.89806690
O        1.43669633       3.71202450      11.93602035      -2.52355327      -2.73107626      -0.44473596
O        6.98636606       9.30674674      21.67425369       2.27290575       1.93931561      -0.31282567
O        0.22894291       6.16635226       8.56019078      -1.10400401      -0.16504840      -0.41382208
O        3.92227389       1.03171755       5.51525440      -1.36465395      -0.23871237      -0.81413271
O        3.60345520       6.30962918      19.09898978      -0.73439752      -2.30210208      -0.12159509
O        4.23134466       6.92507393      15.04407529       1.01293235       0.79215856      -0.29221225
O        7.30377991       4.01323309       8.09645573      -0.23031916       1.75484667       0.51220722
O        6.26470461       3.60998437      12.36467972      -0.24603502       0.51873377      -0.81076248
O        1.95203059       8.30443181       8.08260723       0.45468911       0.34854365       0.55731561
O        2.29479580       8.69151690      12.55411139      -0.29070621       1.20986017      -0.93521207
O        8.92214588       2.13665975      19.22365178       2.67506237       1.02189391      -0.60987042
O        8.75755284       1.28808165      14.78764016      -0.18227880       2.24208282       0.33529026
O        3.38043938       5.03938744      16.43972247      -1.46702392      -1.66791104       0.77105631
O        5.51593066       7.26521662      17.67067426       1.66480054       0.43276380      -1.98134517
O        7.49746340       5.44954837      10.86306044       1.22742765      -0.59906035       1.24207368
O        5.51822950       2.60894714       9.53161740      -0.13897928       0.49199231      -0.31028966
O        0.57940936       8.18063602      10.65281125      -0.96553185       0.46600482      -2.63504197
O        2.57313073       0.44900181       3.04438379       0.07681483      -0.82291411      -1.34327329
O        0.64450356       1.90981082       9.61920423      -0.28657288       1.04461829      -0.68212237
O        7.98695745       0.17456974      17.50831603       0.37020245       0.41260565       1.84524022
O        9.57391835       8.44032329      22.61308946       0.07470752      -0.91338319      -1.21101687
O        1.82613717       0.90360891      11.80052515       1.43625934      -1.85431208       0.90710027
O        1.06122855       1.69512526       5.26338644       0.19659625      -0.78236574      -0.64035675
O        8.75693119       8.58289466      15.20650941      -2.08508505       3.51656064      -0.87208810
O        3.88979259       4.54083575      11.06018535      -2.79847395       1.72058142       0.67137827
O        6.52284862       6.92177912      22.63946537      -1.49442552       1.52004256      -0.41291196
O        7.06681482       6.25818797      15.66229864       2.81591036      -1.50366159      -0.60819701
O        4.30423293       3.50229105      18.38066634      -0.23272841       1.48551785      -0.52278251
O        8.74041127       3.23536719      12.16040911       2.56834687      -0.48776593      -0.16250061
O        7.41285999       1.52881177       8.20474610       3.69286029      -2.32700004       0.70477324
O        1.62874320       6.58199213      14.70834361       0.48730754      -0.45928684       1.17150854
O        3.91945670       8.85793341      18.88501215      -0.76063979       4.17437982       1.26558799
O        8.57409444       4.01127510      15.92966788       0.87861638      -2.39748043      -1.01083621
O        6.35249030       1.86677589      18.42522559      -0.23625036       0.50018037       0.54364147
O        2.01555129       6.20367131      11.90269682      -0.19555096       0.25178997      -0.59155864
O        4.59871262       8.84255671      22.27975639       1.17822953      -2.08039893       0.58713343
O        8.20419026       5.45883480      13.42712481       0.65384075      -0.41301425       1.10608114
O        5.46613123       2.65404356       6.85877445      -1.35584837       0.72419818      -2.10487245
O        3.20543976       4.64837766      13.73667969      -0.50843517       0.69774558       0.29559292
O        5.75909361       7.23217613      20.27014992      -0.75601499       1.85460329      -0.22212254
O        0.74517019       3.26556849       7.32621582      -0.43655124       0.25000834       0.30812764
O        7.69773556       9.76202428      13.06285826       0.31957079      -0.47229886       0.23454149
O        9.64147471       7.41676189      19.96805755       0.41934802       1.23170103      -2.32087405
O        3.08930996       0.70841629      14.28756487      -0.23916612       1.57765626      -2.71206236
80
Lattice="9.77192453 0.01751879 6.90363604 0.24348012 9.76890588 6.90363604 0.01370155 0.0133883 13.86910312" Properties=species:S:1:pos:R:3:forces:R:3 energy=-575.3774731 source_file=vasprun.xml step_index=60 time_fs=56120.0 time_ps=56.12 file_index=28 pbc="T T T"
Na       7.47531647       8.27816287      18.96467196      -0.10675773      -0.48351176      -0.38395639
Na       7.99427024       3.33245194      20.37873825       0.02571291       0.94772764       0.11328207
Na       8.04189494       7.11326340      11.68366698       0.05098073       0.12844244      -0.05227205
Na       4.19420877       8.00324325      13.12826621      -0.05415328       0.12269749       0.44194598
Na       1.90129414       2.37185991      16.24555783      -0.35183555      -1.02625334      -0.39657608
Na       6.23502229       2.36323559      14.59538466      -0.98101595      -0.21781975      -0.21122892
Na       0.56744149       9.60716490      14.21775982       0.74818491       0.40572142      -0.18435911
Na       3.36051729       5.13737344       9.46790581       0.05945140       0.26401376      -0.13815516
Al       6.87487586       5.09126975       8.84115140       0.95257903       0.10440017       1.06066608
Al       4.73225197       2.55171567      11.64678370      -1.48753130       1.15845536      -1.72589232
Al       2.83967841       4.64378890      18.60315419      -0.65604460      -2.84070492      -2.47317010
Al       5.48181409       6.86513727      15.97677801      -1.66770183      -0.73607848      -0.20452630
Al       0.70560526       2.02640434      11.61059962      -0.55254764       0.49516552      -0.75577056
Al       7.96606461       9.19699784      22.85502397      -2.65729659       2.66847711       1.96138082
Al       9.41870650       7.79104195      16.01258110       1.99535756      -3.69239586       0.24536930
Al       2.23148677       0.27255540       4.48949126       1.09310998       0.35561017       3.65198332
Si       2.59357572       5.31620698      15.48437703       3.47007838       0.52702951      -2.24755183
Si       4.54868712       7.24385570      18.83910928       1.36098614       1.42313570       1.37039891
Si       7.41597229       4.09040941      11.99121363       0.36434724      -1.00676548      -4.03857061
Si       5.45566074       2.30830704       8.39305545      -0.64712400      -0.53263956       0.20723448
Si       0.92520728       7.41187250      12.00818190       5.29129498      -3.45424718       0.85442296
Si       2.67373436       8.92705414       8.55230569      -3.63059182       0.91248486      -0.90205464
Si       9.12224199       2.29640891      15.40404978      -0.12556714       0.63571594      -1.23657802
Si       7.54166856       0.76773862      19.00207987       0.04769280       0.47875291       1.84902314
Si       0.38958526       2.79818922       5.42718954      -0.90221099      -0.20041939       1.53999470
Si       6.94476390       9.18472230      14.69792766       0.97227177       0.53872801       1.91843892
Si       9.60140150       6.85345614      21.77639227      -1.77472687      -3.40501689       3.33452982
Si       3.00511881       0.23845418      12.75579712      -0.92699034       2.95647262      -3.26023134
Si       7.81899690       5.10318967      14.75130964       0.45173552       1.04781774       4.18941564
Si       4.64492150       2.01262441       5.61292944      -2.49403171       0.68973627       0.80055928
Si       2.36656017       4.39243272      12.43156459      -1.57890480       1.71777762       0.33872126
Si       5.45843125       7.52806491      21.69201782      -1.52363706      -0.58971200       3.11383131
O        8.18454241       5.90338766      21.83389368       2.26934799       0.76413634      -0.28585790
O        4.22736364       1.30233147      12.74259679       1.06812464       0.80951455      -0.14781153
O        1.21359050       4.16558951       5.24279773      -0.06370655       0.43419649       0.61726970
O        5.69416829       8.22925251      14.92558496      -0.36223148      -0.69113071      -0.92294538
O        0.90167909       3.64658277      12.48519051       0.36998732      -1.76761235      -0.55502896
O        6.48281592       8.69248458      22.07228871       1.48516414       0.64582302       0.06924506
O        8.99526165       6.03905721      15.49488774      -0.94371061       0.23445891      -1.33473007
O        3.71109067       0.61769368       5.52867316       0.72751245       0.28549193      -1.95297556
O        3.43642950       6.16757629      18.88849520      -1.04745887      -0.59208264      -0.05284119
O        3.76527121       6.50530117      15.56509027      -0.90908199      -0.64251031       0.06751352
O        6.29271824       3.67684967       8.06756733       0.89413461      -1.14028644      -0.86369252
O        6.01460470       3.45064748      12.40240336      -0.15312367      -0.62834196       0.90807391
O        1.38281197       7.91398279       8.83067511       1.01451321       1.44660653      -1.63040599
O        2.14243438       8.49648410      12.29908196      -1.70570001       1.13378354      -0.29270227
O        8.87653177       1.67094865      19.41341176      -0.01306884      -1.58917261      -1.49726434
O        7.98171462       1.08580146      15.31777127       1.26141514      -1.48215325       0.14713609
O        2.62437525       4.21255181      16.59760664       0.48260571       0.73978892       2.85867964
O        5.71417356       7.15358444      17.70623290      -0.80210424       0.82728318      -0.41535972
O        7.29267205       4.93970587      10.54805950       0.42987277      -0.17673189       1.63601964
O        5.14695923       2.36954755       9.95885307      -0.58192113      -0.28238587       0.58513909
O        9.73627462       7.64265379      17.75702798      -2.96829384       1.06626475      -1.21877956
O        2.48886945       0.20326412       2.86666265       0.54893697       0.21072440      -1.43028892
O        0.27021425       2.46565772       9.78698227       0.03962399      -0.94029248       1.24032163
O        7.72825509       9.56748288      24.68067049       0.54220934      -1.35910644      -3.50542197
O        9.30128148       8.19435573      22.75347846       2.05210433      -1.83636600      -1.73745712
O        1.90872686       0.65897910      11.57178304      -0.82258555       1.35635532       1.00417551
O        1.13716016       1.61628496       4.66536886      -0.05749122      -1.03337017      -0.60496283
O        8.09958319       8.77058117      15.81676287      -1.27375256       1.22658619      -1.29698386
O        3.28462593       3.76736075      11.21257708       0.77177054      -0.34217370       2.08087093
O        5.57151445       6.17978046       8.80805752      -1.42000429       1.67055461      -0.78138405
O        6.35087466       5.48004974      15.48464500       2.21144593      -1.27618439      -1.77201525
O        4.00038065       3.36454372      18.75559191       1.28908000      -1.61667169       0.56542008
O        8.60179998       2.92611643      11.73981407       0.03532490       0.56805100       0.67512789
O        6.21250498       0.85833524       8.23397622       0.19779067       2.20069444      -0.14809381
O        1.14261008       5.99337641      15.52404304      -2.77689140       1.86072430      -1.30268931
O        3.78026937       8.59600397      19.35684405       1.35569042      -2.93515356      -2.05065697
O        8.04670052       3.45634084      15.01543284      -0.33413985       2.35804442       0.55941552
O        6.31656074       1.91012671      19.07006729      -1.30354341      -0.22255382       0.54981468
O        1.93878803       6.01151793      11.91478954       0.10274486      -0.35655480       0.26911021
O        3.96563524       8.11718612      22.22874534       3.47325395      -2.54510586      -0.83557658
O        7.88851755       5.10743327      13.12204334       0.33129269       2.22499991       0.36170661
O        4.21408164       2.26899542       7.25794860       2.08442251       0.39871613       0.51387272
O        2.99119211       4.37813193      14.01565684      -0.99669098       1.23475525      -0.39987274
O        5.59139118       7.16755988      20.14501659       0.48544837      -0.54106151      -0.40363999
O        0.21185293       2.19181025       7.04477683       0.51406228      -0.04850708      -0.20338190
O        7.43711162       9.29859579      13.15794403       0.54828110      -0.26682583      -0.04104513
O        9.79694833       7.14730910      20.22302946      -0.70407011       1.57884353       0.47019280
O        2.40868175       0.22285717      14.18869541      -2.11844227      -0.36875947       3.74466673
80
Lattice="9.77192453 0.01751879 6.90363604 0.24348012 9.76890588 6.90363604 0.01370155 0.0133883 13.86910312" Properties=species:S:1:pos:R:3:forces:R:3 energy=-575.40650473 source_file=vasprun.xml step_index=690 time_fs=75380.0 time_ps=75.38 file_index=37 pbc="T T T"
Na       8.33160659       3.81601404      20.55686552      -0.00111949       0.45350012       0.15793056
Na       7.71172574       1.47644412      10.72724096       0.17688288      -0.50715058      -0.30296730
Na       5.71313681       3.90112158      17.05476925       0.52585454       0.41916408      -0.39836843
Na       7.60431688       7.68093612      11.55291909      -0.10991438      -1.31412611       0.39007556
Na       1.26407134       2.38888617      16.34667418       0.39971879       0.32557132      -0.44186240
Na       6.50945111       1.44735731      13.89989206      -1.37266921      -0.19087033      -0.59920314
Na       3.26054207       8.69940325      13.86353345       0.75111406      -0.36418776       0.81605765
Na       2.59466972       5.98597906       7.73011015       0.04272247       0.29402329       0.13161043
Al       7.22012884       5.24870263       9.17531404      -0.56000424       2.98218185       0.86710986
Al       4.64771678       2.85570129      11.62442456      -3.07146798      -0.85239671       0.20438275
Al       3.10906951       4.57650712      18.58095980       1.65430429      -0.07949603      -0.77974626
Al       5.18156439       7.19998796      16.02817557       1.86977678      -2.46339111      -0.02558090
Al       0.22563860       2.26514452      11.74390935       1.87919311      -3.22241391      -2.21746548
Al       7.93202856       9.64797498      22.88372207      -0.33625416      -0.61537639      -0.12749345
Al       9.50382429       7.70397827      15.81867619       0.84735559       1.21925213       0.68478713
Al       1.99077722       0.39178091       4.73430736       1.08389626      -1.67668782      -0.38152445
Si       2.50828613       5.77058373      15.45320206       1.23733233       0.07046123       4.19927170
Si       4.30335412       7.33082915      19.14842980      -0.07889957       2.05320315       1.59046145
Si       7.30355778       4.15508807      12.00699007      -1.97532507       3.28194489       1.66310256
Si       5.58202038       2.59778943       8.68454407      -1.38109348       0.42749296      -1.43654626
Si       0.94066578       7.23655264      11.95695361      -1.16732922       0.03437388      -0.96698455
Si       2.64065425       9.27404782       8.50727894      -1.78303956       0.08746987       2.14830478
Si       9.19678151       2.54586250      15.44992978      -1.24976566       1.37016035       2.42546497
Si       7.32402717       0.67113001      19.11764513       0.08896596       2.67001452      -0.28918927
Si       0.58650842       2.97775791       5.71946758      -3.08950266      -0.35306355      -3.51342202
Si       7.13454460       9.43879334      14.93870350       0.93347927       1.04278103       1.56181072
Si       9.60084507       7.01789161      21.89014372      -1.34286384      -2.21184710      -2.61239359
Si       2.82063896       0.57492738      12.79864703      -2.39068867      -2.81246260      -0.23583333
Si       7.69203976       5.36704632      14.85395826      -2.67640533      -0.50893514       2.88732708
Si       4.43857807       2.02796417       5.79428881       3.31732617       1.71299615       2.69959298
Si       2.12555784       4.55752636      12.68746227       2.18721639       1.31405947      -0.19407258
Si       5.46496420       7.86172075      22.00067276       0.45675504      -1.14270817      -2.01657176
O        8.63443406       5.56742695      21.98874371       1.26234237       1.68554557       0.81840986
O        4.09333961       1.33288971      12.38859482       3.22091924       1.79632437      -0.38279937
O        1.56306586       4.16563424       5.31365453      -0.96956674      -0.99476366       0.87647153
O        5.98582039       8.36728093      15.09070904      -0.84809622       0.57680598      -0.47778651
O        0.92538068       3.56370590      12.52011044      -1.59335560       0.90606296       0.17567065
O        6.36533417       9.18387201      22.23969573      -0.26107474       0.57914271      -0.34373783
O        8.78967284       6.54800865      14.67822682       0.78134749      -0.71517116       0.15030095
O        3.44266528       0.86743207       5.73387367      -4.19977282      -2.92104542      -0.44175769
O        3.89593173       5.75404070      19.62984161      -1.18881780       1.25039766      -0.56903578
O        3.76290441       6.69525119      15.14581782       0.86972081       1.04719692      -0.65009715
O        6.82487478       3.69593232       8.70314351      -0.96302378      -2.60923003      -0.71574024
O        6.29106973       2.87118584      12.09324647       1.45794911       0.17831748      -0.20802881
O        1.27624045       8.38950597       8.22786943       0.32799078      -0.67577162       0.59452577
O        2.12048334       8.36990483      12.09235767      -1.19589176       2.95574481      -0.47607152
O        8.39186408       2.01294941      19.28106163      -1.01531789      -2.09524073      -0.39793945
O        8.20671894       1.33895160      15.10149015      -0.54171688      -1.95098251      -0.03368388
O        2.87864297       4.91679710      16.91330462      -0.67824867       0.69785469      -2.47036154
O        4.86566965       7.32738027      17.68109049       0.09728654       0.01851804      -0.33194317
O        7.09754508       5.43980473      11.01538471       0.70660695      -1.21727170      -2.13381734
O        4.58118650       2.63983543       9.90257034       0.02302436       0.76788488       1.37552439
O        9.83408866       7.06400474      17.47027358       0.22046936       1.19890598      -0.00277029
O        2.27107322       0.50668999       3.00915650       0.23053319      -1.52000957      -0.60890339
O        0.15534540       2.16420278       9.92956140       0.15800297       0.73093622       0.24487918
O        7.40123969       9.65450921      24.58440552       1.60729782       1.10081518       0.88246134
O        8.90622635       8.26854891      22.53047948      -0.13887805       0.78757456       0.90588043
O        1.47963477       1.00600658      12.09596902      -2.17753039       1.03337344      -0.82655335
O        0.60927490       1.47318399       4.95790630       0.46118305       1.72974798       0.59423439
O        8.49911425       9.21330470      15.84461114      -0.91328379      -0.15433174       0.01936608
O        3.61137721       4.06757389      12.34214438       0.47101534      -0.48468232      -0.77732467
O        5.96951349       6.45521262       8.86607445      -0.70496795       1.66997017      -0.93519820
O        6.58537737       5.88110196      16.06987479      -0.35170427      -0.23639770      -1.88931907
O        4.23280803       3.10709265      18.48828730      -0.95724166       1.68947734       0.19683124
O        8.71984308       3.52436562      11.86939122       4.62668537      -2.00183373       0.71485574
O        6.25866475       1.15016828       8.60087242       2.16515424      -2.32783859      -0.41799679
O        1.26568398       6.79932584      15.70966731      -0.32677143       0.03550512       0.06858764
O        3.23615367       8.71581409      19.19279508       0.73887291      -1.62110645       1.20792788
O        8.02192029       3.79360577      15.75419564       1.46499207       1.30314050      -2.44503179
O        5.90808663       1.35760061       5.57978929      -0.55925772       0.86472497      -0.30468549
O        1.96270356       6.01796117      11.95741914       0.58719687      -2.68123121       0.43793801
O        3.84857845       8.13865213       8.56590452       0.55644200       0.10953172      -0.21032692
O        6.96339452       5.07150083      13.36628120       1.33425985      -0.64616350       2.02133816
O        4.48066525       2.60549261       7.44380976       0.21968691       0.45852970      -2.78662800
O        2.15255034       4.78311939      14.31098045      -0.82166695      -1.49837259      -0.40702076
O        5.49059280       7.67373610      20.25055636      -0.23700866       0.20473541       2.17815448
O        0.39528001       2.82853798       7.25899150      -0.08729806       0.19026580       2.16982578
O        7.63516750       9.35082346      13.36568278       0.68449725      -0.33075955      -0.38815060
O        9.70614413       7.21703407      20.17912613       0.40626169       0.08061031       1.29946122
O        2.47891021       0.77770454      14.45644868       1.19750871      -0.42985347      -1.21469837
80
Lattice="9.77192453 0.01751879 6.90363604 0.24348012 9.76890588 6.90363604 0.01370155 0.0133883 13.86910312" Properties=species:S:1:pos:R:3:forces:R:3 energy=-574.79143827 source_file=vasprun.xml step_index=555 time_fs=11110.0 time_ps=11.11 file_index=5 pbc="T T T"
Na       6.42444344       3.56050887      16.66981562       0.30232049       0.59673362      -0.19661583
Na       7.22418599       1.30963629      12.97430656      -0.17528348      -0.24576478       0.00507492
Na       2.94682107       4.20732328       9.48547783       0.05134049      -0.46294962      -0.34071574
Na       7.39344499       7.52466477      11.12110293      -0.32881968       0.65040368       0.31499333
Na       8.77881477       3.70053916      20.47601544      -0.64070555       0.22645012       0.28770176
Na       2.03350250       2.84684775      15.62504498       0.12305973      -0.92392879       0.13432179
Na       1.78590426       6.54688604       6.48201759      -0.05391424       0.51893154       0.01143284
Na       4.22892652       8.82373937      14.39351259      -1.17833275       0.25128118      -0.75533866
Al       7.70103822       5.53390952      22.87971100       0.13330077      -0.38626347      -2.85854296
Al       4.91095893       2.92295458      11.58559887       2.35567719      -2.30758802      -1.04342381
Al       3.30645675       4.62241678      18.48164083      -1.58111590       1.50647355       1.08745438
Al       5.85446115       7.04447799      15.86924165      -0.41553483      -2.92242383       0.24617830
Al       0.89911280       2.35148568      11.58143513      -0.54197835       1.16246643      -2.22613872
Al       8.17311944       9.66611312      22.81859596       0.29894620      -2.16175277      -1.71361992
Al       0.21383367       7.78315196       9.12666036       0.87696188       0.60739892      -3.07089509
Al       2.81861939       0.61463301       4.44532457       0.81607123      -0.23166455       2.89114619
Si       2.91067787       5.55839573      15.43369862       1.12026836       2.19532368      -0.83196056
Si       4.66622035       7.54655976      18.88872081      -0.39226319      -1.78006494      -3.66765332
Si       7.91811447       4.44460877      11.88151807      -0.21654578      -1.82909983       0.12982342
Si       6.28118058       2.66385591       8.50133431      -4.36846058      -0.67807956       0.64248638
Si       1.56846391       7.69322093      12.10856445       0.76097500       1.33238356      -0.34552919
Si       3.12968562       9.10649875      22.27512927      -0.40002883       2.27797057      -0.76271622
Si       9.78233365       2.35738796      15.33048978      -1.23975152       1.69999095       1.74652692
Si       7.69137686       0.91728454      18.83619499       2.46473581       2.03344475       1.13594966
Si       0.99658090       3.07860607       5.74250651       0.01672995       0.65258265      -3.13704853
Si       7.43170054       9.50636766      14.74867247       3.75260542       1.58328069       1.06278139
Si       9.95308335       7.13770509      21.75341615       2.93854200      -0.25570948      -2.86413587
Si       3.28889355       0.58802409      12.70758359       2.92412150      -0.93604002      -0.39719398
Si       8.47232053       5.35611763      14.70054400      -1.66663665      -0.95479096       4.25864853
Si       5.31515016       2.50924841      19.28849576      -3.08598649      -1.10634251       2.97461157
Si       2.28087467       4.66780837      12.57114849       1.70482972       0.84498392      -1.19547278
Si       5.91423362       7.99902955      21.57613487       1.29217085      -0.44198620       3.30207204
O        9.15754161       5.76224546      21.78780742      -2.04751061      -1.55929403       0.26623383
O        4.79445013       1.27695072      12.50699363      -0.41213362       1.55966427      -0.86441314
O        2.01877431       4.39513416       5.93993266      -0.57160591      -1.12322937      -1.15680307
O        6.22501095       8.56420349      15.17338851      -0.60479652       0.95094752      -1.35195655
O        0.80092100       3.99819958      12.36798722       1.24310940      -0.66384437      -0.30079490
O        6.79417066       9.38850080      21.64263679       0.24736476      -0.21583425       0.34450951
O        9.66232395       6.42203411      14.81412223       0.65962500      -0.01754882       1.54010965
O        4.59061407       0.92826776       5.12207468      -0.02309641       3.11421422      -0.04370566
O        3.75902457       6.21651364      18.85695087      -0.85292330       0.66780569       1.04572973
O        4.26625870       6.53931740      15.00014512      -0.18383873      -1.18148163       2.00099051
O        7.28989167       3.83298696       8.62263250       1.73709387       2.97000012      -0.36863942
O        6.61952311       3.45461730      11.95159664      -0.58796408       0.32442033       0.42807166
O        1.71365604       8.38514943       8.03203837      -0.08995014      -1.19548547       1.20373707
O        2.71061940       8.94510909      12.44155218      -1.28887060      -0.91230483      -1.71850412
O        9.23226777       1.57276101      18.74707989      -3.49173625      -1.68825032       0.57174348
O        8.99712267       0.94300815      15.02955920      -1.00873402       2.16430830       1.55433557
O        2.67238465       4.72060188      16.88465235       0.08643071       0.07362585      -3.56490204
O        5.53006695       7.45457420      17.50847987       0.29512261       0.26672278       0.47873644
O        7.93144424       5.51786176      10.67291638       0.54496116      -0.27850647       1.62199323
O        5.28634780       2.50912089       9.81668880      -0.59867297       0.66122441       0.15724179
O        0.60389535       7.68645172      10.76941528       1.07938753       0.20200528       0.27151946
O        2.87510386       0.25690528       2.80761621      -0.24454962      -0.03024819       0.18281141
O        0.86617859       2.65860634       9.79568310       0.26082347      -0.50390978      -0.58070670
O        7.24435407       0.04197555      17.55509360       0.50086649       0.48388125      -0.98355128
O        9.30871479       8.25847050      22.58247137      -1.91250412       2.03575173       2.60685899
O        2.13043294       1.36358249      12.04774760      -0.34967370       0.38709409      -1.31149316
O        1.72353259       1.99149378       4.77589059       0.75474005      -0.02133070      -0.99198114
O        8.75449096       8.83049233      15.42822044      -1.05343157       0.91266881       0.25742601
O        3.51920907       3.91443809      11.70110832      -1.65833773       0.92081452      -0.29545196
O        6.59198400       6.87486523      22.63289101       0.02686213       0.39334694      -0.83147067
O        6.99260456       5.53915855      15.53862389       0.31417883       2.05901462       0.44411461
O        4.75346930       3.77813532      18.31771240       2.22707763      -3.36087191       1.23971485
O        9.20977231       3.38995048      11.88348112       1.83893083       0.22289470       1.09248700
O        7.21001308       1.39995620       8.26810775       0.36742273      -3.58933113      -0.48658563
O        1.69485121       6.63701599      15.33492739       0.11937447       0.08462570       0.25884671
O        3.66114191       8.80008876      18.90150067      -0.82104234       2.21314809       1.50503287
O        8.82169379       3.82279441      15.26698736       0.50971153      -1.60882909      -0.30359746
O        6.92536718       2.45249637      19.17006091       1.17585635      -1.67734324      -1.76746833
O        2.36598806       6.25820898      12.14000148       0.15012294      -1.06815572      -0.20001897
O        4.45520915       8.11575522      22.31353308      -1.64277621       1.07338900      -0.27682131
O        7.99162896       5.33416544      13.23165056      -0.55743265       0.48741145      -3.33357601
O        5.20509072       2.83656428       7.18889109      -0.01710176      -0.21135777      -2.08431691
O        2.89139487       4.49154844      14.05172651      -0.58426125       0.12389245       3.61788698
O        5.58863777       7.39956334      20.15313741       1.83950654       0.02897335       0.44506841
O        0.86113836       2.30317871       7.09842470       1.15072974       0.13597732       0.49602514
O        7.81039899       9.66027836      13.13198008      -0.98049064      -0.69179155      -0.06386338
O        0.50459144       7.74739323      13.27683261      -1.77482587      -0.76216771       2.93899962
O        2.91402762       0.76261493      14.28162459       0.61186191      -2.72920643       1.45706717
80
Lattice="9.77192453 0.01751879 6.90363604 0.24348012 9.76890588 6.90363604 0.01370155 0.0133883 13.86910312" Properties=species:S:1:pos:R:3:forces:R:3 energy=-574.4973434 source_file=vasprun.xml step_index=265 time_fs=52530.0 time_ps=52.53 file_index=26 pbc="T T T"
Na       6.18447752       3.46152325      16.56544233      -0.49131482      -0.30002538       0.25666243
Na       8.29866200       4.00281598      20.28559247       0.41901933       0.20748347      -0.28016419
Na       1.22199773       5.78990734       6.99637961      -0.38879108      -0.12161207      -0.63404822
Na       3.50043383       8.62249752      13.94073773       0.23103197       0.03186919      -0.08297299
Na       9.69999121       0.22691533       7.00321108       0.22565591       0.38889263      -0.01818621
Na       6.85566873       9.56503890      20.28015472      -0.09251493       0.49159251      -1.02239685
Na       1.15306897       8.72453945      17.21691178       0.01665037       0.08576612       0.24778649
Na       3.43219802       5.73097029       9.59325686       0.42328079      -0.22350153       0.65871128
Al       7.52307328       5.06371804       9.01339984      -0.23282215       3.60590856       2.57633793
Al       4.59756737       2.99484890      11.34912959      -1.13742276       0.22197806      -0.65805782
Al       2.90420014       4.27843501      18.28545794      -0.23419606       2.09626652      -1.01139929
Al       5.45402847       6.86199967      15.93773590      -1.02819899       0.25324981       0.59519014
Al       0.39754547       2.35089134      11.52128428      -0.48271424      -1.57352531      -0.63832860
Al       7.96637887       9.58455552      22.95287319      -1.26153053      -1.95459385       0.44913425
Al       9.39111933       8.11817739      16.24345421      -0.94592913      -1.01288603      -0.64195449
Al       2.02457399       0.42354223       4.48885785       3.67543206      -1.89061352      -0.74475130
Si       2.60963650       5.80770524      15.47459186       3.25543062      -0.31393472      -2.43451186
Si       4.05893734       7.12029002      18.98077861       1.44361174      -1.24853846      -0.26969738
Si       7.46089028       4.12322821      12.08562466       1.69495526       2.08872757      -0.08584332
Si       5.82047857       2.62013638       8.31106573      -2.90453261       3.93023866      -0.67879533
Si       0.88888703       7.55563343      11.97076249       0.70123435      -1.41769082       0.20602597
Si       2.58675984       9.10210578       8.57729226       1.66190964      -2.46801232      -4.96333072
Si       9.27586828       2.49804342      15.31296616       0.51396078      -1.08766805       0.22535344
Si       7.45669782       0.73477094      19.05860362      -0.14431916      -1.03246637       1.08344356
Si       0.23227907       2.44512772       5.43639778       0.95941433       3.99299302       1.32686621
Si       7.04685603       9.44168766      15.08250916       4.69500433       3.36721261      -1.69727622
Si       9.80635092       6.89686763      21.92117354      -0.61054214       3.36977920      -2.02735562
Si       2.87714549       0.36824303      12.52197562      -1.56905344       1.15678564       0.69039062
Si       7.96601165       5.30466502      15.04087681      -1.53372580       1.75951167      -3.76561235
Si       4.62427274       2.24263114       5.41822492      -0.61268377       2.43393589      -0.59906668
Si       2.06141696       4.82739072      12.33236899       0.65857499       1.18190941       0.87520402
Si       5.41090976       7.47194650      21.85197150      -0.60612574       1.53635268       1.46767114
O        9.02790069       5.54539501      21.96772030      -1.54501096      -1.67331941       1.09617621
O        4.18158080       1.39115086      12.21995545      -1.60179854      -1.00140934      -0.61787117
O        1.44393029       3.67343924       5.09862348      -2.80918418      -1.93975509       0.35141144
O        6.18888618       8.22858077      15.16761279      -3.22191273      -3.34586175       0.52048754
O        0.77273253       3.83476869      12.25667807       0.12175592       0.69151009       0.53225869
O        6.15238014       8.88179967      22.20969811       2.59548227       1.17783042       0.60079688
O        8.77784401       6.59089166      15.45400917       1.67217470       1.44920244       0.63972977
O        3.28319254       1.38125380       5.29689423       0.03861500      -1.17060797       0.30963177
O        2.93438098       5.91712219      19.23409570       1.06549743       0.13046764      -0.31243060
O        3.82433730       6.99643415      15.35680880      -0.44159083      -1.98705972      -0.81699165
O        6.96870125       3.78376612       8.17258590      -0.03616953      -4.32282224      -1.62704994
O        6.01672339       3.46339806      12.12860481       0.24743185       0.50288419       1.23419912
O        1.07988133       8.51936472       8.47055998       0.33878318      -1.18951623       0.04672834
O        2.23241268       8.47475490      12.14998457      -0.65416718       2.85025923      -0.82725554
O        8.58362477       1.96249650      19.26128237      -0.08485618      -0.93039371      -0.49662875
O        8.03819190       1.42066391      15.31334459      -0.82849535      -1.52970707       0.17508812
O        2.70017602       4.61896566      16.52392315      -0.10466692       0.40729309       0.35602057
O        4.92858408       6.89307047      17.59220124      -0.12164904       0.48243158       2.69337858
O        7.59375308       5.19774629      10.80284421       0.42821361      -1.89807626      -0.41242280
O        4.92709083       3.16387363       9.56472690      -0.59192659      -0.91627629       0.93365047
O        9.35831292       7.92407052      17.94406780       1.80305859      -0.26066290       0.94365167
O        2.58830054       0.30707819       2.77705794       0.18610611       2.74121751       5.33599534
O        0.30752739       2.31360312       9.78612253       0.52057589      -0.26938576       0.13792294
O        7.98299864       9.39481151      24.76682728      -0.05606690       1.93686513      -0.60549000
O        9.11381706       8.27656231      22.51389178      -0.26566930       0.27858821       0.24329044
O        1.34077923       0.89163305      11.84455658       2.38696106      -1.00672632       0.70452306
O        0.55664257       1.10003033       4.72854112      -1.92805332      -0.44190302      -0.53556796
O        8.38599410       9.48918897      15.96764026       0.12048871      -0.14669724       0.20941295
O        3.37534875       4.34002626      11.56157692       1.00388337      -2.03268374      -0.56580227
O        6.16153708       6.18064046      22.41393145      -0.48782001       0.36197348       0.40203124
O        6.40347453       5.45806659      15.60264217       1.45835453      -1.13428753      -0.63723862
O        4.51515967       3.61240546      18.25634216       0.19405146      -1.86104440       0.95395376
O        8.36501557       2.72415697      12.27201858       1.12190118       0.50328376      -1.38327185
O        6.13888522       1.09754322       8.46996460      -0.53349504      -0.55262692      -0.00057162
O        1.52087363       6.95636900      15.64355268      -2.16274472       0.77159367       1.67530555
O        3.15292767       8.49044670      18.99420858      -0.16255245       2.13776233      -0.51077521
O        8.61561385       3.94532746      15.45648165      -0.40536303      -0.58415094       1.73040210
O        6.04001568       1.58865657      18.88804156       1.72078079      -1.75616637      -0.81295476
O        1.81921660       6.22071291      11.45042014      -1.72257750      -0.17811294      -0.18250528
O        3.76907254       7.82726840       8.50727154      -0.80984197      -0.34722641       0.25878532
O        8.23881691       5.11306409      13.29996926      -2.14651012      -0.10821934       1.12488448
O        4.87093619       2.89588662       6.87833421       0.80316698      -0.70162437       2.22324605
O        2.44305057       5.22560381      13.89560159      -0.44192859      -0.29022142       0.49916592
O        5.16238864       7.37514284      20.26988589      -0.54254409      -0.41385609      -2.70138654
O        0.44246019       2.44347397       7.08095215       0.08996009      -0.66262298       0.97809157
O        7.73681034       9.48643057      13.52201430      -0.68987325       1.76169639      -1.85860630
O        0.26801385       7.18532061      13.41018875      -0.49900643      -0.06173462       0.44341613
O        2.45685027       0.36755239      14.16581419       0.67118373      -0.99558630      -0.85578564
80
Lattice="9.77192453 0.01751879 6.90363604 0.24348012 9.76890588 6.90363604 0.01370155 0.0133883 13.86910312" Properties=species:S:1:pos:R:3:forces:R:3 energy=-574.09602272 source_file=vasprun.xml step_index=745 time_fs=19490.0 time_ps=19.49 file_index=9 pbc="T T T"
Na       7.88712600       8.53581144      18.23197277       0.09066446      -0.31639715      -0.09739359
Na       8.65849370       4.07149533      20.41153437      -0.16826422      -0.22313355      -0.08907079
Na       1.95357001       8.52179166      16.91927688      -0.33441724       0.26859885       0.54914516
Na       7.52797868       7.38427424      11.87667449      -0.09821775       0.32779834       0.07825442
Na       2.46993424       2.74520298      16.05524369      -0.17088993      -1.27138412      -0.23830065
Na       6.50442746       1.33743538      13.23181761       0.13090439      -0.22063661       0.86489484
Na       2.41398972       3.94579732       7.70514835       0.79108825       0.16570395       0.33134340
Na       4.20352514       8.36626162      14.05752143      -0.75981459       1.22130782      -1.36515734
Al       7.44466335       5.35641350       9.00255037      -1.86608827       1.47636642       0.26140345
Al       4.92875455       3.18063587      11.62825894      -0.91026251       0.95604265      -1.25518380
Al       3.25828836       4.77463318      18.20217654      -0.25221760      -0.23303397       0.56298126
Al       5.71243145       7.00155974      15.79544951       2.06456266      -0.00318592       2.18700041
Al       0.69911710       2.30654861      11.63709546      -0.78712832      -0.32357185       1.07046200
Al       8.01850709       9.70629263      22.90357480       1.68163840      -1.08771733      -4.40021038
Al       0.31924938       8.01438927       9.09560060      -1.13505229       1.42820932      -1.96693956
Al       2.83448635       0.55384895       4.62898466      -2.74605951       0.25468540       0.40746262
Si       2.80353296       5.68198878      15.05522095       0.10733266       3.32655518       3.30633922
Si       4.69173361       7.65789788      18.92959462       2.52993403      -2.69982508      -0.82161744
Si       7.75262022       4.36452769      12.19059985      -1.91999493      -0.11293810       0.36099951
Si       5.89166264       2.62788059       8.60828503      -1.05058421       1.05831981      -4.17379392
Si       1.36564599       7.81949137      11.99423509      -5.17018435      -0.87097805       0.11405629
Si       3.08849610       9.40261796      22.33702987      -0.47019559       0.73281274      -0.83181200
Si       9.38704035       2.61080538      15.44659482       2.99335458      -5.94721345      -0.29139566
Si       7.62685135       0.93699396      18.94630403      -2.53650900      -2.53690481       1.20931799
Si       0.76304363       2.92888411       5.53066835       1.80087460       0.01722043      -0.88448156
Si       7.30344119       9.52713402      14.89621496       3.38646993      -1.06101430      -0.01383108
Si       9.86282991       7.35597043      21.72614236      -3.51205979      -0.60624703      -1.09257780
Si       3.11938427       0.69117501      12.68087048      -0.48814677       1.06854116       1.37473940
Si       8.36101373       5.52617002      15.10868668      -1.12974541      -2.58083251      -2.10685686
Si       4.75821975       2.19957934       5.66936830       1.96592096       1.00860448       3.74497076
Si       2.27661164       4.80689344      12.30443974       2.99458274      -0.53733634      -3.00113901
Si       5.71853359       7.97405916      21.73316192       0.56802645      -0.33093602      -1.22765455
O        8.88632269       5.88060771      21.85740955       1.10904761       1.57990385       0.71655957
O        4.34903058       1.68927650      12.28679054      -0.56383827      -0.87794833       0.11966734
O        1.93929916       4.17852227       5.38003522      -1.86696763      -0.91556490       0.19882040
O        6.27749483       8.28925101      14.67521241      -1.41394318      -1.37671097       2.01090596
O        1.27568227       3.66114132      12.79079598      -2.73431396      -1.24700358      -1.88565387
O        6.61353916       9.35138190      21.87774176       0.06498200      -0.12915588      -0.46893701
O        9.56310475       6.46673895      15.28471901       2.44636012       2.19398575       0.86734410
O        4.04789174       0.75612551       5.90077817      -0.94241502       0.24487274      -2.08125198
O        3.59846996       6.46513793      18.55301232       0.73334938       0.28702474       0.29407191
O        4.17688527       6.50786999      15.14864593       1.35399542       1.18586216       0.82344250
O        6.97112126       3.81988025       8.21786188       0.66108348      -0.01378955       0.03851650
O        6.40100464       3.46415773      12.57500529       0.38022257       0.16381154      -0.16383334
O        1.71141209       8.67964047       8.24618738      -2.90122840      -1.72113313       0.50115963
O        2.54145578       8.81193113      12.23607956       0.78410258      -0.28437222       0.74190661
O        8.78066906       1.99409185      19.12537598       2.06657459       0.67658140      -0.22147162
O        8.45880418       1.26251594      15.09107397       0.37773352       2.13018175       0.61056611
O        2.70694119       4.85384981      16.45094401      -0.45924923      -0.47284476      -0.12464662
O        5.69545115       7.87895558      17.58708997      -0.99828780      -0.70229820      -0.93425990
O        7.25556188       5.15649304      10.83197973       1.82725335       0.53292020      -0.61127984
O        5.21007267       2.97776727       9.92319735      -0.71502321      -0.00229356       2.42513309
O        0.28023719       8.16933002      10.80921668       1.48444006      -0.39805232       0.46608858
O        2.85624286       0.43035553       2.92148799       1.50761922       0.61701311       1.32308103
O        0.54615993       2.35507454       9.93552213      -0.48206908       0.50552534      -2.25274562
O        7.76129822       9.65491096      24.48828870      -0.45839506       1.91167364       6.08648639
O        9.48563644       8.50165050      22.82249521      -0.99049583      -0.15274585      -0.37997896
O        1.58734956       0.87577047      12.06596305       2.23343016      -0.51932640      -0.13504598
O        1.27524969       1.67534144       4.54923243       0.88951133       0.77628326       1.69403787
O        8.70700995       9.27081043      15.79696670      -1.71178056      -0.87395926      -0.84242690
O        3.52815738       4.23677912      11.35073157      -1.67646507       0.78564627       1.07195249
O        6.22567240       6.88935691      22.75471717       1.91160750      -2.60573109       1.17491714
O        7.04113203       5.76967864      15.91067494      -2.78070222       1.63455170       0.83129861
O        4.41123825       3.40005580      18.53967213      -1.50179306       1.03150648      -1.32443232
O        8.98805393       3.30174867      12.03977215      -0.21307470       0.67514101      -0.72249259
O        6.43803441       1.10531612       8.58374568      -0.25532567       0.45440719       0.06048497
O        1.65304157       7.15051353      15.11523863       3.55543390      -3.48061267       0.06206838
O        3.90924450       8.94854936      19.40196863      -0.87155014       0.47243034      -1.19741829
O        8.75937048       3.96572741      15.53489887      -2.47388112       4.73704989       0.17714063
O        6.32275283       1.91368355      19.16979862       0.49640931      -0.36437563      -0.59278366
O        1.84129906       6.28343046      11.70344059      -0.00051931      -1.05984186       0.83017285
O        4.15142020       8.32471225      21.91083856       1.73701500      -1.55035405       0.79507394
O        7.98001636       5.48348847      13.41593395       0.45209043      -0.32902939      -0.17700344
O        4.59849062       2.71932376       7.33070196       1.81057595       0.16901143       0.06844901
O        3.04290134       4.95748091      13.69855012       0.04093746      -0.05553390       1.09106491
O        5.83983938       7.27050067      20.16592254      -1.37081456       1.28583343      -0.40138045
O        0.61916009       2.71751119       7.16187262       0.62897453      -0.50356335       0.71402659
O        7.64282418       9.52595048      13.29211817       1.53902316       2.08567584      -3.05154008
O        9.76497622       7.84171113      20.11013421       1.88169990      -0.51193971       0.38653134
O        3.03769585       0.82015024      14.34332966      -0.17986509       1.67164791      -1.18832237
80
Lattice="9.77192453 0.01751879 6.90363604 0.24348012 9.76890588 6.90363604 0.01370155 0.0133883 13.86910312" Properties=species:S:1:pos:R:3:forces:R:3 energy=-575.33251127 source_file=vasprun.xml step_index=70 time_fs=20140.0 time_ps=20.14 file_index=10 pbc="T T T"
Na       7.74000122       6.79424151      18.05971930       0.18879515       0.10548774       0.58658897
Na       8.84835453       3.88798615      20.92636778       1.79057602      -0.44463547      -1.06460342
Na       0.97972717       8.87226999      18.81920255      -0.72800105      -1.77042089      -0.30536909
Na       7.60013454       7.51183361      12.96514098       0.01198055      -0.14999945      -0.25514405
Na       3.71482604       2.50315194      16.33419774      -0.07503164       0.33639989      -0.25305253
Na       6.97404683       1.42779965      12.72545442       0.59876875      -1.13277184       0.88282974
Na       2.76072560       3.64791460       8.58547435       0.35507976      -0.17100411       0.40351035
Na       3.80244888       8.59874955      13.48616803       0.51014095      -0.56359207       0.75878820
Al       7.52773852       5.73161073      22.86745427       3.17226850      -2.28720814       1.36951358
Al       4.84945101       2.90158839      11.30969740       0.01411577       0.29774818      -0.65734120
Al       3.08836742       4.82399467      18.42310781       1.23349113       0.52236107      -0.73777661
Al       5.79076357       7.48859661      15.99292804      -0.67503408       0.26934045      -1.77439958
Al       0.51033015       2.30500925      11.54675769       0.09668908      -0.16498944       1.88984116
Al       8.38904052       0.05601167      15.62367060      -1.00800191       0.63503898       0.74222997
Al       9.88450878       7.90885226      15.68156085       0.01524926       0.03753907      -2.26541753
Al       2.07165632       0.39497888       4.75683765       0.93917650       0.10520875      -0.29414031
Si       3.13217654       5.84341086      15.21381282       1.18612133      -1.36158396       2.00190332
Si       4.68428015       7.76892198      18.84853986      -4.71501052      -1.99221810       4.34199263
Si       7.63556318       4.29593198      12.08160551      -2.28201043      -0.17508859       1.45122089
Si       6.19291841       3.04310494       8.24871739      -4.10893300      -2.74016360      -0.31421064
Si       0.98912165       7.29780830      11.89554518      -1.64290807       2.09652345      -2.06734220
Si       3.04115046       9.28099598       8.54680445      -2.73441819      -0.21882008      -0.39675258
Si       9.58756105       2.73970843      15.51169950       0.82555219       1.75168749       0.88477998
Si       7.56351524       1.18246905      18.66891490       2.98660771      -1.29564916      -0.10957268
Si       0.68248071       2.92952680       5.76553933      -1.23289969       4.01243080      -0.32884877
Si       7.10947446       0.08065642       7.71043331      -1.65942535      -0.97777696      -0.63210544
Si       0.20829891       7.12461676      14.74720927       0.60707423      -0.04785185       0.32549961
Si       3.02285389       0.55170642      12.70489803      -1.79933771       3.38008857       0.27169241
Si       8.09222574       5.51147118      14.99541814       2.56900257      -0.64490099      -1.86342093
Si       4.57513778       2.12596066       5.60910980       2.16523469       1.05689052      -1.23792965
Si       2.42521483       4.49393262      12.54985060      -1.19647274       0.09202536      -1.16349161
Si       5.89291131       8.39517564      21.84807103       2.46509076      -3.15301443      -3.50906553
O        9.31937172       5.86263036      22.34105012      -2.97986521      -0.81429073       0.01766262
O        4.06942880       1.53533746      12.04949934       1.84285151      -0.48297236      -0.07122468
O        1.61189581       4.12650941       5.13678900      -1.31552974      -0.50063295       0.47310174
O        5.79044239       8.90422501      14.77250735       3.29935610       1.38497261       0.21509462
O        0.99114878       3.61862521      12.62125089       1.68962147       1.11848324       0.06271687
O        7.14103143       9.42134003      21.71408288      -1.49479799       0.62382666       0.51369307
O        9.38126293       6.53778733      14.56709761      -1.04454131      -0.27813238       1.19090340
O        3.53968135       0.88319108       5.77415557      -0.30273679       0.39558782      -0.63481682
O        3.84837084       6.29211620      19.04830020       1.22550269       1.65479463      -0.24136455
O        4.51016122       6.69617643      15.02618063      -0.78816083       0.53322885       0.15953560
O        7.12234733       4.27398106       8.01429977      -0.38359689       1.53100815       1.22678713
O        6.21297251       3.35727731      12.39487089       0.57584923       0.67089595      -2.38006675
O        1.69832692       8.47065575       8.08643289      -0.54922327      -0.41091073       0.43194790
O        1.97959353       8.55105472      12.13254869      -0.09910596      -0.10581271       0.40901619
O        8.53296223       2.46349512      18.91241966       0.34218915      -0.23442427       0.54971543
O        8.74862746       1.58009697      14.87202856      -0.85783530      -1.29222364      -0.43867663
O        3.27422634       5.11790011      16.70168210      -1.01155060       0.10855029      -1.68719535
O        5.64026513       8.06897702      17.68465936       1.63155274      -0.49327484      -4.85093279
O        7.65272732       5.23656700      10.76457610      -0.26728833      -0.09345144      -0.37561818
O        5.02419122       2.93732104       9.44224425       1.79693919       0.30587920       1.08257282
O        9.87208256       7.36629326      17.30080866       1.06021878      -0.02581801       3.15466107
O        2.51153640       0.11035089       3.08311370       0.09651484       2.11724335       1.04399613
O        0.84939417       2.36238525       9.87739853      -1.15285219       1.01550755      -2.33373161
O        8.27252804       0.53041947      17.31805367      -1.09241073      -0.59116953       1.39097262
O        9.65245560       8.47533723      22.50074564       1.09636240      -0.59389113      -0.44517251
O        1.48360973       0.91545586      12.13768739       0.61297938       1.48610114       0.84201865
O        0.86070175       1.49995135       5.24262394       0.69658769      -2.63108967      -1.21221047
O        8.38590318       8.94184741      15.40939143       1.29507453      -0.25986352       0.99083637
O        3.45366498       3.86591985      11.40203449      -2.16002019       2.70720530       1.29435880
O        6.58580818       6.97117764      22.43656737      -2.65624042       3.49954697      -0.80611722
O        7.05807171       6.19198539      15.99243426      -1.10177441       1.22364013       0.71124640
O        4.10369646       3.37074051      18.49230772       0.48800586      -1.84173282       0.40374493
O        8.79213492       3.14386430      12.26249775       0.62425189       1.01696340       0.10602295
O        7.11706708       1.67974727       8.13133916       0.18557955      -0.79729405       0.29135537
O        1.76246064       6.62062153      14.94072008       0.12878676       2.09617220      -0.41395805
O        3.37690108       8.85084403      19.12561274       1.03033781      -3.81206424      -1.66617256
O        8.64256885       4.11416463      15.75073942      -0.07488877       0.12740909      -0.43378217
O        6.05072482       1.47958783      18.75055360      -4.55119442       1.26619613      -0.04454433
O        1.87459482       6.03303824      11.95510155       2.30627960      -3.85196372       0.63756153
O        4.46137913       8.56085894      22.54176991       1.63216632      -1.14957025       0.43895254
O        7.40546880       5.32096138      13.42585580       1.08993591      -0.46834657       0.74481170
O        5.12773002       2.89310013       6.94724696      -0.22617691      -0.22467263       0.20796424
O        3.03624693       4.64585021      14.09555357       0.18022889      -0.76610454      -1.64441279
O        5.70630491       8.17247917      20.01906322       0.75902298       0.03498685       4.27840986
O        0.83445091       3.12665853       7.38321822       1.04102900       0.37003061       0.04759052
O        7.89870936       9.75878473      12.99261610      -0.03208243       0.43577354       0.01426876
O        9.63385043       7.38584156      20.00019041      -0.33614611      -0.62932705       0.93139275
O        3.15800710       0.63446773      14.37237900      -0.14019143       1.24171641      -0.83635788
80
Lattice="9.77192453 0.01751879 6.90363604 0.24348012 9.76890588 6.90363604 0.01370155 0.0133883 13.86910312" Properties=species:S:1:pos:R:3:forces:R:3 energy=-574.11676178 source_file=vasprun.xml step_index=905 time_fs=85810.0 time_ps=85.81 file_index=42 pbc="T T T"
Na       8.23405665       4.05147260      20.50939214       0.27122100      -0.31128899      -0.37351045
Na       8.65444653       0.65386812      10.56333894       0.26365013       0.61887478       0.41367482
Na       5.43293819       4.74239399      17.09353471       0.08389538      -1.27178839       0.57822006
Na       4.01587936       6.84338310      11.37337925      -0.17613290       0.39547420      -0.23707767
Na       2.39908693       2.51378911      15.31178714      -0.02230049       0.16928967       0.09086497
Na       6.31350659       0.73741617      13.51035001      -0.21341675       0.32408338       0.10060586
Na       1.84664566       5.53117748       7.38109338      -0.33430425       0.20177302       0.41376335
Na       1.62557588       8.39709480      17.84208110      -0.84450145      -0.10379837      -0.38988933
Al       7.27441946       5.33130849       8.92430851      -1.11070354       1.21914776       2.73066187
Al       4.71844569       3.36234154      11.82464664      -0.82287606      -0.51448248       0.80974160
Al       2.85957191       4.82552141      18.60189067      -0.19781389      -0.85920422       2.50794910
Al       5.38733114       7.18238342      16.29648073       0.37142869       2.38308948      -3.22935893
Al       0.09921393       2.48781585      11.62917524       5.55541150       1.27802602      -2.54392812
Al       7.97446411       9.61119136      23.10551902       1.53501294      -0.59702297      -0.92145345
Al       9.70777448       7.92229717      15.96703095       1.26428302      -1.82277892       1.27123200
Al       2.26917991       0.76922016       4.64770836       0.09638312      -1.07700466      -0.16397993
Si       2.67943337       5.64087513      15.60739802      -2.27509136      -0.30746615       1.20253433
Si       4.17246911       7.68147517      19.22262194      -2.14404337       0.41622036      -1.02568413
Si       7.45638379       4.49696259      12.32676852       2.19944731      -1.45095025      -4.45332242
Si       5.91170819       2.64605220       8.88250169      -1.31911376       0.53081468       1.28486871
Si       0.89177571       7.79812184      12.04931150       3.80699083       0.25193033       1.17065238
Si       2.83706067       9.33786283       8.64885147      -1.04115312      -1.02369312       1.78059928
Si       8.91373591       2.52897134      15.30908387       1.51910622       0.49795050       5.48994963
Si       7.35140664       0.95007786      19.14439296      -2.44000627      -0.56492968      -1.74855096
Si       0.41481089       2.93337105       5.87292475      -1.47084682      -0.95799252      -4.46645739
Si       7.07470553       9.53137619      15.19159367      -2.21191319       4.24088351      -1.99873722
Si       9.77631491       7.16136102      21.99295244      -0.90689144       0.42454388       3.19450107
Si       2.95435863       0.98457163      12.65340294      -0.47330090      -4.06724318       1.69954205
Si       7.97246515       5.49822877      15.00612153       2.30796232       1.38789826       1.31028240
Si       4.76984597       2.44128373       5.93796869      -1.58467357      -0.44786659      -0.46365985
Si       1.91953552       5.01714905      12.68759269      -1.02488187      -2.44595164      -2.40026767
Si       5.46203652       7.85748574      22.11614576      -1.17398194       0.25799087      -1.10936699
O        8.66603520       5.90102555      21.84446178       1.38166884       0.82313905       0.06931321
O        4.29727010       1.79341438      12.74254099       1.05595046       1.96442664      -1.23997943
O        1.65394992       3.87810082       5.70839425       1.29677018       3.17615342      -0.72927032
O        5.68843888       8.76938823      15.29835722      -0.52686687      -3.05680281       1.55374797
O        0.70313026       4.06197716      12.13745432      -0.80671689       0.82962583       1.16418075
O        6.71744822       8.91750456      22.13107938      -1.78559582      -0.80771629       0.28378302
O        9.46400745       6.29846192      15.27864397      -1.49807925      -0.26448514       0.73715190
O        3.71749489       1.20843816       5.49690261       0.49738920       1.54727464       0.64137134
O        2.84833857       6.53199218      19.38001621       1.94840003       0.72768043      -1.23756212
O        4.07917827       6.28887127      15.44376296       2.16340419       1.62979580      -0.25135320
O        7.12742751       3.66080801       8.63639543       0.65977847      -0.11924685      -1.45852854
O        6.26795992       3.47590342      12.72623318      -1.08230012       1.21433988       0.08096287
O        1.45817233       8.41899387       8.38320108       1.16033577       0.54927257       0.56134251
O        2.14576047       8.78200183      11.59129098      -0.55069759       0.18975325       1.95457934
O        8.63904003       1.80249485      19.23507480      -0.93855700       0.33366982       2.81562266
O        8.13986773       1.20470418      14.99874749      -2.27708412      -2.18955773       0.65918770
O        2.91228628       4.61689692      16.88038825      -0.22810221      -0.65942850      -0.43646026
O        5.19916187       7.16985907      18.01224777      -0.97187350       0.18898828       1.05354580
O        7.36503937       5.15087796      10.78566063      -0.88019289       0.98544841       0.43811230
O        4.96740412       3.03096359      10.14784763      -0.10988921       0.64257507       0.25884835
O        9.58614217       7.96858445      17.86850869      -2.55443630       0.21508881      -2.88487429
O        2.44178555       0.76193458       2.88038931       0.16106438       0.06734774      -1.04699937
O        9.75631111       2.33531708      16.81711965      -1.53368338       0.43642488      -1.95378637
O        7.69275740       9.69210892      24.78621808      -0.45814701       0.71644392       1.02482353
O        9.19905509       8.28879763      23.08396807       0.94537913      -0.55063614      -1.29534898
O        1.54581768       1.61105980      12.35087105      -0.17673264      -0.13995436      -0.76916853
O        0.77697560       1.63584758       4.93399800      -0.36223739      -0.58455036       0.22193259
O        8.43861475       9.01166002      15.76990149      -0.18301974       0.34808519      -0.36460623
O        3.35833440       4.59174638      12.19621519       3.85479067      -1.72394884      -1.33524484
O        5.78127618       6.24735825      22.11621516       1.12551982       0.66624960       1.38631564
O        6.73363769       6.11492157      15.89574125       0.83596253      -0.39258847      -0.57527665
O        4.24179710       4.00170007      19.36438097       1.33219013      -0.95296508      -0.74823366
O        8.73624064       3.40395928      12.03824378       0.75838002      -0.06784521       1.44475074
O        6.50324365       1.21127490       9.18498832       2.26438937      -3.23988165       0.32240378
O        1.45770382       6.64774097      16.11936082      -1.40962948       0.60648539      -2.28406258
O        3.44611203       9.19720784      18.83992945      -0.24636921      -0.26327813      -1.14319180
O        8.02942543       3.91127418      15.35977905      -0.39925151      -0.57986601       0.52459422
O        6.14881559       2.06909363      18.91094895      -0.84435798       1.46207816       0.06815614
O        1.78749389       6.38913451      11.84795929      -1.08224246       0.92799171       1.21605632
O        4.07057372       8.25765113       9.26741131       1.16822752       0.12966121      -1.98458990
O        8.10896586       5.52425645      13.38776082      -1.64067985       0.99574422      -0.08310037
O        4.98519267       2.51670669       7.59685221      -1.02492812       0.03581829      -2.96315651
O        2.08671880       4.81959682      14.29336033      -0.32389494       0.49391766       1.88675433
O        4.83870035       8.24066581      20.55625607       1.49088922      -1.41351237       1.67688841
O        0.32810700       2.59776237       7.39656477       1.41223050       0.33904476       0.22975806
O        6.91146608       0.40968989       6.69022894       0.20723736      -2.68105043       3.36687036
O        0.28329324       7.80667884      13.62897055       0.81112047      -0.30369372      -0.83837103
O        2.91324745       0.40664442      14.27456471      -0.09000836       0.95137870      -0.51758531
80
Lattice="9.77192453 0.01751879 6.90363604 0.24348012 9.76890588 6.90363604 0.01370155 0.0133883 13.86910312" Properties=species:S:1:pos:R:3:forces:R:3 energy=-574.2194679 source_file=vasprun.xml step_index=640 time_fs=15280.0 time_ps=15.28 file_index=7 pbc="T T T"
Na       7.50877596       6.31988863      18.80282366       0.14466405       0.52428155       0.09826345
Na       8.71460133       2.74303779      21.79159880       0.90585103      -0.90638443      -0.42794725
Na       1.45466701       9.72619785      16.91969666       0.55686794       0.29226025       0.53461104
Na       8.10244244       7.41799082      12.28949199       0.19372340       0.21851099      -0.38356909
Na       3.41126699       2.78073782      15.37258800       0.15916209      -0.24477856       0.32212518
Na       7.05245310       1.03938096      12.94931539       0.03220684       0.08008446      -0.33144463
Na       3.56244103       5.07882114       9.45376608       0.36387285       0.31723067      -0.79931858
Na       4.10335446       8.65950446      13.76482032       0.10166735       0.22103140      -0.25003389
Al       7.38006554       5.49766421       9.04043243      -0.39132624       1.13353520      -0.15725835
Al       4.95709187       2.96168287      11.27443437      -0.87707597       1.95020437      -1.85224223
Al       3.02540990       4.71535759      18.41052404       0.17843254      -0.06456432       0.93742048
Al       5.57640233       7.12667375      16.09238218       2.86329627       0.95664728      -2.59631750
Al       0.65344597       2.50763902      11.51105185      -1.93978304      -1.35944835       0.07351875
Al       8.34823333       9.62236826      22.81509055      -2.73200736      -0.30710057      -0.13887164
Al       9.87816541       8.01097089      15.92175990      -1.38405369       1.60559378      -0.02617368
Al       2.48833012       0.50361396       4.50173618       1.03205463       2.57424956       1.31994163
Si       2.85804517       5.65463469      15.42371646      -0.79485818       0.79508455      -1.61995501
Si       4.50377019       7.58701654      18.89499056       1.70677911       0.42860342      -0.24879743
Si       7.74060398       4.36045291      12.02754851       1.92346602      -1.50042838      -2.85161792
Si       5.93428489       2.77342991       8.26674908      -1.02577904      -1.97558590       2.72759398
Si       0.94924360       7.82858878      11.95653957       1.13804055       0.29460934      -0.36803092
Si       3.05474801       9.53403467      22.41265528      -2.30865225      -2.32353175      -1.68633626
Si       9.19375308       2.56309482      15.35489223       1.42001288      -1.50145951       0.50002358
Si       7.63241684       1.02463502      18.91474980       2.56998612      -4.04442072      -0.47922727
Si       0.55886335       2.86865731       5.72182094       1.75453370      -0.25239869      -1.80515781
Si       7.36498526       9.62328874      14.71300378       1.37296741      -1.43683695       0.89702474
Si       9.85963801       7.25041116      21.67315877       0.29156518       3.51315661       1.59583116
Si       3.20308134       0.76435519      12.57446212      -1.93597182      -0.28732571      -0.21623868
Si       8.23041821       5.40578763      14.99811502       0.50450125      -0.05244022      -0.87845844
Si       5.06270287       2.46953454       5.32513792      -1.96488167      -0.44940340       0.18274374
Si       2.49711938       4.90821507      12.31519174      -0.65450597       0.70636820      -0.37918931
Si       5.53815254       7.80156543      21.78260113       1.97801759      -1.91152845       3.42113899
O        8.48279116       6.59501512      22.07480931       0.61792687      -2.57409383      -0.65762293
O        4.48902398       1.70307332      12.28509148      -0.34074879      -1.83264973       1.36904722
O        1.63296597       4.01908994       5.32396992      -0.06840140       0.67604097      -0.00488533
O        6.10403214       8.68932073      15.06017368      -1.21761332      -2.05187114       1.05422949
O        1.16788559       4.10534913      11.85954036      -0.29080247      -0.57144767       0.59875224
O        6.88642182       8.59938097      22.22032714      -0.12815666       2.54466449      -0.53985794
O        9.46463152       6.44295473      15.04396161       0.51551270       2.20195091       1.71322071
O        4.13139305       1.15935280       5.28149829      -2.07981002      -1.30324000       0.45829886
O        3.48121107       6.36917136      18.96571657      -0.23448155      -0.41546254      -0.64904224
O        4.09013647       6.68434167      15.39798114      -0.29979422       0.31306915       0.02650476
O        7.02788513       3.85776527       8.61140723       1.43530258       0.65911854      -0.21834345
O        6.28578920       3.64341304      12.13359116       1.36578072       0.32371094       0.05041271
O        1.59414188       8.84894887       8.73253516      -0.06239729      -0.53343198       0.62100988
O        2.32263453       8.77288817      12.18701621      -0.98208739       0.18674652      -0.45916398
O        8.83759203       2.01444749      19.30786106       2.21172271       0.76507113       0.37096803
O        8.06444335       1.41585623      14.82242659       1.21168952       0.14840671       2.07939318
O        2.76020127       4.69569695      16.68979845      -0.36866655      -0.02910758      -1.69885475
O        5.79002832       7.52582915      17.73467442      -2.12644087      -0.23924987       1.31883218
O        7.93575824       5.38088767      10.64470279       0.03167313      -1.15187334       4.03944853
O        4.78662250       2.70795589       9.46377521       0.97152561       0.30496281       0.91242818
O        9.48752815       8.17171958      17.78302735       2.36465457      -1.51416358      -1.88558924
O        3.38299557       0.49617291       2.86851862      -0.85677696       2.34669019       2.34566276
O        0.22967241       2.11329098       9.83298706      -0.19526667      -0.60300700      -0.44572061
O        8.08533263       9.71127738      24.56817479       0.42974688       1.15291849      -0.01060959
O        9.80458919       8.70114953      22.70995792       0.66338948      -2.02895711      -2.24625944
O        1.77421738       1.23651357      11.96638010       0.59526533       0.49213817      -1.24275982
O        1.01414763       1.45491905       5.12344191       2.15444177      -1.74084934      -1.64141895
O        8.85427639       9.40175085      15.33185232      -0.78458086      -1.30356153       0.35618161
O        3.76517946       4.27390231      11.45192784      -1.36300661       1.33870455       0.97249996
O        5.91245582       6.33817498       8.82786203      -3.13290349       1.51278741      -1.55615049
O        6.76194507       5.90405200      15.47253164       0.38807209       0.06892687       0.33479978
O        4.43766724       3.68059289      18.33748721       0.47690891       0.41035553       0.24768634
O        8.85966987       3.01175372      11.91274743      -2.18767395       1.79756215       0.04536913
O        6.74889954       1.34948014       8.14637104      -0.34864034       2.62419515       0.93742564
O        1.56432830       6.59449784      15.16643514      -2.22997842       0.98668726      -0.15783393
O        3.70431613       9.05029505      18.82798568       0.57052963      -1.03193068      -0.10133945
O        8.71907723       4.03514479      15.77041710      -1.84664175       1.32368905      -0.13707211
O        6.49489054       2.01471156      18.60884896      -1.98260969       2.02146016      -0.78808617
O        1.94981946       6.47314760      11.94120783       0.26217248      -1.67567606      -0.17175078
O        3.98363884       8.23311726      22.22402106       2.68253017      -1.34771504      -1.25087879
O        8.39555944       5.09745654      13.31071970      -1.69006040       0.93118193       1.01686713
O        5.27986737       2.98474947       6.88604631      -1.40927984       0.87979415      -2.73645711
O        2.81030477       4.83782135      13.95781557       0.63744769      -1.10584416       0.00472829
O        5.57157051       7.57664325      20.16781603      -0.38797696      -0.04439378      -0.10775755
O        0.60607430       2.72954880       7.32408362      -0.95261559       0.01473766       1.17922137
O        7.59119786       9.55525658      13.11499161      -0.17195693       0.84739834      -2.02234938
O        9.63307093       7.81155958      20.08115975       0.91299051      -1.30969890       2.78750888
O        2.64399028       0.68655016      14.13549422       2.02727977       0.51010305       0.73838565
80
Lattice="9.77192453 0.01751879 6.90363604 0.24348012 9.76890588 6.90363604 0.01370155 0.0133883 13.86910312" Properties=species:S:1:pos:R:3:forces:R:3 energy=-574.06506582 source_file=vasprun.xml step_index=380 time_fs=40760.0 time_ps=40.76 file_index=20 pbc="T T T"
Na       9.17720091       1.63203186       9.57409366      -0.50166886      -0.03000930      -0.52268778
Na       3.84392448       2.32105776      14.68145967      -0.36800946      -0.19213928       0.18521401
Na       7.28911578       7.19727805      11.49049862      -0.07549222       0.52477534       0.02164251
Na       1.82634390       7.90366824      17.30444718      -0.46413788       0.23710675      -0.59283985
Na       7.70454546       8.21536520      18.45031915      -0.40593443      -0.16361761      -0.15716932
Na       6.84279008       3.32288036      18.10333825       0.76940701       1.08806269      -0.39030830
Na       1.46917962       7.04688591       6.63322628       0.05237869      -0.62276266      -0.03445984
Na       2.69270505       2.70984298       8.17514545      -0.25897677      -0.20071450       0.26161187
Al       7.23783794       5.18107218       8.77975233       0.15885928       0.34480121      -3.85145022
Al       4.73843475       3.13169629      11.61495994      -2.07669307      -1.36571158      -2.33538210
Al       3.09409027       4.36067948      18.48650084      -1.22289221       1.10340686      -0.24647633
Al       5.63589665       6.95421847      15.67019105      -1.06328275       0.94150809      -1.58978282
Al       0.50115751       2.04845868      11.13271082       2.11432720       0.44798473       2.48041814
Al       8.05027265       9.44202187      22.82296964      -0.52594918      -1.00019998       2.62074016
Al       9.57892226       7.50514176      15.98728722       2.15460907      -1.29777664      -0.42088070
Al       2.38449262       0.34150973       4.07965471      -1.44988113      -1.57664910      -1.27348705
Si       2.72392476       5.39358201      15.38283693      -1.86496129      -1.34017687       0.80951451
Si       4.48103704       7.34511747      18.69546477       1.35272592      -0.20709743      -2.71305470
Si       7.68703363       4.27761101      11.82254047      -1.58021682      -4.04186599      -1.39070963
Si       5.73011604       2.42194411       8.55890019      -1.40404340      -1.85177961      -1.35711108
Si       1.07611808       7.46426685      11.97883581       3.75702324      -0.70588657       1.43938640
Si       2.80637814       9.00320683       8.35443373      -2.34830154       0.36188499      -0.77678021
Si       9.10809329       2.30552022      15.15557338      -1.57374057      -1.57382884      -1.79894113
Si       7.77121701       0.80190967      19.03897329       0.12946338      -3.91575097       2.42973329
Si       0.52264589       2.60791185       5.30284360      -1.22116286      -1.43000239       2.11833661
Si       7.33207441       9.44240432      15.00259766      -0.75460118      -1.85083568      -1.61695349
Si       9.70841254       7.20554562      21.80074697       1.08256891      -4.52232859      -0.00880038
Si       3.09140764       0.33603382      12.24829965      -0.69685766      -0.63197003      -0.65292818
Si       8.12681304       5.25558235      14.59438056       2.56890547      -2.15396229       2.73458689
Si       4.79319279       2.06731079       5.50180765       0.26538512      -4.24879015       4.66495264
Si       2.14671632       4.52474347      12.51129473       1.57370625      -0.74260490       0.05738781
Si       5.51713300       7.80621496      21.73565985      -0.10952725       0.34823383      -0.07254385
O        8.59198101       5.99359188      21.69052373       0.30285122       0.54814659      -0.03059767
O        4.11632413       1.58606671      12.38820819       0.14415156       0.01041858       0.13211714
O        1.40941126       3.90234801       5.57602135       3.10097060       1.26330681      -1.58267914
O        5.98885526       8.50088811      14.75763327       0.68784942      -0.19692273       0.49630703
O        1.07612939       3.60560911      11.80572555      -0.95813974      -1.56176143      -0.22778875
O        6.46096726       9.07563142      22.26242082      -1.71409178      -2.21648410      -1.09751072
O        9.55068329       5.97335136      14.92554899       0.53847816       1.74092965       0.37451581
O        3.54588286       1.24062743       4.86063912       2.86677722       0.70401809       1.43828697
O        3.35375476       6.11995710      18.89514703       0.66335190       1.07680189       0.54108755
O        4.07636622       6.18370060      15.22347691       1.32380060       1.18316061      -0.41506208
O        6.77884427       3.52571343       8.23031083       1.47929101       3.22227421       0.31692402
O        6.28945370       3.46040571      12.18554930       1.45699386       1.26068396      -0.22313327
O        1.32701055       8.24398094       8.54960010       1.14989343       0.33007850      -0.80504638
O        2.47254482       8.29141223      11.47475643      -1.96571985       2.50149437       0.14580617
O        8.72996984       2.06052077      18.88852332       0.68553577      -0.41991030      -0.74756110
O        7.95789548       1.15029343      15.18581596       0.78321408       1.49888951      -0.76965086
O        2.83352366       4.49945738      16.77588935       0.01602356      -0.64251327      -0.22004995
O        5.55741341       7.24299262      17.34091840      -0.81704136      -0.50341288       3.85985342
O        7.73042672       5.03607156      10.37946683       0.20000409       0.47626378       2.91575607
O        4.71549152       2.44529778       9.78999449      -0.27897114       1.36173121       1.57980893
O        9.76632755       7.35921884      17.72997259      -1.06808239      -0.35234484       0.25330986
O        2.59893730       0.64761315      16.11434867       0.53985268      -0.47542113       1.99922708
O        0.24657785       2.10819676       9.47796297       2.25866428      -0.14641232       1.98652308
O        7.89691582       9.41843073      24.75553174       0.04947680       1.41485907       0.09221845
O        9.31300034       8.21255994      22.97127813       0.06882844       1.16075231      -0.13410382
O        1.67031241       0.62654860      11.55429906      -1.89070152       1.71490227      -0.91413727
O        0.98292856       1.49242756       4.16895270      -0.22502576       0.14818923       1.86857521
O        8.37392490       8.66930613      16.00874770      -1.53196263       1.59185450       0.31083361
O        3.52102478       4.40399057      11.66894066       1.84965138      -1.24484721       0.05687302
O        6.01880308       6.34979311      22.13393880      -0.07752863      -0.42973473       0.81514713
O        7.05334939       5.99523232      15.41635612      -1.87852334       0.20568745       0.89287968
O        4.61477115       3.54067575      18.94541124      -0.23797332       3.72953277      -2.16420693
O        8.71614299       2.91697452      11.72431683       0.60862408       1.48842211       0.20372662
O        6.71624897       1.12024267       8.69329978       0.73055162      -0.56735499       0.81739264
O        1.28772733       6.27358343      15.63765938       0.48441341       1.24810162      -1.08308738
O        3.68914318       8.69783788      18.15637464      -0.13938541       1.30716261       1.99165481
O        8.27551038       3.65906260      15.20717751      -1.21909035       3.09418578      -1.08268299
O        6.41527234       1.55265930       5.60843296      -3.32782081       0.79654800      -2.06805675
O        1.82504107       6.05465992      12.41705704      -1.82311802       2.48093266       0.01063185
O        3.96033735       7.90929991       8.58619741       1.72547752      -0.26977492      -0.86668067
O        7.88649931       5.31911476      13.02325000       0.37177588       0.83497387      -1.70788707
O        4.74909926       2.16808778       7.19262149      -1.22439666      -0.01415497       0.39630032
O        2.52001361       4.23526386      14.15826388      -0.30390284       0.39118164      -0.06343390
O        5.39773139       7.80574345      19.96753696       0.22501122      -0.05332924       1.99499859
O        0.41156285       2.12770181       7.05767505       0.65506513       0.11131418      -3.79139389
O        8.26431440       9.61621959      13.62017054      -0.28830383       1.05532633      -2.17688783
O        0.38040691       7.91788738      13.48277832      -0.32367584       0.16883426      -0.90155256
O        2.96549229       9.59907681      20.67725194       0.31044772      -0.75531932      -0.44327606
80
Lattice="9.77192453 0.01751879 6.90363604 0.24348012 9.76890588 6.90363604 0.01370155 0.0133883 13.86910312" Properties=species:S:1:pos:R:3:forces:R:3 energy=-574.36947732 source_file=vasprun.xml step_index=10 time_fs=62020.0 time_ps=62.02 file_index=31 pbc="T T T"
Na       8.54295675       3.43649096      20.36607104      -0.05424638       0.21910487       0.30493309
Na       6.33496418       0.38441621      12.47362572       0.28223417       0.00915374       0.53305576
Na       9.43855493       6.55718142      12.40108885       0.43563298       0.13555359      -0.77943758
Na       4.01769892       8.22113824      13.32022317      -0.71623791      -0.01672295      -0.74726717
Na       3.40832887       2.21793480      15.56046942      -0.11996915      -0.10476343       0.09662059
Na       6.07718722       5.04999728      18.19103716       0.34026385      -0.88921477       0.11241001
Na       2.10293099       1.44116356       8.69334626      -0.13976724       0.34316629       0.11772329
Na       3.74973036       5.35175295       9.71325728       0.06643229       0.40859824      -0.26823747
Al       6.92957071       5.08539399       8.73858941       0.50209286       1.53815439      -0.72754248
Al       4.53719422       2.78482927      11.30449385       0.44966733      -0.53687154      -0.43202013
Al       2.82468625       4.64122995      18.38966313       2.93321262      -0.31863732       1.10209820
Al       5.22049762       6.87342705      15.77708444       0.60007456      -0.96968558      -0.34303654
Al       0.32837942       1.80001973      11.49993962       2.20150345       1.02062494      -2.46806460
Al       7.92575360       9.49468982      22.76284793      -2.30992955      -1.58961071      -1.05760459
Al       9.54350789       7.62431828      15.36817696       0.60011770       3.78982833       2.57564825
Al       2.24542903       0.44240987       4.45676608      -0.35133911      -1.84873903      -1.05349516
Si       2.41448099       5.53506624      15.31502896      -0.14192492       2.06149012      -1.43884296
Si       4.60511489       7.28264211      18.91661954      -2.12423655      -2.66403246      -0.78012093
Si       7.49148249       3.82594385      11.74704765      -0.50392059       0.28623754       1.49845834
Si       5.44880552       2.51139227       8.12918526      -1.66228202       0.24265958      -1.52764993
Si       0.79259254       7.26498914      11.58798700       2.41259240       0.00302922       0.22807573
Si       2.60069851       9.05220724       8.11273299      -1.49584138      -0.98628696       0.35382402
Si       8.92730792       2.66774079      15.32167954       2.32354109      -1.04638062       3.50168053
Si       7.28277143       0.74740554      18.99088564       0.47562192      -0.11985566      -3.45396615
Si       0.57124775       3.01301720       5.81045207       0.50145868      -2.29224854      -1.92383947
Si       6.79469289       9.24559644      14.57520305       3.59534396       0.65444901       1.44846915
Si       9.38291075       6.90554227      21.24276265      -1.04089568      -2.48789549       0.49040106
Si       2.95815761       0.26538390      12.10958316      -0.11287656       0.10180004       1.62689912
Si       7.73624297       5.40789010      14.58134496       1.27625681      -2.39689692      -2.73728247
Si       4.59130224       2.04919780       5.38746517      -2.23885156      -1.96366209      -2.51706563
Si       2.05440764       4.38926605      12.48569137       0.18183538      -2.23508719      -0.79442031
Si       5.44067748       7.75868029      21.66131941       0.56397765       0.80737271       2.87291126
O        8.24546163       5.60095618      21.46295814       1.87059728       0.31207401      -0.40700422
O        4.29420577       1.15338860      11.94069255      -0.48572690       0.56554929      -0.78891196
O        1.54691948       4.21155265       5.46926295      -2.96669166       1.16981080       1.54886456
O        5.52603001       8.32496858      14.84957367       0.00904601      -0.39996207       0.13503965
O        0.94049030       3.14856828      12.46116800       0.90180623       0.45553137       0.50364426
O        6.22615373       9.16530983      21.89650555       1.66547848       0.15763291       0.23594114
O        9.10766548       6.28512595      14.48179499      -1.81847927      -1.26896861       0.26314469
O        4.00143583       0.46903690       4.88973565       0.11569487       2.06457235       1.20410298
O        3.79363103       5.83914550      19.25337609       0.83458588       1.28706348      -0.53327812
O        3.59449919       6.64946521      15.23835924       0.64489735      -0.33711915      -0.50113980
O        6.23732711       3.86492956       7.59408316       0.47329504      -1.22710565       1.67089665
O        6.12812183       2.88288781      11.94344646       2.72396189       0.76262027       0.78439115
O        1.33404174       7.92850978       7.71988907       1.32538961       2.61885329       0.27082688
O        1.97614863       8.39583738      11.95466359       0.17544426       0.32667719      -0.32430660
O        8.82276627       1.22704257      19.31733125      -1.85453756       0.03866412       0.65174647
O        8.20603311       1.23667945      15.22164529      -0.06070976       0.62092630      -1.48583391
O        2.46098605       4.93962393      16.79877474      -0.98481044      -0.26102073      -2.62073338
O        5.33824608       6.94981212      17.49520021       0.34973817       0.95917071       0.40691905
O        7.31942756       4.61344209      10.40067662       0.04722459       0.61503372      -2.76090925
O        4.61370027       2.80652810       9.51585626       0.23869382      -0.29036430      -0.41163946
O        0.21870368       7.55532621      10.16198818      -0.62220871      -0.75750380      -0.79964191
O        2.26472298       0.29384301       2.56420879      -0.30842795      -0.35663950      -0.46563998
O        9.79153014       2.54150407      16.77697603      -0.30234338      -0.50598873       0.19176822
O        7.15364213       0.02874255      17.49215763       0.74848230       0.94591797       1.25978207
O        8.77541895       7.96279737      22.21867360      -0.77329547       3.49007011       1.47846356
O        1.74075235       0.63975960      11.13355193      -1.08404304       1.05032079       0.14621220
O        1.26101899       1.68539967       5.19746168       0.93259221      -1.61196692      -0.15094978
O        8.12718995       8.90023243      15.57413762      -0.77309227      -1.10277128      -2.13034459
O        3.49492254       4.10916852      11.68712867      -1.10592332       0.06885789      -0.44817823
O        5.78301051       6.47854454       8.83729683       0.05102192      -0.28459121      -1.11490099
O        6.43025593       5.46346231      15.43488063      -3.90902919       4.12564131       0.78702666
O        3.75930957       3.10721245      18.29621308       1.84222716      -0.18956735      -0.15632188
O        8.92712369       2.91090664      11.79470918      -1.61335191       1.79394902       1.43224198
O        6.13710224       1.03479265       7.93920136       0.25710951       1.14466466       1.21309758
O        1.13557587       6.58754428      14.98643368      -0.36740281      -1.72530937      -0.64105924
O        3.55119304       8.49462353      18.83787739       0.60645156      -1.75150115      -1.21118087
O        8.05269125       4.01755543      15.41046266       1.41130497      -1.68605043      -1.03587872
O        6.26021295       2.12321757      19.17009596       0.99126497      -1.12348867      -0.81520323
O        1.24758185       5.56811149      11.76814371       0.52180543       2.54769564      -0.46019120
O        3.88353157       8.06663240       8.33167636       0.35353846      -0.86243487      -0.70942180
O        7.58568418       5.24119161      12.81632837      -0.18428081      -2.04334837       1.49612371
O        4.24412291       2.32833456       6.91703840      -0.34617931       0.36734513       2.43833089
O        2.71446812       4.44494999      13.99606934      -1.19083187       1.11218213       2.64664043
O        5.74928253       7.49143940      20.04258804      -0.23389265      -0.11333506       0.24298691
O        0.49912360       2.83660894       7.43768195      -1.16626148       0.07374183      -0.47529464
O        7.22198375       9.24751970      12.96265601      -1.00998474      -1.16855916       2.05546064
O        9.43759021       7.27590112      19.61822199      -1.48265818       0.14731121       2.51835946
O        2.76275621       0.23878996      13.75558865      -1.16399446       1.06973569       1.03985045
80
Lattice="9.77192453 0.01751879 6.90363604 0.24348012 9.76890588 6.90363604 0.01370155 0.0133883 13.86910312" Properties=species:S:1:pos:R:3:forces:R:3 energy=-574.63084687 source_file=vasprun.xml step_index=765 time_fs=11530.0 time_ps=11.53 file_index=5 pbc="T T T"
Na       6.34028355       4.23936650      16.97435905      -0.32948307      -0.35294419       0.26902308
Na       7.20109758       1.28919773      12.95211292      -0.13470911      -0.08536605       0.20876076
Na       2.75395869       2.12632904       8.84918611       0.55727682      -0.30027674       0.26934967
Na       7.83512729       7.59792646      11.65248155       0.33461326      -0.46438191       0.14221185
Na       8.60852787       3.89621884      20.03342781      -0.07672413       0.14333467       0.59076341
Na       2.56829654       2.63908613      15.08642773      -0.01048590      -0.25736276       0.38179642
Na       2.25433934       5.51299536       7.70762749      -0.10512208       0.55015604      -0.42980496
Na       4.43342056       8.23988217      13.02499240       0.06243050      -0.03075602       0.61994126
Al       7.64355399       5.46046909      22.78228115      -0.31970822       0.17140061      -2.53517062
Al       4.96564091       2.99026399      11.24544122      -0.17781774       2.24979402       2.50259948
Al       3.25529497       4.75889418      18.45037313       1.38159608      -1.86724543       0.56556065
Al       5.83856298       7.16950781      15.87506826       0.91491758       2.19218309       0.10014184
Al       0.79201899       2.19306048      11.57053719       0.06287870       0.34942988       0.74169935
Al       8.29902194       9.73327714      22.87274261       0.15611259       0.00994718      -1.28868828
Al       0.39333550       7.96090051       8.99050530      -0.77821586       3.01844430      -0.22940094
Al       2.60544258       0.52062548       4.64980474      -2.77049044       2.40074676      -2.51744439
Si       3.03898365       5.63561121      15.47024530       0.07977948      -1.44591561      -1.43488076
Si       4.55791553       7.58634149      18.80138608       3.26238813      -0.15214119       0.66679894
Si       7.93789968       4.67868661      11.89196917      -0.98716695      -5.58108921       3.21753388
Si       6.21301093       2.59541581       8.58008333      -2.68821874      -0.21052519       0.58696316
Si       1.22172545       7.53856609      11.89212035       2.64925288       1.16305726       4.00045205
Si       3.29520997       9.48192770      22.41126772      -0.12260604      -0.77229226      -1.07510008
Si       9.63463992       2.66240831      15.39466821       1.76852743       0.79148903       1.89726658
Si       7.66615429       0.88401994      18.96380682      -0.26399242      -0.39214883      -3.13120083
Si       0.90149391       2.96452003       5.73240872      -0.63369111      -0.23616278      -2.39427658
Si       7.42399214       9.70193093      14.94089843       1.06580341      -4.84443102      -1.42014833
Si       0.23265584       7.07643763      14.86293295      -0.00206403       2.07417121       1.22527985
Si       3.59106492       0.55074675      12.37913097      -1.29845406       2.94508635       0.64398269
Si       8.44791631       5.59622314      14.85076051       2.15839653       1.58698157      -2.68296567
Si       5.05793756       2.32021497       5.56291727       0.19521045      -1.49047320       2.40270170
Si       2.37666831       4.67522657      12.40824897      -1.44213426      -1.42705277       4.10810146
Si       5.92241329       8.08036730      21.67074446       1.31209955       0.33989140       5.01469177
O        9.09366506       5.79536502      21.77751469      -1.72328140      -1.29779155      -0.16995715
O        5.04627347       1.54463859      12.20826824      -2.54116162      -3.01601239       0.28225224
O        2.04564182       4.09368891       5.62484196      -0.27583201       1.22834670       0.58284671
O        6.15294632       8.69595643      14.81486725      -1.36290859      -2.47684270       0.92831561
O        0.98980872       3.70999898      12.50422568       0.70025949       1.32096897      -0.50232595
O        6.96518856       9.36765330      21.84659337      -1.07324645      -0.46846474      -0.68780294
O        9.70414511       6.72808173      14.88003705      -0.99935529      -3.98695810      -0.38112436
O        4.08337504       0.98599190       5.29091201       2.65734597       1.46792867       1.39877239
O        3.77182043       6.22454844      19.10432145      -0.26205559       1.38903647       0.80470005
O        4.39260164       6.54998108      15.20912250      -1.75157888      -0.60733054      -0.25371976
O        7.33983507       3.71723068       8.29210921      -0.43836833       0.63268358       0.70225249
O        6.45133280       3.84890863      11.79543020       1.59015520       0.47115286       0.71415900
O        2.07308784       8.39548253       8.47838307      -2.20507926      -0.56520196       0.06181378
O        2.35737974       8.82044279      12.23010183      -0.94671005      -2.26899016      -1.15453501
O        8.97172893       1.71506534      19.07533766       3.58666851       1.32869409      -0.25336612
O        8.42835743       1.70152619      15.51089867      -1.74387401      -3.61493407      -0.32193890
O        3.29858356       4.55567109      16.76646260      -1.03673186       1.64619591      -3.14151335
O        5.68446896       7.39638907      17.62243761      -0.70136639      -0.16148993      -0.13218220
O        8.02696458       5.35189558      10.54108987       1.19688715       2.64869143      -1.97275724
O        4.82496529       2.76506095       9.58118188       1.96787499       0.50678535      -0.88685243
O        0.24359242       7.51796677      10.66789224       0.26909846      -0.03478954      -0.00464022
O        2.80138421       0.69009849       2.87208754       0.38658477       0.33223295      -0.19064744
O        0.70701753       2.62125691       9.90454970      -0.08661443       0.41253103      -1.96733577
O        8.04258269       9.47889279      24.54708136      -1.20229575       2.97369854       3.48175605
O        9.27704285       8.36466965      22.53652011       1.99409949      -1.47439896       0.00113683
O        2.26599984       1.32470016      11.66794871       1.76405784      -0.89645537       0.68011091
O        1.24028465       1.79405834       4.68229406       0.93268890      -1.17686366       1.11542150
O        8.65223678       9.02920731      15.67411893       2.39751424      -0.67755299       0.32504496
O        3.55419135       3.96588702      11.77101548       3.09547770      -1.93907348      -3.01234940
O        6.35401190       6.68754104      22.56733942       0.48063901       0.55253487      -1.53682681
O        7.15117132       5.95725693      15.71814029      -0.28206110      -0.11641479      -0.20780488
O        4.72892917       3.66403661      18.66671377      -1.32885984       1.38615436       0.07690250
O        9.13665588       3.46585970      12.22186286      -0.55480579       0.44381682       0.14454770
O        6.74787812       1.08564180       8.94494076      -0.40660999       4.57721836       1.76759813
O        1.62417183       6.50702070      15.62810691       1.24517708       0.06903833      -0.39118593
O        3.58786688       8.85978891      18.53260395       0.70107742       0.54729108       0.65921146
O        8.83532094       4.02790712      15.14687356      -0.52126205       2.85490637      -0.02021158
O        6.64438016       2.24538862      18.87969091      -0.08417790      -2.16300185      -0.31563763
O        2.31896869       6.20595041      11.94580123      -1.83036764       1.94019051      -0.44230503
O        4.56023384       8.50071238      22.50386694       0.81975309      -0.30300142       0.52777342
O        8.32065117       5.73456866      13.07797491      -1.54027622       0.22800024       1.85609704
O        5.21485361       2.37051126       7.32639335      -0.89912272      -0.05029353      -4.83852701
O        2.97429356       4.54395181      14.06670581      -1.03956479       2.39859007       1.55792142
O        5.53715217       8.10494578      20.17678533      -1.85790380      -1.43610153      -4.82461055
O        1.05535814       2.57405120       7.33683299      -0.76933648      -0.59732637       0.63533623
O        7.49587523       0.02231801       6.40794244      -0.57402683      -0.34853909       0.77841980
O        0.46509041       7.74212767      13.39642330       0.43671508      -1.32725363      -1.99889968
O        3.25559619       0.61571567      14.06976019      -0.00544495      -0.42557329      -0.49562742
80
Lattice="9.77192453 0.01751879 6.90363604 0.24348012 9.76890588 6.90363604 0.01370155 0.0133883 13.86910312" Properties=species:S:1:pos:R:3:forces:R:3 energy=-575.90880363 source_file=vasprun.xml step_index=965 time_fs=43930.0 time_ps=43.93 file_index=21 pbc="T T T"
Na       7.45375404       7.60483775      19.07328761      -0.12280421       0.01085683      -0.07562057
Na       3.89759025       2.42034656      16.04871514       0.50390470       0.76955956      -0.25102674
Na       3.69810718       6.84593744      10.16198649       0.36825630      -0.16987209       0.23644831
Na       4.21647280       8.81163176      14.05562655      -0.39632517       0.32295933      -0.30864885
Na       8.61105372       3.70185718      20.43873104       0.46693326       0.08394048      -0.26114435
Na       8.08058401       1.62697537      10.61524681      -0.07517932      -0.36370428      -0.07604806
Na       0.41939742       7.48210207       6.63886791       0.48652728       0.27930277      -1.78354912
Na       2.58393008       3.66813407       8.01395318      -0.10074740      -0.47970156       0.07278786
Al       7.23280254       5.47695145       9.00114490       0.95932929       1.74504844       1.34044573
Al       4.65603656       2.80226046      11.22803554       2.08166082      -0.62602863       0.90027276
Al       3.04997651       4.43817919      18.21231097       0.89994770       0.34120494       0.99547882
Al       5.58634373       7.04111873      16.00208899      -3.17458583       1.21792638       1.88027928
Al       0.67087774       2.16656237      11.31434004      -0.01048464      -1.10556496       0.75729946
Al       8.15475922       9.48337752      22.90207706      -1.06891521       2.52887693      -0.90537988
Al       9.92737328       7.91782615      16.17722179      -2.03156574       1.63880157      -1.15132336
Al       2.18164336       0.33762423       4.56120276       1.91290259       2.40038404       0.84551506
Si       2.73306324       5.77445854      15.37022849      -2.47099302       1.49717894      -1.18533280
Si       4.30457200       7.15054280      19.11686841       1.80535332       1.10613636      -0.68220734
Si       7.46409410       4.34519904      12.06900462      -0.14935180      -0.24897201      -3.42019921
Si       5.94269370       2.87318242       8.18063948      -0.42510664      -3.89229186       3.03256830
Si       1.18002779       7.35694892      12.08622649      -1.34622419       1.56067881       0.38943585
Si       2.92427556       9.60713455      22.30331738      -1.52710138      -0.79817182       0.57303038
Si       9.30774784       2.66062518      15.45582705       0.04469119      -0.15613182      -0.37742545
Si       7.76012417       0.54944644      19.03656325      -3.45621368       0.87181706      -0.21100682
Si       0.50514261       2.86093880       5.52993801       0.48137917       1.31250161      -0.73914031
Si       7.39400016       9.52418431      15.12173777      -0.23687288       0.63108345       0.67245290
Si       9.74586009       7.16893404      21.92881725       2.48217315      -2.00173207       0.92849828
Si       3.13587065       0.48682614      12.49440247       3.21234515      -0.49032392      -1.65236018
Si       8.03983373       5.44712728      14.98285339       1.48342775      -0.96766461       2.64310008
Si       4.83739063       2.03410667       5.40851504       0.99882667      -2.10284497      -1.27447451
Si       2.20171126       4.60849770      12.34115701      -0.71374550      -3.78155497       0.07434747
Si       5.67181231       7.91629378      21.93559810      -0.10834914       1.29761467      -1.67922650
O        8.69748202       5.97380405      21.80539420      -2.07778797      -1.29381298       1.09228949
O        4.53195092       1.16761874      11.82395175      -1.57163164      -0.60248406       1.39496532
O        1.57724178       4.05930597       5.14897150      -1.04150625      -1.88573518       0.40142475
O        5.96823399       8.66586744      15.49751960       2.07591030       1.43622727      -1.49805874
O        0.83890445       3.61354161      12.26002696       1.39302363       1.91729544       0.35963429
O        6.87036964       9.05585762      21.63128231      -0.80487542      -1.42536988       1.96947768
O        9.33766127       6.55488685      15.20967077      -1.00063901      -1.20174138      -0.71840237
O        3.77819757       0.83767231       5.47263540      -3.11146286      -1.62204578      -0.42387820
O        3.32325516       5.85902213      19.23918213       0.92238626       1.03811577       0.16372244
O        3.95747767       6.77296829      15.24056963       2.43413998       0.85671419      -0.60060266
O        6.83010856       4.17249069       7.92419783       0.10737280      -0.92987477      -0.11218829
O        6.19884670       3.37988199      11.91845665      -0.12806447      -0.05161556       0.25464767
O        1.54714363       8.49330333       8.29856478       1.31519595       1.44030239       0.87242330
O        2.34275639       8.48017762      12.03588687       0.49478802       0.06151552      -0.06839646
O        8.87395525       1.70227444      19.12075467       1.37553946      -0.09594917      -0.85063930
O        8.14696526       1.53883880      15.41036117       1.03164550      -2.17965718       0.49563628
O        3.02920289       4.73195215      16.52952421      -0.33455592      -1.06972756      -0.56569770
O        5.36692077       7.00964349      17.78794153      -1.24057911       0.56332381       1.73758490
O        7.55302537       5.44067309      10.79316601      -0.18144737      -1.09380458       0.06991326
O        5.06274092       2.91655782       9.57439709       0.19011349       0.63966457      -3.13394376
O        9.85402919       7.73553659      17.84838021       0.39773420      -0.80380887       1.36849981
O        2.61855906       0.81490849       2.88389167      -0.52756514      -2.20148371      -1.31126816
O        0.81558131       2.48970506       9.58682486      -0.97993547      -0.04399534       0.28556455
O        7.68848484       9.53888848      24.57161651       1.47425052      -1.12906844       0.00792746
O        9.36844421       8.28566914      22.92456835      -1.17573111       2.40930909       0.29489480
O        1.93214314       0.96672403      11.64706197      -2.82951471       1.45168080      -0.59422159
O        0.80218147       1.41071018       4.82970171      -0.20284220       0.04229303       0.51724796
O        8.62147704       9.25852505      16.21293139      -0.14004706      -1.03558684      -1.32014340
O        3.41028068       3.91701179      11.48990410      -1.53637552       1.38209874       0.82369009
O        5.81331045       6.60044320       8.99265352       0.76319403      -0.14235710       1.06746734
O        6.85331088       6.02980633      15.87151610       1.57858218      -1.43568884      -1.07442379
O        4.33123010       3.15822267      18.24432773      -0.29948468       1.08695069       0.05039976
O        8.82098670       3.41284009      11.90992449       0.18485298      -1.03537738      -0.55895126
O        6.89627836       1.36613826       8.51253317      -0.69733153       2.38531274      -0.57829386
O        1.45109990       6.87376266      15.71022846       1.78778803      -2.89086757      -0.52950085
O        3.39723829       8.62070958      19.04121788       1.16879116      -1.77611428       1.40823899
O        8.44148818       4.01671395      15.73544385       0.71697524       1.14159645      -0.03741990
O        6.24804692       1.29712931      18.93136869       0.40229102       1.36486879       0.60836386
O        1.97052533       6.02667569      11.66057386       0.00001859       0.83927739      -1.58319543
O        4.13310814       8.51570399      22.39401021       1.36124975      -0.31841871       0.38454797
O        7.59147737       4.86202671      13.55287033       0.09510515       2.43819310       0.84694837
O        5.02481479       2.41594230       6.94942620      -0.77507848       2.01568972       1.53454071
O        2.41353182       4.98014765      13.88123847       0.80351742       0.38012223       2.64542044
O        5.46529183       7.20006563      20.47770153      -1.80661386       0.10981466      -2.91697533
O        0.50077580       2.87110957       7.15923180      -0.43599178      -0.45615498       0.71175626
O        7.94056948       9.44116809      13.52312658       0.08176356      -0.73910013       0.08178447
O        0.34642808       7.35399164      13.47879016       0.35736722       0.77698767      -2.41913895
O        3.01035609       0.86043299      14.14092112      -0.39438389      -0.73849720       0.08930872
80
Lattice="9.77192453 0.01751879 6.90363604 0.24348012 9.76890588 6.90363604 0.01370155 0.0133883 13.86910312" Properties=species:S:1:pos:R:3:forces:R:3 energy=-574.83345935 source_file=vasprun.xml step_index=935 time_fs=87870.0 time_ps=87.87 file_index=43 pbc="T T T"
Na       8.63940847       3.31610111      21.23685994      -0.10452395       0.15154806       0.04841314
Na       0.87381614       0.24900789       8.55093184      -0.09687621      -0.12354911      -0.23519588
Na       6.69631718       4.61164583      17.97748576       0.04156745       0.05962712       0.04213534
Na       7.57301071       7.32409849      11.41050369       0.04961399       1.16207366       0.33573170
Na       3.10502144       2.51896376      16.00365910      -0.43231947       0.39710944       0.04460379
Na       6.05817396       1.60222465      13.78968792       0.24517943       0.39270102      -0.73789713
Na       1.80017429       5.70463123       7.40924033      -0.35550727       0.48345744       0.07658049
Na       4.20654732       8.70882274      13.37047487       0.11815667      -0.50218392       0.41009479
Al       7.13485503       5.58673693       8.96454686      -2.13076403       0.46814075       0.10494319
Al       4.35647508       2.93326149      11.68570881       1.40788381       1.18588171       0.86638983
Al       2.72466758       4.74789907      18.51466362      -2.48626946       2.37890676      -0.40352461
Al       5.35511180       7.13834200      16.12673428      -0.88308889       2.28924404       1.03180116
Al       0.21001324       2.19899672      11.55766948      -0.94631846      -2.02477205       2.26949707
Al       7.62437307       9.79025685      22.80594049       3.18723224      -1.75645968       1.40378128
Al       9.71712643       8.10546427      15.88575489      -0.15818579      -0.33111238       0.64389334
Al       1.78263934       0.41797142       4.84769164      -1.17860925       0.15520830       0.41513472
Si       2.56961814       5.89549134      15.36870485      -0.19506427      -0.65565737       2.54061478
Si       4.13250316       7.66655572      19.22016740      -1.30878130      -2.28542283       1.47382789
Si       7.30998066       4.50202454      12.08924044      -2.53980391      -0.30608324       1.66968229
Si       5.47334756       2.79605319       8.48142398       1.47533979       0.94722596       2.21518174
Si       0.81739228       7.57259506      12.24745769      -2.79109265       1.44377648      -4.52092864
Si       2.77250813       9.34302613       8.91531711      -1.83979804      -2.53541296      -1.09269978
Si       9.02029420       2.65410820      15.44948118       2.66347176       0.79741663       0.91250458
Si       7.21481674       0.88107060      19.10348539      -0.50469664      -1.14921955      -1.96672491
Si       0.24297344       2.88206902       5.74967446      -1.84397998      -1.09072036       0.62839412
Si       7.05416590       9.69237099      15.00353653       0.34717388       1.19982233      -0.15273968
Si       9.51977134       7.20058123      21.66524530      -2.29511134      -1.69634449       1.74274411
Si       2.46505860       0.59966869      13.03175615       4.28432757      -1.01944393      -1.27514536
Si       7.81053788       5.48468835      15.10383530       3.37461083       2.82551703      -2.19032213
Si       4.33216935       2.21540673       5.54751116       0.86514417       0.60427087       1.84235117
Si       1.94224272       4.73714965      12.57770482       0.59403759      -2.21940138       1.13277616
Si       5.39406016       8.24313306      22.14607836      -0.34903261      -0.42908588       1.60320347
O        8.47485114       5.86212110      21.78994967       1.79032373       0.62758302       0.97485403
O        3.98503365       1.40714641      12.87200281      -1.04253940       3.20970806      -3.24583900
O        1.16489017       4.11698546       5.40995743       2.25431240       1.31473963      -0.83710274
O        5.89042012       8.68693960      15.39734472      -1.64149392      -1.01435408       0.27573284
O        0.73124274       3.56423061      12.40455806       1.64574891       2.35696214       1.05597248
O        6.20066061       9.61521615      21.89922841       0.48401049       0.50984463      -0.22225793
O        9.27034561       6.47422385      15.17847019      -2.09110478      -1.29475990       0.46565390
O        3.33568220       0.95418069       5.69529140      -0.71498868      -0.57776012      -0.95004573
O        3.24604025       6.22869642      19.34142813      -0.32289247      -0.40694826       0.09607240
O        3.98571769       6.63883784      15.11610021       0.29877499       0.72808283       0.90320029
O        6.46723908       4.11079376       8.26206165      -0.10930184       0.00860885       0.16781748
O        6.02248426       3.50297232      12.45735967      -0.98663805       0.32521057      -0.90353606
O        1.60202620       8.25699653       8.32362838       1.39313600       0.42962905       0.60236757
O        1.79234766       8.71345504      12.80676974       1.65207817       1.08506615      -0.19376396
O        8.29971626       1.97780105      19.39815375       2.91586638       1.44399798      -0.89603048
O        8.14721169       1.39775299      15.10915992      -1.62236327      -0.92322616       0.30011419
O        2.39444115       4.99970663      16.78544883       0.74219232       0.95663334      -1.16745139
O        5.03597617       7.36755989      17.93831169       0.86409302       0.24954724      -1.56162606
O        7.24184672       5.34951387      10.68283062       0.90553116      -1.21596030       2.01515665
O        4.70930767       2.91782483       9.94821933      -0.06518970      -0.89565141      -1.13347788
O        0.20711673       8.05899132      10.72389902       0.86632340      -0.70591883       2.16327259
O        1.75293718       0.51774759       3.05926177       1.48591294       0.50971274       1.81740364
O        0.22551191       2.42694761       9.86711092      -0.78000411      -0.78303179      -0.33718610
O        7.82261606       9.67590137      24.67061376      -0.96467011       1.22244410      -0.51968390
O        8.95383357       8.54028915      22.33755607      -0.33191949       1.08236711       1.43008910
O        1.07648325       0.70468630      12.31215569      -1.77227713       2.79719389      -1.19508213
O        0.30141815       1.32231242       5.21794572       1.13398949       1.83027976       0.18040340
O        8.46932591       9.36687460      15.58709306       1.99214300      -1.20769726       0.35567813
O        3.37312925       4.43724622      11.93348764       0.25792621      -2.01875318      -0.86938516
O        6.20925076       7.24117510      23.13476816       1.10763109      -1.52619811      -1.44849465
O        6.64819848       6.04539139      16.05974515       0.43656905      -1.35516136       0.29993071
O        3.63465899       3.35395796      18.44748433       2.96181295      -2.47158006       0.34616312
O        8.47262555       3.47801548      12.39283599       2.36148806      -1.47265085      -0.22049303
O        6.54986971       1.52554365       8.44828065      -0.76168062      -0.13302430      -0.07792657
O        1.29765444       6.88222649      15.17478632      -0.71495480       1.50477050       0.66512949
O        3.18418281       8.93650269      19.31976471      -0.33641918      -0.69208521      -1.42963689
O        8.11002523       3.96989741      15.71699523      -0.77198953       0.86903097      -0.32489610
O        5.88577549       1.82785793      18.87266457      -2.25641915       0.82938008      -0.64082705
O        1.47334185       6.14459449      12.05964394       0.29348704       0.04835912      -0.63776941
O        4.28791117       8.77033768       9.41022754      -3.07753419       0.52622468      -0.34425460
O        7.50683546       5.64828941      13.41986756      -0.61329542      -1.02412799      -0.02753774
O        4.57142739       2.79164313       7.15263272      -1.50615500      -0.63420186      -2.44698423
O        2.35967626       4.87685938      14.20149798      -0.91862158      -2.64603498      -2.09656742
O        4.74873697       7.75524928      20.77892164       0.77301188      -0.96171785      -0.76406467
O        0.43407315       2.74363050       7.42795153      -0.39604011       0.38669722      -0.52665500
O        7.10635611       9.62955212      13.33470648      -0.41672570      -0.99617791       0.18717229
O        9.31836053       7.37824868      20.12240717       0.15454155       0.64868289      -2.37120295
O        2.77913654       0.56556076      14.59835446      -0.77139768       0.64662863       2.21618330
80
Lattice="9.77192453 0.01751879 6.90363604 0.24348012 9.76890588 6.90363604 0.01370155 0.0133883 13.86910312" Properties=species:S:1:pos:R:3:forces:R:3 energy=-575.10617949 source_file=vasprun.xml step_index=695 time_fs=29390.0 time_ps=29.39 file_index=14 pbc="T T T"
Na       5.94098986       1.43981760      14.05462244       0.36531511       0.04957100       0.17868395
Na       6.79826368       4.16278516      19.47351225       0.09557750       0.10125127       0.08377303
Na       1.35526619       5.59339762       7.10231317       0.29018350      -0.25395984      -0.24997768
Na       1.36733607       8.97649505      17.27545666       0.74487120       0.05190039      -0.20099478
Na       7.90150054       8.39276161      18.76114685       0.04010398      -0.14915743      -0.30414067
Na       1.19803878       2.07952639      14.77748841      -0.44877950       0.98841544       0.64294813
Na       8.64045166       7.65045380      11.68204516      -0.67876169      -1.25244909       0.32787098
Na       3.65645234       8.42862772      13.67885190       0.75283014       0.82545574      -0.45614130
Al       6.88344025       5.23641770       8.76316387       1.74282845       0.74457659       1.48538312
Al       4.59397667       2.71489348      11.34087779       1.93760503      -0.82713817       1.09837118
Al       3.17768773       4.61914786      18.55402046       2.23663421       1.15601324      -2.02937428
Al       5.10084099       7.08215771      15.82830005       3.33170695      -0.54953449       1.70937438
Al       0.53233944       2.39874959      11.37900771       0.90037017      -0.91582346       1.36584029
Al       8.31926650       9.55540361      23.00376685      -1.71087777      -2.47899060      -3.02588705
Al       9.68286196       7.50095121      15.60493185      -1.75875716       2.27213035       3.03531911
Al       1.96717572       0.40408385       4.41903625       1.85086323      -0.31470813      -0.20049988
Si       2.64345728       5.46989834      15.28234051       1.26372340       0.65932509       4.75045779
Si       4.34259127       7.45828934      19.04841220      -0.29787929       2.33100285       0.04114115
Si       7.43394563       4.19872471      11.87238469       1.31567819       2.07111387      -2.39937691
Si       5.60343339       2.44445775       8.31979748      -0.29568855      -2.60915640       0.34111777
Si       1.12339730       7.31262269      12.01704913      -0.60894411       2.84815007       0.31827390
Si       2.48997267       9.13300771       8.38888676       2.03863065       0.39424204      -2.89098547
Si       9.49803482       2.53087661      15.29157599      -2.12357422      -0.58085474      -3.45916534
Si       7.66723474       0.74815221      19.04737313      -1.97043670      -1.47019338       0.10824525
Si       0.59157542       3.05500050       5.43132514      -1.80691344      -1.75216058      -1.01189818
Si       7.06787013       9.38195912      14.71034804       2.49548670      -1.92871275       4.10279603
Si       9.54955723       6.79444335      21.70346191      -1.14391563      -0.22098660      -0.77688441
Si       2.91808466       0.47806397      12.53638634      -0.34686006       0.87966417      -0.05450240
Si       7.65654971       5.12166650      14.74696900      -0.79086586       1.78927239       1.59321481
Si       4.77080328       1.97642506       5.39838748      -1.83396882      -0.98640452       0.74445647
Si       2.36627601       4.48914748      12.59358584      -2.30574159       0.68731799      -0.13506444
Si       5.52946897       7.96097111      21.86813190       1.72892161       0.56103961       1.10169022
O        8.24474355       5.77468053      21.56420891       0.59834568       0.53598252       0.71529914
O        4.27635167       1.35255632      12.66178379       0.32171577       0.86766630      -1.75604470
O        1.60193609       4.22857574       5.00083213      -3.05772647      -0.21526183       2.28047608
O        5.75903004       8.44694516      14.90045920      -0.61684284       0.11385511      -0.18043588
O        0.80903174       3.84500155      12.32585463       1.95873887       0.15196418       0.38719899
O        6.67071960       9.14665444      22.08109827       1.60941949       0.46948240       0.66383910
O        8.91861105       6.15824971      14.90980746       1.64980422      -1.03878310      -0.41386193
O        3.63879822       0.81248931       5.01240696       1.22618079       1.25060759      -0.33083628
O        3.54657542       6.14704938      19.36268222      -0.83173804      -1.47835751       1.19728722
O        3.71576830       6.69822655      14.88834952      -1.66148844      -1.52511671       0.60060319
O        6.06160889       3.94310210       7.95244807       0.74848022      -0.35994567      -0.39712248
O        6.20147868       3.30363954      11.93047551      -3.99065944      -2.96490283       0.19330919
O        1.26691297       8.16246140       7.87538492       1.59776171      -1.17124048       0.44529454
O        2.00064714       8.73772864      12.41210050      -1.41273375      -0.75027167      -1.68974455
O        8.86263999       1.73015914      19.23320982       2.79145922       1.19616207      -0.47372883
O        8.72918398       1.05089810      15.15172438       0.70851208       1.38325345       0.37732368
O        2.92012295       4.91487483      16.86908826       0.41336322       1.27900435      -3.61737219
O        4.98422104       7.55287237      17.62476412       1.51600707      -0.93306974      -3.27270827
O        7.55453805       5.01940498      10.41917030      -0.09198505      -0.32137100       0.66034372
O        4.84100174       2.29065790       9.69786239      -1.05469602       0.49905344       0.69943504
O        0.32559149       7.65711969      10.60821330       0.48331636      -1.41454032      -0.51622698
O        2.06023952       0.47547064       2.57697550      -0.76282403      -0.54763571       2.60384595
O        0.55216152       2.64089942       9.68310023       0.55580540       0.32611994       1.66052011
O        8.01624913       9.51254252      24.68181112       0.85122162       0.45093396      -0.56473127
O        9.54220671       8.11500732      22.76314949      -1.14694965      -0.08231754      -0.17736181
O        1.91395499       1.13767852      11.41572526      -1.39841955       0.81167371       0.49648544
O        0.95106188       1.73712694       4.54075719      -1.03460311       1.27353522       1.29973966
O        8.41544473       8.66786265      15.58085925      -2.49775752       1.81997168      -0.74646635
O        3.47662863       3.96812784      11.59240040      -0.60701676       0.21582534       0.46582876
O        5.94662012       6.65934802       8.94585441      -1.73213730       1.64587437      -1.66697179
O        6.44558388       5.76499503      15.78292734       0.58778792      -0.97159701      -1.58550809
O        4.53364416       3.56436895      18.80567293       0.49136987      -1.48207501       0.51101035
O        8.72210156       3.28730462      12.10426189       2.51047370      -0.36024537      -0.17417950
O        6.61292467       1.09133048       8.47280698       1.24409612       0.73663660      -0.82602859
O        1.11509532       5.96071647      15.22452185      -0.86001619       0.91710648      -0.00070063
O        3.23745548       8.72670073      18.91640176      -0.12535877      -1.25603051       0.15788892
O        8.31838655       3.63859208      15.05443981      -1.87242839       0.63663130       0.95990170
O        6.39876642       1.75313666      18.83825809      -1.37327524       0.18959419       0.10949104
O        2.24315637       6.15107156      12.21478573      -0.20364829      -1.37846046       0.51418860
O        4.12676558       8.63797563      22.30578113      -2.74566458      -0.41354203       0.44592967
O        7.34911977       5.22077492      13.13783863      -0.21317171       1.04770158       0.65539713
O        4.75702089       1.83389261       7.06768079      -0.66612438       0.74707851      -1.52068164
O        2.62964950       4.23060721      14.29298803       0.53522826      -1.36736799      -3.52651037
O        5.44556108       7.96185996      20.18273377       0.24749176      -1.31344337       0.14706078
O        0.63109581       2.90528198       7.06136499       1.26038264      -0.48882644       0.74345489
O        7.64962438       9.26006020      13.19523520       0.08737211       1.71320236      -1.41103527
O        9.63297893       7.26008910      20.06758416       0.91421328       0.09891144       0.14986394
O        2.27158076       0.46125150      14.03085511       0.02358290      -0.63500515      -0.12653486
80
Lattice="9.77192453 0.01751879 6.90363604 0.24348012 9.76890588 6.90363604 0.01370155 0.0133883 13.86910312" Properties=species:S:1:pos:R:3:forces:R:3 energy=-575.63276891 source_file=vasprun.xml step_index=590 time_fs=85180.0 time_ps=85.18 file_index=42 pbc="T T T"
Na       8.44910219       3.31068200      21.07543482       0.47354170       0.28150744      -0.06657823
Na       8.59217348       9.62193596      18.65480363       0.48292697      -0.10387041      -0.16423824
Na       6.73052514       5.18241542      18.28721123      -0.39937959      -0.22262773       0.67031430
Na       3.85754867       6.21563532      10.19831768      -0.55901159      -0.30225143       1.00222661
Na       2.71453063       2.76739334      15.93082462       0.15664268      -0.03036014      -0.67911452
Na       6.17439646       1.44285438      13.88854150       0.04715954      -0.18541594       0.63518713
Na       1.25240388       6.56154479       6.60780273      -0.47650066       0.19435145       0.24484953
Na       2.74553745       2.52388615       8.80133534      -0.97830053      -0.21520964      -0.60750116
Al       7.28853159       5.43847216       9.40400675       0.01050042       2.54628206      -0.03323657
Al       4.81043268       2.92986865      11.63369939      -0.87514625       1.60378285      -0.99509408
Al       2.84626984       4.60823808      18.60969148       0.96371063      -0.36648103       0.89937234
Al       5.52177624       6.99205619      16.13310954      -2.37908719       2.17564575       0.26316274
Al       0.57848540       2.23364202      11.74078562      -2.78813036      -1.11292672      -0.50945733
Al       7.74376106       9.53778111      23.09612302       1.73477356      -1.51835723      -0.51609147
Al       9.47406700       8.08880047      16.07614841       1.83506534       0.72681222      -0.78972834
Al       2.18970184       0.66998064       4.68421781      -2.29999468      -2.35794636       0.56344332
Si       2.53525172       5.78246962      15.72189494      -1.65359817      -0.77291199      -2.13647258
Si       4.17811149       7.46739373      19.08512729      -1.38402779      -1.07238390       2.21517001
Si       7.60214742       4.66323934      12.42731776      -2.03588661       0.57329605      -1.74758206
Si       5.60601566       2.81623669       8.57462578      -0.57506385       0.64113499      -0.75542600
Si       0.90538882       7.43014103      12.01995405       0.83137896       1.24946818       1.72342259
Si       2.68559577       9.42636640       8.64903444      -0.90306214       0.87793076      -2.87946085
Si       8.96127841       2.58956497      15.73492603       0.90675748      -1.86910860      -0.30548411
Si       7.48870118       0.70199168      19.16081449       0.88780285      -1.07057654      -1.37341839
Si       0.43375660       2.78635019       6.07867572       1.89315911       2.25120193      -1.80113270
Si       7.01811372       9.63498103      15.02507645      -0.18240786      -4.72125277      -1.88512843
Si       9.64761334       7.08546951      21.82540643      -3.03860943       0.97212721       1.55407433
Si       3.15429001       0.70542393      12.54763912       0.55553341      -4.07942708       3.77369567
Si       7.89893459       5.55064182      15.20196172       2.09889468      -1.49896612       0.96297445
Si       4.74568241       2.34257620       5.63298516      -1.18010318       0.39102348      -0.13625913
Si       2.18856309       4.66693557      12.60509532      -2.99171832       2.24994195       2.91474097
Si       5.26959265       7.80850790      22.23833163      -0.93799114      -0.56843948      -2.46371480
O        8.58478355       5.79592369      22.04776438       0.31223802       0.12775873       0.78020886
O        4.60821668       1.23469963      12.25660486       2.10499950       2.97698417      -0.73823694
O        1.73891008       3.91817647       6.00063923      -0.54834242      -1.35617548      -0.80330357
O        5.77532952       8.62110724      15.27984096       0.25128065      -2.00319178       1.33035662
O        0.86385224       3.73095924      12.40809732       0.70451201       2.38779436       1.44731408
O        6.40533041       8.92464719      22.08398404      -0.45866285       1.40544765       0.23655105
O        9.02600667       6.68989488      15.22661619       0.64130313      -1.11893909      -0.61168495
O        3.58908848       1.20254969       5.47844143       0.56902848       0.42275836       0.41758750
O        2.93614052       6.29526376      19.10856568       1.31824153       0.89998681      -0.44672593
O        3.81504954       6.67081265      15.59372067       3.07258296      -0.00249664       1.04752453
O        6.77994244       3.95079871       8.75703486      -0.76931601      -3.02348573      -1.11472599
O        6.33729917       3.65585346      11.97767205       0.44164912      -1.06220054       1.64442494
O        1.29210360       8.63464980       8.32575209      -0.62482589      -0.50314797       0.80266036
O        1.75065770       8.76576569      12.41099972       1.01016736       1.65803689      -2.33850662
O        8.89840891       1.54353500      19.39769881      -1.06282356       0.09091459       0.58244936
O        7.83435114       1.42203447      15.60884601      -0.43816338       0.14082869      -0.53906104
O        2.33454316       4.62898060      16.93380580      -0.02175079       1.24061122      -1.24933442
O        5.32927697       7.04099130      18.02647421       0.01030027       0.79671174      -0.82831493
O        7.64543328       5.60774169      11.11533406       0.49511037       0.06741110      -0.40120793
O        4.56710723       3.04499900       9.84516855       0.83754429      -1.22011473      -0.27629731
O        9.54332601       7.66813067      17.75750737       0.92330629      -0.15343174       0.21927657
O        2.34272022       0.78644111       2.86354094      -0.47328408       0.51663012       2.24437457
O        9.66229017       2.70847962      17.13312514       1.22102987      -0.55327747      -0.02580852
O        7.78635407       9.38227395      24.81609179      -0.48402427       1.79381222       0.36282406
O        8.99258796       8.44381664      22.46412569       0.22375191      -0.23248724      -0.14408520
O        1.88107483       1.19068082      11.90701007      -2.01718850       2.05651413      -2.17021935
O        0.56227126       1.48239997       5.02402549       0.14613585       1.71399800       1.09556334
O        8.23369861       9.25883182      15.99941211       0.37878471       1.21782033       0.90543259
O        3.45559822       4.10543121      11.98360370       4.19284224      -2.60355413      -1.95701140
O        5.70822470       6.46414744       9.14801935       1.01217181      -0.32291224       0.53871695
O        6.73474062       5.72037313      16.24576083      -1.32574237       1.01233335       0.77812081
O        4.46463188       3.61642530      18.50994492      -1.15626249       1.10867274      -0.01488417
O        8.99129481       3.89039993      12.62804490       0.40082058      -1.64282657       0.07666160
O        6.20071658       1.28657950       8.25092736      -1.18076501       5.60199122       1.45944955
O        1.34984730       6.90968147      15.49305771       1.06849953      -1.34686901       1.39460563
O        3.36438671       8.92821358      19.03031318       1.52903720      -3.32181672      -1.00364746
O        8.40685665       3.99217388      15.38343886      -1.33095020       3.01509138      -0.13927983
O        6.20717392       1.77955721      19.01189735       0.71625068       0.15763807       0.68420527
O        2.03505188       6.21002478      11.89902860      -0.73678263      -0.94636997      -0.47880405
O        3.81961351       8.40149512       9.13805499       2.34378719      -1.92392339      -0.43528912
O        7.25629344       5.51940903      13.79575598      -1.39360193      -0.32108088      -4.22843462
O        4.58206035       3.05377471       7.19586118       1.70520517      -1.02049583       0.77569190
O        2.45964608       4.83325571      14.24536490      -0.29234515      -0.09660941       1.14594957
O        4.80242797       7.22940864      20.67952193       0.05899146       1.34550301       0.11653175
O        0.38219344       2.41826953       7.64955318       0.01849779      -1.19399934       0.64600602
O        7.45969761       9.45509757      13.42508636      -0.05720904       0.12019918       1.87737441
O        9.73150858       7.24726644      20.23948810      -0.33542855      -0.59700491      -1.70554570
O        2.99885348       0.58598337      14.22455986      -0.25205449       0.00874165       1.48140431
80
Lattice="9.77192453 0.01751879 6.90363604 0.24348012 9.76890588 6.90363604 0.01370155 0.0133883 13.86910312" Properties=species:S:1:pos:R:3:forces:R:3 energy=-574.37454309 source_file=vasprun.xml step_index=230 time_fs=78460.0 time_ps=78.46 file_index=39 pbc="T T T"
Na       8.28167388       4.06971242      20.00929583       0.29522494      -0.44168166       0.15934580
Na       8.38853303       2.22114235       9.96903328       0.04356504      -0.04818242      -0.01539804
Na       6.11703053       3.90722137      17.91959270       0.64640926       0.49636291      -1.24739364
Na       2.82370748       9.17471438      16.89833503      -0.04693905      -0.15289983      -0.24108252
Na       2.67190401       2.38870194      15.64724225      -0.02964688       1.17165124       0.40772348
Na       6.26428002       0.20947201      13.58616525       0.19284798       0.89886671      -0.94233078
Na       3.69679859       6.85135296      11.69452095      -0.01351797       0.09741110      -0.01113058
Na       0.93693277       6.12896225       6.85637253      -0.23759892       0.39145777       0.21912300
Al       7.00244087       5.38846402       9.11202953       1.27541743      -1.89282551      -1.45028875
Al       4.44043677       3.07668431      11.61324880      -0.03267873       1.26591500      -0.11014506
Al       2.76621329       4.54674303      18.61789082      -0.05501483       0.29160711       0.82236055
Al       5.30656714       7.11352092      15.85884141      -0.92469812      -2.35583406       1.53798692
Al       0.48249352       2.10826727      11.45863021      -0.37237927       0.61786565       5.04345441
Al       7.70289424       9.38475852      23.24178248      -1.20363319      -2.01686876       0.04935580
Al       9.32902083       7.78521115      16.32314099       0.39651046      -1.37841459      -1.41909798
Al       2.20368825       0.35841284       4.85448125      -0.54718736       1.59463066       1.71066399
Si       2.38867747       5.73972152      15.68513246      -2.30204285      -3.34729175      -1.60569862
Si       4.36509897       7.31223677      19.02985564      -1.10129108      -1.51550404       1.82900430
Si       7.40288641       4.18639288      12.04303291       2.89975626       2.23312839       2.59146984
Si       5.52260837       2.59354487       8.64586184      -3.75349052       0.66840301      -1.36755771
Si       0.60416051       7.71558763      12.49183606       0.71787360      -0.18630323      -2.00629317
Si       2.59438737       9.14827640       8.70281491      -3.73734318      -1.66461032      -2.30837487
Si       8.78845824       2.37752980      15.67414300       2.02605269       1.06508954      -0.53259097
Si       7.45919665       0.79271533      19.25994837      -1.75556005       3.01392179       0.48598179
Si       0.26639254       2.86355168       5.90142807       5.20814580       0.84868895      -2.64195009
Si       6.86959685       9.57434334      15.27577306      -1.74753794      -2.05792070      -2.00906057
Si       9.26877746       7.01132215      21.97049567       0.29092058      -0.75462242       0.71269950
Si       2.89979445       0.57804817      12.87219548       1.30469797      -0.45185831      -4.71233228
Si       7.64368357       5.16387809      15.04144305       1.83742653       1.20111112      -0.74450727
Si       4.56180619       2.04335496       5.83522645       1.95779098       0.91285096      -2.10176614
Si       1.90561634       4.68647172      12.57002827       2.37356089       3.59561012       2.72630529
Si       5.25899493       7.53816730      22.02753421       0.80012556       2.23405980      -1.68189519
O        8.32306218       5.69445235      21.40219901       0.06614465       1.85598325       3.34754466
O        4.10357329       1.67014557      12.68356196       0.37101201       0.16416982      -0.53988861
O        1.29924871       4.21244567       5.87635323       0.10085076      -0.86748873      -1.05628257
O        5.41789771       8.62342314      15.14787823       2.51307914       2.83150238      -0.53711219
O        0.79618612       3.71404400      12.14686414      -2.03002242      -1.97986497      -0.28804142
O        6.22474897       8.88738563      22.20266801      -0.21990066      -0.59796753       0.87012968
O        8.84491034       6.14131800      15.48279906       1.50340345       2.25120987       1.23901630
O        3.75750811       0.72233246       5.59831800      -1.68438399      -1.45159776      -1.61046107
O        3.02736342       6.30014774      19.03748465       1.27194857      -0.23701859       0.15338234
O        3.60529646       6.66168250      15.69311397       1.97097062       2.05753033      -0.65209650
O        6.58610609       3.71092081       8.40501922       2.27580567       2.18774616      -0.95615895
O        6.03034414       3.50222349      12.31962844      -1.63596608      -0.52597398      -0.02264387
O        1.00141276       8.46714489       8.56396692       1.90239803       0.04292162      -0.40735584
O        1.86153221       8.71082310      12.53352380       0.60396588       0.43104252      -0.17193436
O        8.72850028       1.81415279      19.29240431       0.35460715      -0.22217869       0.07038072
O        7.92206008       1.05696414      15.57368348      -1.06415420       0.17145447      -1.33607109
O        2.37382841       4.64551816      16.88081818       0.35871883      -1.30876474       1.01306485
O        5.19085449       7.24929083      17.66344180       0.67062133       0.29443125       0.57737505
O        7.71717395       4.91924588      10.65697495      -0.43066663       0.28817368      -0.93134663
O        4.68527937       3.06455464       9.88748714      -1.40291398      -0.36184484       1.92218488
O        9.57564917       7.67815420      18.00182693      -0.37105563       0.52644245       0.70378973
O        2.22374271       0.13680416       3.16478165       1.58909221       0.89365415      -0.73675824
O        0.08308478       2.07866880       9.94400671      -1.00890853       0.34129022      -5.04594482
O        7.52132827       9.63726224      24.92635437       0.15835673      -1.37273438      -0.53241322
O        8.58852723       7.86548662      23.19329316       0.23244489      -0.63953430      -1.01628029
O        1.77624721       1.02496530      11.74237617       1.10075514      -1.50397277       1.09189899
O        1.09497995       1.79585816       4.92442209      -0.35648988      -0.33805139       0.66842389
O        7.92323463       8.75779304      16.13299811      -0.22083056       0.82228572       0.28613475
O        3.25485855       4.54401746      11.61150382       0.06667854      -0.77597312       1.55671199
O        5.64164784       6.43879740       9.21257882       0.30124776      -1.31428068       1.17737196
O        6.18173958       5.60603143      15.46371601      -1.28766442       0.90002936       0.54736215
O        4.36258253       3.47337404      18.90487764      -4.32960502       1.85486798      -0.15452146
O        8.60335047       3.00668953      12.18548037      -3.29980638       0.64209816      -2.42583190
O        6.24169870       1.24217501       9.03205200       1.83923220      -2.11437862       0.87251164
O        1.01131509       6.58753623      15.72168581      -1.76834259       0.66768123      -0.81573834
O        3.65526669       8.78483069      19.31971694      -0.15946079       1.81948498      -0.10825399
O        7.94745865       3.80826917      16.01572292      -0.08399038      -1.57480323      -1.30659921
O        6.08503660       1.95361179      18.90704704       1.82839958      -1.96190336       2.42819491
O        1.34326887       6.27992606      12.47180439       1.28099236      -2.66287363       0.34138040
O        3.70841614       8.00272482       8.37479608      -1.39621821       0.73253346       1.00626005
O        7.89185903       5.32801194      13.36180964      -1.37161062      -2.84069806      -0.95018679
O        4.39494680       2.20744698       7.40647356       2.12455494       1.18728748       2.85466573
O        2.30315281       4.64863527      14.31162050      -0.14809331      -0.02507690      -1.29316098
O        5.29837539       6.97662513      20.47144501      -0.42936964       0.57407537      -1.53429642
O        9.70646179       2.54306654      14.26421399      -1.17146790      -0.98220400       4.83402446
O        7.31275197       0.12583499       6.87952502      -0.72168574      -0.21968821       0.45137393
O        9.48642180       8.03745197      20.69386369      -0.80678057      -0.21403639       0.76828054
O        2.59427593       0.62811824      14.39139600      -1.46027877      -1.76085395       4.52936246
80
Lattice="9.77192453 0.01751879 6.90363604 0.24348012 9.76890588 6.90363604 0.01370155 0.0133883 13.86910312" Properties=species:S:1:pos:R:3:forces:R:3 energy=-574.65742981 source_file=vasprun.xml step_index=845 time_fs=87690.0 time_ps=87.69 file_index=43 pbc="T T T"
Na       8.77911555       3.47152606      21.40341992      -0.25229770       0.06210224      -0.19755939
Na       0.63622206       0.15656268       7.62244353       0.37385478      -0.21416301       0.25770390
Na       5.92760443       4.74320455      18.17313266       0.06473394       0.01292981      -0.33483245
Na       7.70452436       7.62672002      12.23100407      -0.08956737      -0.19688284      -0.35351158
Na       2.65333925       2.62386367      15.33531426       0.10336132       0.06475728       0.32955541
Na       6.72362082       0.95925580      12.53606670      -0.44071850       0.24840454       0.30623301
Na       1.28494498       6.68862029       6.81905558      -0.28265949      -0.35389216       0.27960716
Na       4.13755746       8.32419302      12.97128346      -0.07260641      -0.17130680       0.70009052
Al       7.00648277       5.48324863       9.37575961       1.68319879       2.73262908       2.54189016
Al       4.36897965       3.00128317      11.68974450      -0.03913203      -2.42428949      -3.13739843
Al       2.58595904       4.73062864      18.63627000       0.00966300      -0.37331448      -0.49895364
Al       5.39275041       7.36429513      16.10534921      -2.41236361      -2.96550335       0.93434660
Al       0.44247664       2.36590864      11.71768202      -1.05348267      -2.01587065       0.04685542
Al       7.78074740       9.73905400      22.79423637       1.83394204      -0.95417863       0.89797193
Al       9.32860759       7.88697397      16.03848195       3.38704088      -1.16722304       2.84186745
Al       1.99513242       0.60395495       4.75264592      -1.28863082       0.78720818       1.52647250
Si       2.59557041       5.79602229      15.46852590       1.07849953       1.85129947       2.33804489
Si       4.19489875       7.29435279      19.15890808      -1.10737470       0.98130391       3.84620446
Si       7.24621591       4.35080310      12.34791936      -3.59502742       2.34964300      -0.89594232
Si       5.50370429       2.78975879       8.62321625      -2.58476443      -0.64193885       2.15875281
Si       0.74242915       7.48200845      12.24565126      -0.52320233       2.56537812       0.04207336
Si       2.48930137       9.21437034       8.61487095      -1.26776221       1.59247441       0.68514940
Si       9.12272578       2.65720634      15.58721654       0.63708192       4.84532572       0.80397721
Si       7.19725434       1.23300579      18.91665023       2.65816958      -3.00800389       1.88485827
Si       0.34803893       3.24317033       5.80518617      -2.86172849      -0.69873429       3.22989051
Si       7.02232533       9.67472882      14.91386302      -1.20279219       2.26836866      -2.17300146
Si       9.61882321       7.07504847      22.08220938      -2.29829757       1.78810881      -0.69981453
Si       2.79499119       0.48437483      12.75506559      -0.55362096       1.94654146      -2.21646802
Si       7.82684403       5.53616335      15.16712502       0.35322948      -1.55242013      -0.12228902
Si       4.34798992       2.11666954       5.81856720       1.33916623       4.98381682      -0.94522251
Si       1.97089321       4.79772090      12.61101945       4.02407757      -4.85220147       1.52554613
Si       5.43356162       7.95368112      22.03554906       0.95125031      -0.72253066      -0.52371709
O        8.60213466       5.95170130      22.54090651      -0.44670958      -2.35117201       0.18351682
O        4.06769525       1.38926768      12.37807484       1.93631609       0.26364158       1.28502705
O        0.90989786       4.61476943       5.36849199       1.94010474       2.28735537      -0.74311321
O        5.68341671       8.72750082      15.17949327       1.48035801       2.03282806      -0.23255216
O        0.74014446       3.69419782      12.71081272       1.44007927       3.09744066       0.28322363
O        6.51973591       9.17074829      21.79027145      -1.21272754       0.60570858      -0.19979805
O        9.18480380       6.49528454      15.03086789      -1.24392537      -1.28255825       1.16281180
O        3.35002686       0.95395943       6.03141670      -1.21252111      -3.37225606      -1.24812893
O        3.05466383       6.14897472      19.54177841       1.71834530       0.65334034      -0.41449370
O        3.95823981       6.62490067      15.21662222       1.09767604       1.02213198      -0.58386310
O        6.46774605       4.05589805       8.81800063      -0.06885217      -1.97947492      -1.33279434
O        5.94665262       3.30696101      12.22439302       2.82130697       0.78833746       1.16775133
O        1.28627744       8.15310107       8.68864497       0.44912197      -0.14411418      -1.36749232
O        1.76439145       8.89307623      12.67184936      -1.27143595      -1.28419379      -1.70764859
O        8.66181001       1.96885476      19.48266020      -2.94612362      -1.28080313      -0.93272746
O        8.60089828       1.24675725      15.22387422      -2.40494475      -1.94604232      -1.12122057
O        2.78454521       5.25956344      16.99863098      -0.52742560      -1.42668869      -1.00691205
O        5.07667445       7.14189994      17.88025727       0.55664151       0.29676106      -1.60927499
O        7.15252269       5.49725087      11.20544118       0.32477625      -0.42625214      -1.64532627
O        4.27081884       2.66125472       9.79651409       2.80444941       0.13170440      -0.34319068
O        9.46799690       7.67527322      17.92381801       0.43009266       0.42455286      -1.72396972
O        1.91689544       0.33222894       3.05212481       1.31332775       0.84517178       0.19735798
O        9.66450941       2.68715775      17.07919244       0.48588966       0.09185089      -1.16363479
O        7.27409088       0.13958721      17.64764201      -0.08127728       1.63104706       0.45413298
O        9.01936604       8.49574030      22.59705312       0.96775201      -0.08424311       0.17100416
O        1.75519484       1.26790617      11.77583934      -1.02693707      -1.03481376       0.40282566
O        0.87407150       2.03659669       4.96023009       0.89840137      -2.67449405      -0.37016411
O        8.44252568       9.08227235      15.33616802      -1.70350365       1.75887147       0.11496890
O        3.52098228       4.40893241      11.88659009      -4.88489756       1.84819951       1.85896861
O        6.03231575       6.87660513       9.27317053      -1.98047337       2.16247366      -1.47957652
O        6.64092096       6.14911036      16.15620320       1.76347073      -0.49828508      -1.16529433
O        3.50493879       3.19380959       4.86221600       0.56889622       0.48166178       0.11206435
O        8.46798076       3.44455156      12.49856552       3.45510454      -3.79649415      -0.18281191
O        6.62301163       1.55466782       8.45435602       0.09265454      -2.08298655       0.35682010
O        1.37488069       6.93273975      15.62031340       1.17564298      -0.84695188      -0.31090359
O        3.28190527       8.72750099      19.20267422       0.54978657      -1.62120938       0.39701181
O        7.96778272       3.93320691      15.72505669       0.27162133       0.56922653      -0.91637237
O        5.89027825       2.17824535      18.89333179      -0.94188054       0.04889186      -0.33906662
O        1.81028357       6.26358776      12.16399143      -0.27850976       2.34668543      -1.13642846
O        3.99387726       8.65560999      22.53422736       1.19341921      -1.04761007      -0.28299072
O        7.60110005       5.47175515      13.53393059      -1.89992611       0.16038607       1.24554595
O        4.76401944       2.90761414       7.17021837      -0.21613388      -0.18556733       0.11317488
O        2.37028881       4.64620804      14.33606393      -0.64134502       0.46842673      -0.72660122
O        5.29996637       7.26016730      20.50589234      -1.42507437       0.45486941      -0.46911300
O        0.48804765       3.09120319       7.54774032      -0.27847967      -0.57351384      -1.57201568
O        7.01714963       9.74819053      13.20490110       0.26577767       0.77591920      -0.27327431
O        9.56607928       7.14592314      20.40802338       0.05214856      -0.05267050       0.81433696
O        2.25227919       0.68472023      14.31476855       0.07398080      -2.00728657       1.25054377
80
Lattice="9.77192453 0.01751879 6.90363604 0.24348012 9.76890588 6.90363604 0.01370155 0.0133883 13.86910312" Properties=species:S:1:pos:R:3:forces:R:3 energy=-575.81097612 source_file=vasprun.xml step_index=330 time_fs=84660.0 time_ps=84.66 file_index=42 pbc="T T T"
Na       8.33746800       4.54226168      20.22936078       0.06047317      -0.57400378       0.09791673
Na       9.26718106       1.98836358      10.11251145      -0.09949655      -0.64514881      -0.04617027
Na       5.88017427       4.24750508      17.62809885       0.10499948      -0.05434722      -0.27024798
Na       4.21208013       6.01994074      10.88685872       0.28527221       1.08760553      -0.42216084
Na       3.08418519       2.54112202      14.62381171       0.13983534       0.43738758       0.45915972
Na       6.49156849       0.99991388      13.48049167       0.06685332      -0.22761624       0.17073465
Na       1.52876735       6.24560383       7.90512000       0.79604797      -1.09604514      -1.07064250
Na       1.09100814       9.30814473      16.59560709       0.55042506       0.40490764       0.32982401
Al       6.93180146       5.33638858       9.07058978       1.67736871      -0.81345497      -0.05816455
Al       4.73839663       3.18981220      11.60439328       0.67438679      -2.92880264       2.13570739
Al       3.01690690       4.87571373      18.88250907      -0.47174788      -2.11975918       0.64469517
Al       5.35844474       7.26131763      16.05474230       0.35899947       0.14967283       0.54355097
Al       0.47670915       2.38873277      11.71835535      -1.64157494      -0.20251976      -1.44542056
Al       7.81274299       9.44613338      23.19840475      -0.50822467       1.81618889       0.50756413
Al       9.55955023       7.99350626      16.22937139      -0.25023827      -0.43468447       0.58438536
Al       2.21667285       0.65631657       4.62039887      -0.22116486      -2.45110260      -0.12609703
Si       2.79274101       5.84138211      15.82731207      -3.00706203      -2.41801904      -0.69068238
Si       4.25346301       7.42435286      19.13198737      -1.27702404       3.10934313      -1.13008194
Si       7.47121771       4.24800996      12.09410737      -1.83724289       0.55055250       0.71652616
Si       5.57050422       2.73073543       8.68207784      -0.09509572       0.24778535      -1.23330118
Si       1.08991936       7.54071423      12.20586630      -1.20276706       1.56442848      -0.75034255
Si       2.67777292       9.30725221       8.51186719      -0.77991075      -1.14683481       3.78810964
Si       8.79091606       2.69107296      15.62851392      -0.61779996      -0.82377194      -0.30674102
Si       7.42979619       0.99777542      19.38260129      -0.86530091       0.21790675      -0.84266445
Si       0.49220115       3.25905488       5.85490462       0.33988240      -2.59154952      -0.20290899
Si       6.84442991       0.09653734       8.51260047       2.65810869       0.01004383       2.21689289
Si       9.61557198       7.00506380      22.13822120       1.26785845      -2.71220855      -4.02856344
Si       2.99804189       0.52199224      12.44953228      -0.69011794      -0.04406826       0.24566600
Si       7.73538048       5.33570252      15.10089071       2.83144060       0.60202483      -0.74299689
Si       4.52155685       2.15637769       5.91858970       2.05251669      -0.27485263      -0.09889779
Si       2.36542257       4.79256352      12.82153240      -0.80930401       1.83314911       1.82899154
Si       5.42459077       7.91876176      21.88766227      -2.60114757      -1.40466981       2.57063745
O        8.48656656       5.76341967      22.12407956       1.54202837       0.98428347      -0.05685950
O        4.18126093       1.60838473      12.36851097       0.26286705       0.25916547       0.17036654
O        1.67922829       4.31683538       6.09191822      -0.77025020       0.35229367      -0.77893554
O        5.93507246       8.82551977      15.58277245      -2.13375100      -0.71360373       0.16524530
O        1.04267485       3.87442895      12.51009379       0.73588893      -0.14723123       0.05375336
O        6.37901807       9.07090336      22.22290604       3.24306410       2.82117625       0.77728023
O        9.25783275       6.10970214      15.29124427      -2.07529778       0.84028224       0.67646005
O        3.77429910       0.91247669       5.24113884       0.88468703       0.77648949       0.62223132
O        3.26146354       6.34982234      19.70236723      -0.66159040       0.12455450       1.21261147
O        3.97406641       6.60144658      15.21886954       2.49483098       2.74792393      -0.10894945
O        6.54834560       3.90691858       7.97826708      -1.06501283       0.42090156       1.94486492
O        6.35616813       2.93077431      12.35936850       1.44908148       2.77056689      -1.52157803
O        1.41911373       8.28740737       8.47529769      -1.81150735      -0.41504120      -0.39204742
O        2.00891606       8.78694446      11.94893729       1.34389975       1.28895346       1.17654815
O        8.70867710       1.97893256      19.53668204       2.09893986       0.93448471      -0.99927207
O        8.12212161       1.23309320      15.53484051      -1.27304439      -1.46008466      -0.19508131
O        2.89906593       4.91550207      17.14983865       0.00872233       0.22061075      -0.32926271
O        4.82440942       6.96891246      17.75916963       1.94755499      -0.75412979      -1.56199024
O        7.22703926       5.34435454      10.86600294      -1.31273156      -1.60168756      -0.38859991
O        4.56884967       3.13222691       9.92531474       0.75989267       1.01005975      -1.06436592
O        9.73977044       7.75066833      17.95619030      -0.19705291      -1.75101234      -0.72400066
O        2.00553935       0.47655646       2.90911759       1.10752787       0.90402383      -2.67418768
O        9.84353743       2.64188454      16.78039535       1.88283633       0.14885822       4.03031692
O        7.78560679       9.69688064      24.99401367      -0.20081065       0.82269115       0.20336585
O        8.99235574       8.28501499      22.69194993      -0.61371475       2.45797778       2.42081491
O        1.68308525       1.13475405      11.74942527      -0.85066794       0.15908954      -0.07406715
O        1.15483387       1.90946682       4.98229632      -2.73509608       3.41561626       1.84505737
O        8.29912503       9.27575690      16.47752407       0.38792833       0.26085140      -2.55974611
O        3.89978455       4.43434793      12.46699245      -0.04147802      -0.46366590      -1.44139115
O        5.76217718       6.52568162       8.81768133      -1.10577137       0.77269910      -0.68737204
O        6.65346921       6.09937195      15.92270261      -1.60670292       1.02053233       0.74955768
O        4.27238396       3.64266271      19.16694702      -0.94478648       0.96179541      -0.03594529
O        8.92805873       3.64715905      11.73752863       2.17793227      -0.77447879       0.81912294
O        6.72430840       1.66384072       9.17799416      -0.54030679      -1.27106154      -0.28520921
O        1.33777619       6.63334669      15.85046527      -0.74813333       0.71557850       0.78089154
O        3.40422137       8.85671696      18.58065368       0.63127924      -0.65187083       1.56913745
O        7.57782636       3.82702527      15.81051561       0.96728451      -0.39870074      -0.08431645
O        6.17394388       2.15804032      19.29609577       0.46034275      -1.55235099      -0.10481882
O        2.12939238       6.27132808      12.02345427       0.40204122      -2.27013674       0.92364407
O        4.02020775       8.37813093       8.82676884      -0.75290975      -0.29030996      -0.68551040
O        7.42586689       5.11175461      13.49280358       0.27467701       0.02930361      -0.02341562
O        4.51676190       2.03310213       7.60043615       0.42144869       0.55278701      -0.82148394
O        2.61251111       4.79307230      14.52100012      -1.76568621      -1.13408930      -1.36091229
O        5.22802920       7.95282083      20.30156457       0.68652812      -0.24357192      -0.79954836
O        9.63121315       2.94464854      14.26842152       0.45351324       0.49270825      -2.24237235
O        7.27542223       0.22574464       6.96365574       0.09379825      -0.24132643      -0.76976693
O        0.26361955       7.54842099      13.61588946      -0.48988599      -1.75426053       1.95508216
O        2.76472386       0.42616686      14.18017001       0.10776805       0.56175910      -2.70887082
80
Lattice="9.77192453 0.01751879 6.90363604 0.24348012 9.76890588 6.90363604 0.01370155 0.0133883 13.86910312" Properties=species:S:1:pos:R:3:forces:R:3 energy=-576.60936781 source_file=vasprun.xml step_index=480 time_fs=50960.0 time_ps=50.96 file_index=25 pbc="T T T"
Na       2.41993376       2.43807319      15.90384150      -0.36942302       0.02592106      -0.44300954
Na       5.98738913       3.84282726      17.23046353       0.73562606      -0.33927613      -0.19533675
Na       1.67028368       6.10257202       7.29664330       0.21377414      -0.64934163      -0.46697782
Na       4.29695246       9.31582824      14.39398707      -0.41769779       0.20273565      -0.17450508
Na       8.68137880       3.94591695      20.46007766      -0.03391699      -0.15375876       0.38820432
Na       6.77020703       0.64200772      12.91274959      -0.13961861       0.16166093       0.19963267
Na       1.49511185       8.30104933      17.29644636      -0.24008119       0.52507189       0.27800357
Na       4.91189852       6.28536145      11.65748352      -0.11099525      -0.60325230      -0.00027673
Al       7.27938009       5.37022424       9.16057176      -0.49735046      -3.39591401       0.28288430
Al       4.47457270       2.78866151      11.15959607       0.63419382       1.74585363      -0.29560719
Al       3.08857801       4.39349337      18.32396007       0.82540520       3.37539805       1.76244315
Al       5.63450571       6.91006259      16.11421116      -1.53258101      -0.40085771      -0.38725047
Al       0.44105164       2.04314916      11.31784129      -0.19036497       1.06373127       0.04129802
Al       8.08377086       9.26876879      23.04431784       1.27182129       0.44361494       0.23249533
Al       9.69891570       7.70167919      15.95921596      -1.61855505       0.13790463       1.20323818
Al       2.06033501       0.50228857       4.58661315      -2.17509309      -0.22054016      -0.72109729
Si       2.75831221       5.63173885      15.40394500       1.44190312       0.19096412      -1.19812629
Si       4.36966294       7.25300954      19.08803488      -1.20980938      -0.09704960      -1.09270721
Si       7.28965011       4.06472365      12.07796633       1.39354436       2.48706802       1.54234129
Si       5.68632460       2.58317514       8.45150145       1.26351400      -0.40527434       0.72419391
Si       1.09744672       7.37409447      12.19286717       0.23472963      -0.11131265      -3.09804484
Si       2.65133119       9.01020929       8.40843361       1.86685103       2.51044739      -0.37532533
Si       9.23090941       2.19758787      15.14296911       0.10846850      -2.08376402       2.35704457
Si       7.51744028       0.91061359      19.04541513      -1.33531372      -2.84205254       0.92290737
Si       0.51837329       2.88087180       5.46296630      -0.56481042      -0.25491331       1.08587154
Si       7.23396590       9.57864739      15.30675199      -1.02299586       0.72300186      -2.47493883
Si       9.79647277       6.71422629      21.91808483       0.72313682      -0.43878515      -0.60399440
Si       2.94311447       0.35552027      12.41720739      -1.92988963       0.06880428      -0.08935945
Si       7.83248398       5.09295742      15.07933430       1.55475471       1.08086987      -3.44991475
Si       4.69233515       1.98047119       5.41907409      -0.50819586       0.35776308       2.58064847
Si       2.09623859       4.60431771      12.59282947       3.21900071      -1.40436408      -2.12063237
Si       5.46459510       7.74316320      21.94917965       0.73826235       1.65221694      -0.76210868
O        8.86427208       5.40246371      22.24481381       0.94290083       0.88697131      -0.25854357
O        4.13878064       1.32651079      12.01755375       0.25349011      -0.48600597       0.16406498
O        1.75574435       3.93701948       5.32858045      -2.62152889      -0.82897875       1.78403753
O        6.09585227       8.36682885      15.27315871       0.23415525      -0.14787361       0.27540860
O        0.93176081       3.57533375      12.26032743      -0.92562635      -0.76498444      -1.00598744
O        6.63312687       8.87307098      22.34604115      -4.53253927      -1.47922991      -1.38527441
O        8.91749211       6.36081956      15.15013886      -0.09862993      -1.61106227      -0.46795939
O        3.43131690       0.96663359       5.63225440      -0.23856193      -0.24430950      -1.54819543
O        3.34898611       6.01204832      19.37996079       0.13518757      -0.54135659      -0.71905063
O        4.06518682       6.52807304      15.02041417       1.02123295      -0.03122698       1.13888834
O        7.03898962       3.51138438       8.47142296      -1.00026710       1.57548403      -0.05601929
O        6.18114401       2.98029060      11.85166181      -1.22567991      -1.91714401       0.16703405
O        1.39503391       8.10663349       8.24751762      -1.34473306      -0.89603795      -1.10371055
O        1.65522788       8.90316052      12.52290066       0.42841769      -0.79269696      -1.46457646
O        8.59885889       2.06341897      19.26854011       1.55326467       0.27300040      -1.96259273
O        8.17132219       0.87296624      15.13454788       1.14652503       2.76030192      -0.56751361
O        3.01601388       4.62925585      16.64790854      -0.13033667      -0.41115870      -1.06619834
O        5.35527446       6.90988160      17.87999124       0.21925216      -0.03426055      -1.94477096
O        7.07198512       5.13478590      10.90113949       0.23265904       1.46704645      -1.16922301
O        4.39768527       3.03696292       9.32731281       0.41713386      -0.31382560       1.88555338
O        0.28323325       7.16053883      10.68129438       1.62077745       0.64468157       2.61906824
O        2.34124487       0.30920853       2.70842029       0.12717838       0.00460954       2.92159246
O        0.45323388       2.15192417       9.54436045      -0.56712289      -0.42809390       0.87952187
O        8.22624746       9.52801948      24.75826657      -0.51588471       1.73153469       2.30425769
O        9.15880983       7.96382836      22.60873311       0.08876985       1.17117148       1.05101416
O        1.57270433       0.69446545      11.46701131       0.64737658       0.08082966       1.99047166
O        0.67804048       1.80799432       4.31244179       2.38231936      -2.50363251      -0.71393060
O        8.57654013       9.04829170      15.91062746       0.97661725      -0.00928112       0.81753217
O        3.54656876       4.14458881      11.87890356      -0.39586308      -0.81719844       0.40125974
O        5.95421039       6.37118610       8.72385434      -0.11586807      -0.65590654      -0.06460041
O        6.57089607       5.43522933      15.97346219      -0.49507214       0.15908856       0.97014498
O        4.41427966       3.35363721      18.47401712      -0.31497285      -0.52500551       0.39083644
O        8.85104651       3.59860499      12.20411042      -0.50807082       0.12893349      -0.35330603
O        6.15744705       1.06787732       9.04494843       0.18481840       0.06697888       0.51187620
O        1.61440933       6.69754675      15.75593866      -3.00841701       0.70816180      -0.33743765
O        3.41558708       8.60220979      18.72478866       0.18401122      -0.85771784       0.39356289
O        8.53538364       3.64376916      15.41103301      -1.39849614       1.12274190      -0.30780146
O        5.98775254       1.49872102      18.49270149       2.86557584      -1.41666759      -0.75740386
O        2.33502292       6.16427914      12.28394165      -1.53311787       3.88898045      -1.72835919
O        3.85443054       7.91650251       8.57557444       1.56630753       0.10060503      -0.08448283
O        7.17328030       5.01022930      13.50500759       0.11692318      -0.78091742       0.23236632
O        5.15041839       2.19032277       6.97147890      -0.46609024       0.61996960      -0.93284255
O        2.04654396       4.76954902      14.18073860       0.62157650      -1.22436948       3.11239417
O        5.32146132       7.77616842      20.25020954       1.27617900       0.31100137       3.03491274
O        0.36852755       2.02601023       6.92760150       0.86444986       1.31083753      -1.74794374
O        7.24044389       0.37223892       6.80269556       0.06556632      -0.71864330      -1.54213275
O        9.85826770       6.88446825      20.24035279      -0.81761543      -0.49082735       2.25959166
O        2.76550553       0.43360827      14.15005784      -0.27597443      -1.41685500      -1.62101003
80
Lattice="9.77192453 0.01751879 6.90363604 0.24348012 9.76890588 6.90363604 0.01370155 0.0133883 13.86910312" Properties=species:S:1:pos:R:3:forces:R:3 energy=-574.12402186 source_file=vasprun.xml step_index=725 time_fs=35450.0 time_ps=35.45 file_index=17 pbc="T T T"
Na       8.99780764       0.90379855      10.12110308       0.34047329       0.47508944       0.19867459
Na       5.48848288       3.62894827      16.89706458       0.49014502       0.32793142      -1.06697363
Na       3.89693423       5.82678731      10.08954328       0.03649172       0.24068458      -0.21469016
Na       1.18443369       9.09573020      16.96289391       1.17573314       0.60019544       0.74121034
Na       6.38734203       0.92072150      13.11236932      -0.11860613      -0.00588205       0.17219460
Na       8.18999772       4.16213111      19.87512493       0.23805161       0.18323948       0.08935790
Na       0.78343183       6.31144151       6.00053579       0.73984328      -0.05804611      -0.21858601
Na       4.21147307       8.11251447      13.54676155      -0.33181902       0.46526705      -0.47770347
Al       7.29549434       5.21092748       8.87157392      -0.72011731       0.25016427      -2.69559993
Al       4.67961048       2.86782413      11.21501128       0.12167257      -2.69691029       0.22625107
Al       2.98298328       4.56060348      18.31465786       1.91539976       1.20773553      -2.28212652
Al       5.76417188       6.76399677      15.93003387      -0.33643024       1.06332305       2.44181916
Al       0.55189408       2.27581277      11.46102111       0.81178823       0.01411757      -2.55756171
Al       8.10562976       9.62639821      22.92164594      -0.49648692      -2.54243241      -1.35903672
Al       9.70559059       7.74777091      15.50399299       3.68054551      -4.00545869       2.72070365
Al       2.42527055       0.36697224       4.13181511       0.11436833       0.20083644       0.64078292
Si       2.87135573       5.79907408      15.19554602       0.39949246      -4.17400981      -2.30369436
Si       4.39224471       7.22591731      18.83815320       2.30443525       4.67034391       0.73188625
Si       7.38632644       4.15992996      11.93855572       1.59033625      -1.20820600       0.00535574
Si       5.80205897       2.45112476       8.32394719      -0.28371314       1.39026358       1.44821921
Si       1.10166092       7.49669953      11.87545307      -1.66685194      -2.58114145      -1.11853563
Si       2.72603235       8.85780594       8.23887500      -0.08555885       0.64559460       1.49255634
Si       9.30557566       2.39161963      15.17801214       4.23574585      -1.31278282       1.09003083
Si       7.60619296       0.92789328      18.89937754      -1.34105004      -0.93418231       1.57193863
Si       0.52658026       2.79352002       5.43707074       1.20401696      -1.41343831      -2.23360795
Si       7.32604705       9.47450168      15.02146756      -1.67696974       3.27182824      -1.05151078
Si       9.69645534       7.13019887      21.76665359       3.07696823      -1.51997812      -6.11801621
Si       3.02125766       0.31335681      12.41539137       1.29384507       2.47350934      -0.18997366
Si       8.20416124       5.17758508      14.93048786      -1.09584261       1.30132599      -2.84142897
Si       4.82978000       2.09067818       5.48488191      -1.05536025      -0.74572979       0.10113714
Si       2.29834033       4.56642365      12.34201289      -0.16381838       2.32641722       2.68621697
Si       5.50815767       7.62235641      21.76667631       0.25396056       4.03998775       1.59118852
O        8.84237044       5.81956965      21.87788681      -2.05247708      -2.07510722       1.88582607
O        4.36622329       1.27225119      12.04380919      -1.66520978      -0.17964629       0.28834330
O        1.49525879       4.13492441       5.15105195      -2.10054389      -0.90373433       1.01666409
O        6.21298616       8.47900150      15.55745982      -1.40788467      -1.73325498      -0.74606752
O        0.95045121       3.93397468      11.69785294       0.46103472       0.06833934       1.16415630
O        6.73884445       8.72594979      22.22288067      -1.15463350       0.73465224      -0.57882824
O        9.50642473       6.10947538      14.77891627      -0.88983495       0.71914616       0.76404763
O        3.99430226       0.90310575       4.75697003      -0.43659748      -0.15281975       0.76376482
O        3.19522799       6.29695177      18.86138979      -4.50601092      -4.18665406       1.51200207
O        4.42727114       6.33267520      14.91358935      -1.01632785       1.02574792      -0.38598872
O        6.65295914       3.79244534       7.81354824       0.51487571      -0.22424732       0.73608556
O        6.19451439       3.10387515      11.98158302       0.61501942      -0.16238183       1.48766491
O        1.39354312       8.06273317       7.79950931       0.64960827       0.09078772      -0.94631195
O        2.24257994       8.61185506      11.83688314       0.73509361       1.81370203       1.07253738
O        8.80128843       1.97132584      19.07538596      -0.35781160       0.35072995       0.75333736
O        8.30843776       1.18495407      14.95186156      -1.94192927      -1.70679827       0.62787030
O        3.14212221       4.63964224      16.33521799      -0.93093633       1.04451932       3.56139257
O        5.27675401       6.55652539      17.72620256       2.08399745       0.66800123      -2.69205069
O        7.24375742       4.79475721      10.47478365       0.60509053       0.96730032       1.40373586
O        4.70718701       2.70607378       9.49713203       0.52201851       0.86961907       0.13155853
O        0.47530102       7.48624790      10.32337929      -0.25700487      -0.11837226       1.20102524
O        2.33739180       0.30245349       2.41637769      -0.22801317      -1.36763820       0.27233731
O        0.53385709       2.33921979       9.57701330      -0.96765657      -1.33489116       0.98538111
O        8.21418667       9.57912078      24.66938365      -0.33988616       1.06269817       0.10093033
O        9.49047258       8.37561076      22.62527210      -1.72032829       2.72486059       1.49927487
O        1.57970101       1.01738934      12.04763700       0.81172429      -0.79153538      -0.83176513
O        1.18701953       1.53500186       4.46596810      -2.14380670       2.29521476       1.54933264
O        8.67231049       8.96726423      15.68336654      -1.27718200       2.59902044      -0.41718105
O        3.72195637       4.14186231      11.73039521      -1.11034028       0.93414544      -0.67127822
O        5.94629671       6.36289017       8.66311489       1.32252229      -3.94937801       1.20480400
O        7.05112107       5.60026389      15.95969405      -0.18110367       0.43472697      -0.47658357
O        4.43215565       3.57447149      18.68147561      -1.11161723      -0.39216039       1.79615047
O        8.72839042       3.09370926      11.76342204       1.33757641       0.04237270       1.03918372
O        6.78471852       1.25010141       8.85331676       1.48247098      -1.76318172      -0.53640638
O        1.72131642       6.97565309      14.92165053      -0.68481449      -0.41821135       1.56860629
O        3.55548477       8.70986914      18.53937117       0.36048709      -1.87135492      -1.10867927
O        8.43148456       3.68179754      15.30160024      -0.65937741      -0.15990972       0.31080090
O        6.32163399       1.96831847      18.60703811       1.02941369      -0.42593421       0.20368705
O        2.21861360       6.22171961      12.12029745      -0.74800301       0.10915033      -1.02602536
O        3.94337241       7.78159566       8.65292904       0.58782676       0.42304613      -0.92747409
O        7.69183072       5.14389566      13.24251970      -0.25493368      -0.24430314       0.19448041
O        4.83019138       1.81568842       7.20793235      -0.38005382       0.42672621      -4.55137285
O        2.51389403       4.55444857      14.01157618      -0.44723814       0.75460103      -0.52413185
O        5.41722621       7.73525880      20.17109558      -1.44091194      -1.12609965      -2.10775052
O        0.58504118       2.25128180       6.98948494      -0.56126887       1.27354445      -0.64040055
O        7.07375035       0.06490874       6.44718399       0.95056498      -0.23980030       0.19769119
O        9.50619034       7.26003295      19.93643079       2.80185871       1.28198441       0.58998365
O        3.16392226       9.76983544      20.89098155       1.44454917       0.80578656      -1.91849380
80
Lattice="9.77192453 0.01751879 6.90363604 0.24348012 9.76890588 6.90363604 0.01370155 0.0133883 13.86910312" Properties=species:S:1:pos:R:3:forces:R:3 energy=-575.54473391 source_file=vasprun.xml step_index=65 time_fs=56130.0 time_ps=56.13 file_index=28 pbc="T T T"
Na       7.48973424       8.29265770      19.01117379      -0.04539936      -0.53099897      -0.45655394
Na       7.95577234       3.36022701      20.34910444       0.45597206       0.83760945      -0.15954635
Na       8.15779778       7.12888899      11.70554472       0.14465600       0.22352176       0.04988454
Na       4.22779989       7.94608285      13.15128616      -0.17511780       0.24587916       0.36896402
Na       1.86934573       2.36869260      16.15457514      -0.16812024      -0.59492818      -0.11225148
Na       6.20363482       2.34771257      14.64198521      -0.79130268      -0.04256878      -0.22443941
Na       0.63375544       9.65484058      14.18234958       0.44599436      -0.14814225       0.00891234
Na       3.35386847       5.16103258       9.56386991      -0.01647138       0.36953408      -0.39279604
Al       6.88246926       5.10594759       8.96301951       0.33300185      -0.28986580      -1.87953912
Al       4.68261131       2.46617115      11.55741162      -0.79102190       2.01356422       0.00957017
Al       2.77537004       4.64576708      18.54295100       0.90454451      -1.69242365      -1.27333508
Al       5.49025426       6.83570017      15.94836946      -1.06786981      -1.66102658      -1.62171953
Al       0.66404662       2.05340909      11.58944813       0.67912567       1.20983575      -1.24569109
Al       7.84492943       9.28147501      22.96260635       2.26803710       0.12783339      -0.89150217
Al       9.46451433       7.77696566      15.95562390       0.75634632      -2.87042000       1.39290585
Al       2.30332962       0.26874861       4.51074345      -0.77076028       0.40881257       1.16681614
Si       2.62037774       5.30174521      15.43861469      -0.51151100       0.67516882       0.18680008
Si       4.54078192       7.28132625      18.92250615       2.37639632      -3.13285158      -3.67044575
Si       7.37684506       3.99809970      11.94636420      -1.68367471       1.47874241       3.00936060
Si       5.48731749       2.30979174       8.35727573      -0.61669978       1.28866487       2.64956594
Si       1.00205837       7.32725382      12.02872675      -0.06868068      -0.19817424      -2.08917355
Si       2.60237228       8.94115848       8.48772027       3.02808859       0.00986542       1.12037753
Si       9.10141972       2.30528519      15.43625910      -0.25084648       0.16805974      -1.11305477
Si       7.54060130       0.82792848      18.99068700       1.54687114      -3.48706242      -0.13908009
Si       0.36461754       2.75316707       5.49069342      -1.08801663      -0.53877476      -0.81433825
Si       6.97305277       9.25219500      14.69584265      -0.69397980      -0.37675642      -0.60344378
Si       9.51020997       6.87395686      21.80941281      -0.13635997      -2.95426478       1.51206987
Si       2.93918014       0.23368601      12.72426764       2.09785820       2.43036628      -0.79733630
Si       7.89080217       5.11995388      14.75424390      -1.17412507       0.53150175       1.80927569
Si       4.66218724       1.99954779       5.61482954      -3.44351941       1.29795056       0.56770436
Si       2.37820330       4.44505578      12.47357062      -2.40308321      -1.23300500      -2.98947231
Si       5.41495280       7.53794386      21.74712701       2.71713835       3.49772819      -0.33715951
O        8.16128435       5.87966574      21.78050089       1.05126761       0.32530691       0.62224756
O        4.31528885       1.24521820      12.68372544      -1.57182958      -1.29034508       0.67748583
O        1.16860190       4.09218557       5.24372619       0.93250763       1.51121033       0.41962581
O        5.73382356       8.25352386      14.86685831      -1.04648120      -1.66533078      -0.49848164
O        0.90309017       3.62277290      12.49690835       1.05844092      -0.51473354      -0.48322609
O        6.49218010       8.83906719      22.12240661      -2.19224741      -2.64561550      -1.71450646
O        9.01476000       6.05969335      15.46228476       0.04291387       0.82869891      -0.78545210
O        3.65863124       0.60648142       5.53787697       2.56249213       1.36516902      -0.89786621
O        3.32976267       6.25652689      18.92666159      -0.57944176      -1.93714220      -0.36843318
O        3.64956610       6.52426699      15.64244023       1.55240264       0.21744182      -0.63558680
O        6.35789927       3.66065456       7.99345255       0.82461033      -0.09858808       1.16375800
O        5.97070346       3.31411909      12.48733932       1.29361871       0.51880215      -0.45417900
O        1.52689665       7.85808478       8.85142362      -2.82575791      -0.58246136      -1.21838611
O        2.15786923       8.49305365      12.24676939      -1.33265778       0.39287291      -0.26529451
O        8.96792400       1.61276920      19.31351233      -2.50641484      -1.02445633      -0.07293922
O        7.96982821       1.08139996      15.36293498       1.87575631       0.17110741      -0.42911952
O        2.69227935       4.24180491      16.68188031      -0.32140682       1.10432755       0.16898025
O        5.76480811       7.13244832      17.60293315      -2.34422060       1.12202130       3.36142952
O        7.25335896       4.78993776      10.61278608      -0.64734351       2.11147650      -2.19899152
O        5.04561213       2.19590882       9.93336696       0.26181254       0.67735178      -1.53124221
O        9.57325010       7.60301150      17.76518877       1.48837863       0.15266726       1.44807843
O        2.44410427       0.19988662       2.82618757       0.41950719       0.27724325       0.01317681
O        0.30104600       2.43909222       9.79768101      -0.16088684      -0.75905596       0.59436575
O        7.77345180       9.61965544      24.58357944      -0.02155468       0.60379701       2.33264560
O        9.33557714       8.15801265      22.79036305      -1.11701629       0.87961269      -0.66197389
O        1.88920661       0.76589237      11.62403389      -0.85288660       0.39057627       0.48109765
O        1.12295168       1.59061472       4.66206757      -0.30047137      -0.88502177      -0.16984896
O        8.03990638       8.72295775      15.71871365       2.57980154       0.06961025       0.74109278
O        3.28525124       3.73504200      11.20794198       0.12985708       0.44149646       2.80820028
O        5.58447160       6.23844500       8.70649254       0.34341731      -2.89596348       2.32361790
O        6.37250321       5.26529250      15.47625717       0.41576894       2.01962232      -1.14137398
O        4.10040628       3.41857116      18.81681119       0.20242995      -1.26103342       0.14283279
O        8.55236912       3.00560467      11.72203912       3.62036189      -2.65976310       1.04406180
O        6.16129743       0.89332214       8.25136154       2.14847992      -0.52108014      -0.98790296
O        1.07568571       6.04086586      15.44453278       0.72319783      -0.87156449      -0.43629216
O        3.80440758       8.57618673      19.25913522      -2.22000582       3.60193999      -0.06653371
O        8.02623864       3.50370964      15.18011844       0.96558502       1.06755357      -0.51914501
O        6.28608674       1.82821166      19.00846536      -1.38601899       0.81306560       0.79859415
O        2.03084578       6.01797940      11.92521243       0.03972658      -0.63656469       0.07864712
O        4.06033352       8.08368549      22.27563042      -4.03474452       1.59280590       0.25585583
O        7.97016878       5.28567126      13.06413966      -1.15237725      -1.58453105       0.13902566
O        4.34033114       2.31254646       7.24626816      -0.13028476      -0.15220347      -1.06888328
O        2.93869885       4.39053625      13.96862380       0.26806723       1.24837779       2.41827325
O        5.53909665       7.22551990      20.16149443       1.99682944      -0.54450060       1.18915023
O        0.22160185       2.16856815       7.03323719      -0.52361618       0.01825835       1.47643979
O        7.52033088       9.25617632      13.11733069       0.10531324       1.30909360       0.29621075
O        9.86642749       7.24183481      20.27057721      -0.73097502       1.11791849       0.10017391
O        2.39779126       0.32522092      14.29027778      -0.77599080      -0.48979786      -1.53694960
80
Lattice="9.77192453 0.01751879 6.90363604 0.24348012 9.76890588 6.90363604 0.01370155 0.0133883 13.86910312" Properties=species:S:1:pos:R:3:forces:R:3 energy=-575.42937641 source_file=vasprun.xml step_index=535 time_fs=23070.0 time_ps=23.07 file_index=11 pbc="T T T"
Na       8.57858964       1.94585250       9.68048892       2.31980902       0.55469147       1.29384820
Na       5.60356650       3.73562173      16.98493504       0.53559167      -0.20359849      -0.64201488
Na       8.97738194       7.45847259      12.68398209      -0.41053560       0.10597434      -0.12575308
Na       1.44197835       9.01121028      17.01605833      -0.33324113       0.37426602       0.15802576
Na       8.69361921       3.90725689      20.43311822      -0.09095734       1.14967012       0.77787193
Na       6.59779549       0.18589111      12.96948984      -0.29908898       0.41096229       0.31887016
Na       2.17635314       6.10082381       7.98207081       0.30763406      -0.96109186      -0.46866735
Na       3.56879170       9.12600337      14.21150348       0.00261753      -0.23607130      -0.23726064
Al       7.05561004       5.39344162       9.45698476       1.71017098       1.43977762      -2.88879312
Al       4.65052310       2.86562610      11.58018287       0.27054495      -0.73822264       2.29452284
Al       3.01023447       4.76609176      18.48268267       0.73831349      -1.43408834       1.04147517
Al       5.47512059       7.29022152      16.07446387      -0.53215142      -0.22536157      -1.11520645
Al       0.47010823       2.40041252      11.49071493      -1.38760484       0.75093602      -0.62433789
Al       7.88646065       9.56043131      23.03394710       0.89372582       2.55493268       0.66572132
Al       9.51182577       7.86922192      16.05304768       1.15511635      -2.08027376       1.42304001
Al       2.34541116       0.20486292       4.42974453      -0.68514566       4.76476681       1.38641436
Si       2.64766910       5.93850468      15.56586179      -4.23861416      -2.77797375      -0.60560309
Si       4.40255664       7.55763302      19.11051657      -0.10899182      -0.93663160      -2.35037308
Si       7.56359561       4.06106178      12.24259879      -0.99350642      -2.88841198      -0.10748597
Si       5.95273469       2.67044584       8.60602012      -3.43148795       0.42713603      -1.29369214
Si       1.00706990       7.47065020      12.08434187      -0.25080931      -1.69792761       1.38028895
Si       2.67012673       8.97712986       8.47465682       1.87963059       1.21186251      -1.69776054
Si       9.30000914       2.52157021      15.36798152       1.20337531      -1.13670573       0.99329399
Si       7.42909452       0.98470428      19.05675017       0.12367835       0.79316148      -1.29873538
Si       0.67008709       2.90782283       5.40385285      -0.27656444      -1.85015811       1.36390159
Si       7.19158624       9.66927959      15.03167995      -0.04310902      -1.72575712      -1.30618847
Si       9.69494268       7.12744145      22.02721436      -0.63425578      -0.58450868      -1.30188053
Si       2.69473591       0.39017583      12.70185949      -0.34350686       4.65619188      -1.35459776
Si       8.00331489       5.40275377      15.07187657       3.06449379      -3.80717518      -0.48001138
Si       4.61332013       2.01328426       5.56567190      -0.91587924       1.96663995       1.50023836
Si       2.26701976       4.80187509      12.69959968      -3.78571443      -0.34181834       1.65854437
Si       5.48997890       7.77046789      21.86478111       2.58058041       1.08686200       0.19283356
O        8.56392256       6.07093540      22.38969383      -0.93075583      -1.71895043       0.77674369
O        4.07588694       1.33427557      12.33050491      -1.53305604      -1.62106091      -0.13044241
O        1.77568400       4.15320073       5.75488559      -1.97299695      -1.11502307      -1.15763184
O        5.78470661       8.77215068      15.05759975       1.37030674       0.29713764       0.69631609
O        0.85176725       3.86572138      12.39376475       1.50077085       0.91741037      -0.60781563
O        6.48797085       9.06131849      22.17893103      -1.88101492      -0.72252833      -0.43448577
O        9.08083531       6.57958734      14.87961716       0.68352903       1.25901475       0.72396349
O        3.37601470       0.99298415       5.74901117       0.46413040      -0.82706205      -0.59528100
O        3.45949978       6.28353571      19.25441579      -0.03671743      -1.67088349       0.19071384
O        3.80093357       6.91505073      15.44549823       4.74430957       3.10208185      -0.73552987
O        7.00112822       3.89451865       8.49465915      -0.09158038      -0.51606372       0.75667669
O        6.33802998       2.89755708      12.57693705       0.31650123       1.76475868      -2.32749540
O        1.37371471       8.02422882       8.53228897       0.00453827       1.11430229      -0.16291889
O        1.86458005       8.81809385      12.26677035      -0.87862152      -1.09266126       0.50875439
O        8.42486452       2.28456463      19.12565546       0.30390701      -0.91651020      -0.53379620
O        8.04462004       1.51828325      15.58358327      -0.48515070      -1.42986339      -0.25424304
O        2.80232946       4.96795804      16.79370364       0.69769545      -1.27272219       1.46821874
O        5.33952280       7.60897824      17.76903990      -0.17967239      -0.12144364      -0.54379282
O        7.35069218       5.16709834      11.10943692      -1.08191289       0.87878643       0.13934335
O        4.76433666       2.74855600       9.80953143       1.76348012       0.39736845      -0.90712752
O        9.76649375       7.24839989      17.74790619      -0.04895039       1.09095441      -1.05755638
O        3.17300764       9.73259378       9.77965893       0.07759289      -0.25717815      -0.05559219
O        0.67062483       2.32524654       9.71380062      -0.70788382      -0.36390307      -0.56956641
O        8.08914790       9.72354595      24.81729295       0.34239835      -1.45087889      -1.50710071
O        9.12332786       8.53128863      22.49116608       1.26936686       1.17571657       0.59473778
O        1.19561810       0.98231289      12.08017814       2.81618639      -2.45399702       0.11321738
O        1.06529849       1.64964183       4.38211808       0.66308830       0.40153332       0.35672719
O        8.42794379       9.15467420      15.97711143      -0.71644326       0.21076337      -0.61066859
O        3.54693764       3.98109854      12.44403251       2.74286159      -0.93374638      -1.91966516
O        5.83183522       6.49699856       8.87250508       0.53455834      -1.28928153       0.77045028
O        6.63540397       5.96261826      15.54576546      -2.79671623       0.93293576       1.86614778
O        4.22938859       3.33498747      18.55961941      -0.89455168       1.45188930       0.10363702
O        8.91815125       3.29724156      11.64492808       0.87499025      -0.07301661       0.22404033
O        6.88206226       1.32978892       8.88211888      -2.19527949       0.74341494      -0.83799393
O        1.34436426       6.88669774      15.90967704      -0.43392990       1.24528789       0.66650177
O        3.20250213       8.66614889      19.05384862      -0.54763684       0.66464582      -0.26910935
O        8.70867976       3.98008424      15.84480122      -1.62741712       3.48674426      -0.65876610
O        5.87763596       1.44242057      18.65285272       1.94366774      -1.00531482      -0.62005680
O        2.20061967       6.33487978      12.15896794       0.50980122      -0.51833740      -1.55305551
O        3.91918891       7.82750452      22.00158385      -4.49703011       2.02422772       0.82019358
O        8.03530814       4.76065923      13.58076989      -0.50148672       0.96538901       0.07935774
O        5.28193452       2.52267283       7.02274281       0.20340739      -0.40814456       2.00489188
O        2.05738042       5.02839855      14.33673512       1.06310548       0.05300872       0.03841550
O        5.51651169       7.72689159      20.21495383       1.95499047       0.33147454       0.97710499
O        0.24500611       2.21074969       6.94655366      -0.19626669       1.45357102       0.25303493
O        7.68350669       9.73679534      13.39119479      -0.47833833      -0.08205925       2.88531466
O        0.23647488       7.15320793      13.50408068      -0.74934173       0.35004512       0.10150142
O        2.31257493       0.53538783      14.27118267       0.61027748      -3.06796141       2.38202773
80
Lattice="9.77192453 0.01751879 6.90363604 0.24348012 9.76890588 6.90363604 0.01370155 0.0133883 13.86910312" Properties=species:S:1:pos:R:3:forces:R:3 energy=-575.3580653 source_file=vasprun.xml step_index=410 time_fs=40820.0 time_ps=40.82 file_index=20 pbc="T T T"
Na       9.32234391       1.00596769       9.59388010      -0.27895929       0.48010426      -0.15394614
Na       3.71389606       1.99282130      14.70359669      -0.34213938       0.35887532       0.06103231
Na       6.75709237       7.64178839      11.24884803      -0.32058297      -0.84347967       0.39120149
Na       2.27113908       8.12940122      16.83746532      -0.03751525       0.44184261       0.00877362
Na       7.62884943       7.32643827      18.88170995       0.08268478      -0.00603071       0.38735463
Na       6.84768234       3.56839724      17.27106633       0.03037146      -0.49371577       0.27206211
Na       1.24913725       6.71641606       6.36253422      -0.15519554      -0.18351938       0.23270050
Na       2.43595592       2.71598859       8.51734721       0.52314223      -0.04624701      -0.17949640
Al       7.32559359       5.31684787      22.63617138       1.00067483      -0.18421448      -0.68324045
Al       4.81260182       3.19435449      11.79254508       0.42217736      -0.37911758      -2.15770167
Al       3.17760112       4.61080043      18.36332120      -1.90504705      -0.54440919       0.96157176
Al       5.64793109       6.79710201      15.61992409      -1.63999545       2.44729622       0.07823954
Al       0.61841975       2.07550897      11.20785435      -1.00887858      -0.28687493       3.36298424
Al       7.92471061       9.32784017      22.77178653      -0.95920150       1.34568086       1.60058049
Al       9.75623958       7.70491442      16.18108257      -1.96171785       0.03870231      -1.59176148
Al       2.52365268       0.52913818       4.36874659      -2.06340561      -2.09646499      -1.69688729
Si       2.67469580       5.43489079      15.40779462      -1.00225475       0.24777597      -1.11868290
Si       4.70765639       7.34463299      18.73886122      -0.11946185       2.22722938       1.41203633
Si       7.82887532       4.27731370      11.69754320      -0.61289646       0.00502750       4.23338620
Si       5.84193113       2.58350907       8.59848431       0.19236222      -4.27885212       0.58414667
Si       0.90485429       7.49680154      12.09787988       3.33317919       1.27449002      -1.12087026
Si       2.76901023       9.11726617       8.32136580      -2.43469773       0.59549515       0.27775234
Si       9.26715383       2.24965982      15.15908515      -1.88538789      -0.80623403       1.35334684
Si       7.45864911       0.72035055      18.97567216      -0.24079796       0.13710959      -0.26583057
Si       0.48975680       2.60529581       5.36178380       1.60257598       2.22113902       0.87918656
Si       7.23221605       9.28214157      14.79631219      -0.49877281       4.53978599      -1.18747717
Si       9.76380170       7.14911388      21.68192830      -1.89879433      -1.82879901       2.17730972
Si       2.91513393       0.37721811      12.20050155      -0.18368567       0.48487560      -0.03645225
Si       8.36732386       5.33326376      14.51593927      -2.18493690      -3.16371587      -0.82974614
Si       4.59211905       2.10457926       5.94212449       2.33725136      -1.56372252      -5.25343971
Si       2.31413163       4.63180232      12.66819826      -0.80793845      -1.52036422      -1.52070801
Si       5.46210159       7.53936677      21.88958426       0.37262753       2.51786818      -1.14944898
O        8.78618544       5.84691938      21.40281953      -1.94052854       0.21666074       1.88503871
O        3.88265518       1.67414968      12.31149288       0.76234773       1.08749210       0.52322868
O        1.75551034       3.84266693       5.50794367      -1.37802155      -0.60908192      -0.55347365
O        5.94055458       8.40645098      14.79777493      -1.59932305      -2.09735555       1.44271318
O        1.32850146       3.45489916      12.19033599      -0.98992844      -1.95803664      -1.89337980
O        6.45102537       8.88754917      21.93181930      -0.63635873      -1.46402634       0.28177906
O        9.42910833       6.26732312      15.19784549       0.62578374       0.27271441       0.11713982
O        3.74180384       0.73330641       5.49605966       0.72857630       2.23835125       1.00901224
O        3.41258878       6.44723952      18.70845677      -2.32350859      -3.16039210       0.21639432
O        3.92053913       6.43627935      15.30121322       1.49078775       0.00322850       0.42978550
O        6.68651428       3.78934580       8.11936694       1.38684603       2.49155671      -0.18292118
O        6.43277370       3.80034605      12.30252234      -1.68190939      -0.96579203       0.13044156
O        1.28180015       8.29342263       8.38850834       3.21142906       1.54215719      -0.19558905
O        1.96436740       8.70963895      11.54955478      -1.15757704      -2.10374395       0.76397409
O        8.79185395       1.59422581      19.01217745       1.89740275       1.38779198      -1.54409545
O        8.10167858       1.14901735      15.35993631       0.54750749       0.61178310      -0.34255000
O        2.69578840       4.46860255      16.67777007       0.31093005       0.19963145       1.49034503
O        5.68429506       7.04329269      17.53309186       1.64897262      -0.76704022      -2.21751225
O        7.74135976       5.21004428      10.50424957      -0.06929940       2.57826827      -4.08631804
O        5.08190594       2.57051882      10.00950730      -0.44517618       1.16772535       1.38958662
O        9.62162056       7.20134870      17.81234428      -0.84523415       0.40837516       0.13943909
O        2.78460574       0.59763715       2.50785573      -0.17587352      -1.08468167      -0.32871433
O        0.46659516       2.38154242       9.53646281       0.70107805       0.05636977      -0.17397205
O        7.51807695       9.55174291      24.56036884       0.14688416       0.01222857      -1.36859327
O        9.20922843       8.19964847      22.80805616       0.77664509      -1.04173950      -0.15810766
O        1.55707211       0.50992869      11.26743364       1.14110445       0.54108392       0.35498663
O        1.01686420       1.42859777       4.42320153      -0.08693803       0.44100017      -0.19300296
O        8.47354872       8.93772329      15.67071229       2.63568013      -2.08908456       2.63203034
O        3.76782815       4.61380361      12.00179950       1.05134493      -0.82843723      -0.49251663
O        5.85372640       6.34660016       9.03740721       0.83566860       0.11390214      -1.04137583
O        6.74988245       5.78800212      14.82586818       2.82939458      -1.77238853       0.08658550
O        4.42812965       3.51723975      18.88556466       0.11721300      -0.48583044       0.63470619
O        8.79988217       3.05682560      11.51124735       3.27304193      -3.17905521       0.08040486
O        6.79126103       1.18722823       8.37562763      -0.22429273      -0.45403388       0.39362974
O        1.44695396       6.63433069      15.28906607       1.32649234      -1.20879761       0.82014400
O        3.99474886       8.86736814      18.51562581       0.76305142      -0.96571769      -0.00478398
O        8.56113339       3.66232713      15.01531878      -1.93176559       3.96399397       0.26562795
O        6.14083404       1.69134909      19.12212960      -0.76217757       0.97442059       0.47218211
O        1.57938436       6.01934589      12.37448437      -0.32010548       2.08691602       0.27107189
O        3.91580022       8.01239256       8.48801466       1.40243070      -1.16165476      -0.90826987
O        8.73150279       5.08557951      12.89214905      -0.83724811       1.61909655       1.10755535
O        4.64699076       2.19667535       7.49956005      -1.46818738       1.12439008       1.41831191
O        2.47009195       4.25613642      14.24232271       0.56009882       1.27120714       1.58770447
O        5.59856909       7.21592303      20.16526037      -0.99544885      -0.07268457       0.50399955
O        0.40362712       2.01169003       6.97970820       1.30388851       0.21984053      -3.29813377
O        7.70286029       9.40550692      13.22333839       0.04101675      -1.08088198       0.46723854
O        9.84163622       7.98538505      20.33880095       0.40540316       1.03116987      -2.35611796
O        2.42927428       0.02741016      13.74591995       0.60184609      -0.24917073       1.09062393
80
Lattice="9.77192453 0.01751879 6.90363604 0.24348012 9.76890588 6.90363604 0.01370155 0.0133883 13.86910312" Properties=species:S:1:pos:R:3:forces:R:3 energy=-574.35945794 source_file=vasprun.xml step_index=690 time_fs=93380.0 time_ps=93.38 file_index=46 pbc="T T T"
Na       7.99457349       8.26881299      18.73930051      -1.66564718       0.24536130       0.47236819
Na       9.31139042       1.85337256       9.71405151      -0.10394311      -0.08276840       0.31974459
Na       4.91332402       6.16331991      11.70036278       0.38805827       0.51068190      -0.27566982
Na       1.67546702       9.06677067      17.16471244      -0.24902068       0.28030282      -0.09157463
Na       8.84062019       3.73339564      20.56776388      -0.03344911       0.23803231      -0.05362473
Na       4.84307386       2.11577543      16.15438128       0.35277619       0.34974918      -0.00450692
Na       1.49175944       6.26904903       6.95730102       0.34094772      -0.09523389      -0.25446442
Na       3.01183124       2.74691332       8.34253208      -0.20579483      -0.19196107      -0.03342531
Al       7.39850384       5.68434931       9.21987996       1.21246027       0.55855258       0.20768672
Al       5.03311831       2.89113607      11.51146868      -1.26465884       0.71032149       0.55203289
Al       3.27835616       4.73022507      18.53257878      -0.72235771      -0.07504915      -0.66511868
Al       5.60722100       7.23585359      16.11144512       2.94189531      -0.26622744      -1.82463604
Al       0.73808726       2.47744019      11.39034059      -0.49739345      -3.16773370      -1.21997805
Al       7.66143185       0.16238100      16.15363851       0.57989803      -2.28515008      -3.02812234
Al       9.78047733       8.13957975      16.11867824       0.98436483      -1.68542300       1.66621982
Al       2.50368341       0.64497737       4.79353046       0.63064820       2.47625095      -1.08439197
Si       2.82623564       5.85795849      15.58182500       1.72150434      -2.11119791      -1.98267909
Si       4.83614524       7.59355979      19.13030300      -0.77052604      -2.44991754       0.62997708
Si       7.70823169       4.68086043      12.12030129       0.53323819      -3.27950468       2.88472285
Si       6.16211864       2.91068041       8.72120634      -0.14981904      -1.93375871      -0.49011930
Si       1.17108999       7.58980668      12.32929323       1.24111512       2.50915552      -4.76297092
Si       3.04937536       9.58366059      22.53753293      -1.75818943       0.96161156      -0.23012684
Si       9.18687115       2.57685128      15.32645899      -2.88941738       1.09677250      -0.94200938
Si       7.67057987       0.87605345      19.09950227       0.13361212       1.84857515       0.90756501
Si       0.69287869       3.16656374       5.58033234      -0.53950609      -0.92107245      -4.71264361
Si       7.28534869       9.57894152      15.03512108       0.84352512       2.74836176       1.06248736
Si       9.89388763       7.37402586      22.02774769      -2.11768104       3.01827020       0.61831204
Si       3.11615038       0.60459056      12.68328947       2.44820064       1.75128461      -0.83984240
Si       8.31847089       5.48030507      15.25283422       0.80205385       0.31641715       1.14638106
Si       4.91627416       2.61369026       5.88158361       1.33501830       0.25199596      -2.89864811
Si       2.47268955       4.83436553      12.57249090       1.10602347      -2.76416031      -1.29307180
Si       5.50900768       7.77234368      21.97347980       3.15223897       4.18730671       1.56351598
O        8.84980497       6.16030409      22.10641914      -1.37245990      -0.70717662       1.62529836
O        4.58178747       1.47507832      12.39725059      -2.54805252      -0.90463668       0.37669580
O        1.81775857       4.29160134       5.70949131       1.64156902       0.58244056      -0.39135781
O        5.92966894       8.82857359      15.33810676      -1.41697466      -0.23146505      -1.24228550
O        1.16971520       3.82618737      12.37079660      -0.01672640       0.67738302      -0.65784085
O        6.44664394       9.20542326      22.39362863      -1.07375252      -2.16923728       0.13859483
O        9.68255847       6.41720156      15.44280701       0.45400814       1.43244332      -0.57748628
O        3.59650100       1.69719520       5.88519631      -0.71770425      -1.38183213       0.51692803
O        3.68956720       6.17242380      19.38545037       2.17236179       4.08482112       0.14818966
O        4.34625989       6.45381267      15.27698699      -2.53509493       0.12869519       0.47313582
O        7.29617323       4.01189616       8.90317552       0.64162574      -0.80985873      -0.45127799
O        6.46075177       3.57369448      12.19301589       1.25865298       1.41589147      -0.27290728
O        1.49725913       9.06817750       8.72544073      -1.91618508      -1.35454112       0.82407153
O        2.32051375       8.89383040      12.32644511      -1.84404527      -2.04706197       0.32229307
O        9.05742072       1.78223063      18.99016885      -1.39756045       0.82319668       0.36123494
O        7.86034943       1.54020408      15.10657050       1.80328336       2.08635421       0.86573237
O        2.80168594       4.81237083      16.80090297      -0.12279226       0.48399156       0.82352946
O        5.71513490       7.48201100      17.77641187      -0.79784972       0.30478947       2.39255919
O        7.51246974       5.72311282      10.97134489      -0.66523620       2.13791681      -0.37703208
O        4.93996776       2.69062689       9.74579432      -0.18713469       0.47534712       0.59098104
O        9.75823615       7.72226476      17.97457297       3.70289161       0.14102119      -0.27922977
O        3.25046400       0.74548706       2.98318027      -0.57183732      -0.34418714       2.15825823
O        0.50514117       2.11833813       9.45733736       2.75245108      -0.36453234       3.71827484
O        7.76461464       9.72538023      24.71487167       0.06075863      -0.21072477       1.64091611
O        9.49269192       8.96478299      22.54366643       0.21553281      -2.58911380       0.46460142
O        1.77955151       0.99450171      11.83812085       0.56399178       0.84291408      -0.80001035
O        1.15578501       1.81539948       4.51909807      -0.91572264       1.80324073       1.74068712
O        8.23650252       8.93437580      16.15282957       2.09864236       0.14472412       0.02292235
O        3.80115517       4.29044920      11.63263136      -1.62911598       0.07518310       1.40890072
O        5.86520387       6.37023019       8.84244697      -0.88363096       0.84897405      -0.17836396
O        7.10875400       6.22544378      15.90170915      -2.09866247       0.97153222       0.39339776
O        4.70592265       3.75240972      18.55874818      -0.13191732      -0.69114785       0.82287805
O        9.11817975       3.91145330      11.80387134       1.25005563      -1.29935907      -1.02239319
O        7.02708438       1.48206235       8.79151464      -0.19839083      -0.76456002      -1.48041817
O        1.57207842       6.95559368      15.74141619       1.47453046      -0.09534491       0.10374478
O        3.80296906       8.86828716      19.01393575      -0.48811761      -0.35120149       0.67701188
O        8.64724631       4.06683995      16.03420888       0.51297013      -1.70837020      -1.25302286
O        6.28158727       1.88852908      19.13889122       1.59135598      -1.57293470       0.56269693
O        2.24218836       6.34485901      12.07778725      -0.68921224       1.05441669      -0.18644774
O        4.02877544       8.33044040      22.41296098       0.57312078      -2.33173959      -1.04416801
O        8.08388881       5.09939463      13.71744156      -0.88166085       0.40273010      -2.77731677
O        5.37742322       3.27685674       7.30072380      -0.50805218      -0.33547476       0.26156122
O        2.69874925       4.81599676      14.15230063      -0.22835792       1.44427527       2.65954562
O        6.05756610       7.76410055      20.40065922      -3.22874308      -0.98513544      -2.17847699
O        0.28550183       2.69890392       6.99094505      -1.19727906      -1.21782079       3.82426084
O        7.92245329       0.07719720       6.70646218      -1.84621740      -0.54160921      -0.05085039
O        9.90186903       7.47818093      20.40824233       0.50096346       0.13954274       0.33184545
O        2.73520597       0.74375682      14.27008483       1.03975706      -0.24021934      -0.35591134
80
Lattice="9.77192453 0.01751879 6.90363604 0.24348012 9.76890588 6.90363604 0.01370155 0.0133883 13.86910312" Properties=species:S:1:pos:R:3:forces:R:3 energy=-573.09591007 source_file=vasprun.xml step_index=140 time_fs=28280.0 time_ps=28.28 file_index=14 pbc="T T T"
Na       6.76254296       0.24532528      12.72866493      -0.04320253      -0.02259462       0.36518217
Na       7.06155930       5.17157614      19.74659071      -0.08656838      -0.01954742      -0.07329980
Na       1.34143809       6.21822007       6.56607456      -0.92040294      -0.23950100       0.82328243
Na       1.26703341       9.27420324      17.09744562       0.10770742      -0.30871258      -0.00362283
Na       8.24752398       1.89707458       9.40827475       0.27006590       0.47264108       0.07945962
Na       3.33464194       2.39750130      15.79087225       0.10668996      -0.13044954       0.20119212
Na       6.67671408       7.20893522      11.92889179       0.12084419       0.00587934      -0.20156716
Na       2.98533381       8.90291381      14.40641805       0.64217430      -0.38627712      -0.48744274
Al       7.47526104       5.42303761      22.79328836       1.21454957      -1.86595348       0.61532856
Al       4.70466563       2.75125996      11.25102746      -2.69009688      -2.00774464      -1.28257550
Al       2.75484421       4.47140251      18.32534824       1.54753139       0.53423220       1.25990762
Al       5.43262691       6.81921645      15.98429438       0.36224614       0.86713389       0.94641536
Al       0.39289134       1.86962501      11.59740514       0.87716610       1.00151307       2.73029205
Al       7.90704946       9.53852440      22.77628777      -3.24284066       1.10779335       0.34353104
Al       9.59892196       7.94592242      15.78929207      -1.24506387      -1.20294466       0.82969784
Al       2.24191056       0.28361410       4.67979481      -0.25595856      -1.42907021      -2.43049955
Si       2.54288386       5.80988421      15.30846223       1.87340137       0.53154709      -1.05645636
Si       4.25957132       7.17471689      19.11206495       1.03434018      -1.70185601      -3.33046937
Si       7.38807747       3.98812524      11.83028231       7.76378921       6.15305288       1.09629649
Si       5.42027850       2.84139526       8.30440444       3.41016373       0.30231926      -2.56123753
Si       1.06253905       7.12220258      11.74426688      -1.76551131      -1.07908694       1.02893664
Si       2.84032150       8.96630497       8.31730941      -1.11245914       1.74685032       3.71060028
Si       9.20788931       2.38859898      15.58148786      -0.91213273      -1.14056333      -0.71213239
Si       7.25002194       0.63720959      18.90875890       1.12906465       1.73572976       2.55132485
Si       0.44864314       2.63534980       5.76411761      -2.05502542      -2.06420005       0.07660110
Si       7.06476677       9.48504487      14.81955838      -0.87776430       2.02846470       2.17339746
Si       9.85165987       7.18558511      21.71751324      -2.56957284      -2.94560124      -1.58808900
Si       3.29927166       0.32129969      12.40809211       0.25466977       0.06298172       0.05982016
Si       7.93573332       5.22741349      14.80180941       1.37947103      -1.98417765       0.67821934
Si       4.64268866       2.15094241       5.49780396      -1.50514317       0.05713252      -0.41955229
Si       2.07561340       4.23479163      12.37074129      -1.19065201       2.07383025       2.53736335
Si       5.38191320       7.67816365      21.88786579       3.82667153      -2.67884960      -0.10437545
O        9.17164398       5.81981927      22.41028738      -0.87360673       1.20091882      -1.38297638
O        4.76478939       0.96261620      12.07630979      -1.01419889       1.30681877      -1.16431781
O        1.42262750       3.82183091       5.42987529       1.10956194       1.47809200      -0.53873121
O        6.22688113       8.34823067      15.54999617      -0.55634000      -0.22360342      -0.39608140
O        0.72392842       3.40893539      12.32885358      -0.75546787      -0.44510538      -0.26719150
O        6.38711098       8.93643528      21.78963248       1.48341117       1.18328042       0.91711453
O        9.15114821       6.26952420      15.00573707       0.44360830       3.02239623      -0.14654905
O        3.73089717       0.72088061       5.51666817       0.07458762       1.12437318       0.65462666
O        3.18577615       6.00242369      19.42950112      -0.36157288      -1.07860055      -0.97324135
O        4.03209116       6.70879641      14.96670081      -3.17185654      -1.55652152       0.20133420
O        6.83667019       3.88284308       8.21302083      -1.15623675      -1.81393809      -0.25044277
O        6.20890987       3.11852967      11.78420794      -3.27537402      -2.69917775       0.49561930
O        1.27348425       8.40552365       8.03243524       2.64083480       0.27773599      -0.19397951
O        2.22897056       8.20748945      11.97854947       0.00355086       2.19636857       0.52948348
O        8.73438482       1.19379312      19.18935105       0.28362623      -0.32989777      -0.01948121
O        7.79235338       1.54111146      15.46489348       0.76427828      -2.48896385      -0.44617125
O        2.45257913       5.11241583      16.74670373       0.43519511      -0.92150540       0.30313194
O        5.10285863       6.80940247      17.73152789       0.04917719      -0.24966758       0.10206683
O        7.59520629       5.07680406      10.61417403      -0.49925906      -0.77559333       1.96996239
O        4.43757241       3.09840011       9.47053147      -0.74618513      -0.19805857       3.71836393
O        9.75152445       7.24504352      17.46497457       0.30590601       1.63172148      -1.53909233
O        2.70014626       0.20652543       2.85203547      -1.07655057      -0.44794113      -1.32282940
O        0.23711223       1.85660235       9.95385435       0.41129982      -0.88315838      -1.38285225
O        7.27381375       9.52495698      24.58344594       0.70654183      -2.75523183      -4.88061110
O        9.21960092       8.50975227      22.32290497      -0.31041736       1.98863507       0.99468210
O        2.00380486       1.07207028      11.80667319      -0.46372582      -1.09991268       0.05272350
O        0.70770021       1.24812693       4.81355311       1.38373248       0.44803714       1.53823194
O        8.53101447       9.57456398      15.63024736       0.11301242      -1.70708520      -0.86033128
O        3.39459785       3.39442266      12.12295235       0.12949314       1.02045371       0.31983237
O        6.10539456       6.36242194       8.80100515      -1.86795443       3.28050737      -0.95975153
O        6.49564460       5.61720202      15.39368449       1.01883726      -1.08982727      -0.08105547
O        4.06604879       3.18355451      18.20630554      -1.07536431       0.50353167      -0.00429395
O        8.67091345       3.01410290      12.01032989       2.12495403      -2.23116462       0.09107808
O        5.95974784       1.25899768       8.28196212       1.58792377      -1.29341776       0.04027353
O        1.55311588       7.16152802      15.50292170       1.06341352       0.68493853      -0.97496542
O        3.48595013       8.56513934      18.66268924      -0.42360504       0.03034778       0.82743460
O        8.68966993       3.84329917      15.56792926      -2.31285539       4.66414462      -0.38868536
O        6.20529090       1.86086381      18.99519550      -0.40466309       0.81183833      -0.01527873
O        1.85461949       5.66089852      11.56393687       0.17919708       0.08104672       0.72743354
O        3.97455587       7.83539366       8.77100094      -1.78811653       0.04569697      -0.88699548
O        7.88737100       4.93912398      13.16337126      -1.90139354       0.57808142       0.30516230
O        4.58715719       3.02352934       6.90627325      -0.09403311      -0.36331740      -0.87359786
O        1.99283256       4.70781350      14.17716718       1.51295743       0.75196505      -0.86094582
O        5.42094090       7.13501613      20.26502525      -0.87918817       0.93813649       0.92231605
O        0.58538671       2.36516405       7.50630479      -0.13931651      -0.74652253      -3.77795794
O        7.08761663       9.39094896      13.19381462       0.02610701      -1.14376519       0.82550857
O        9.57000226       7.18930213      19.99416633       2.77593161      -0.20917975       1.22670159
O        3.30473420       0.09653146      14.07262293      -0.91082398       0.01260524      -0.03997984
80
Lattice="9.77192453 0.01751879 6.90363604 0.24348012 9.76890588 6.90363604 0.01370155 0.0133883 13.86910312" Properties=species:S:1:pos:R:3:forces:R:3 energy=-573.53181529 source_file=vasprun.xml step_index=910 time_fs=25820.0 time_ps=25.82 file_index=12 pbc="T T T"
Na       5.98468449       2.09988700      14.09481120       0.02651161      -0.03147898       0.13842644
Na       7.13328226       4.27874639      19.88534302       0.17631096      -0.03052366      -0.10842532
Na       1.43169490       5.79571925       6.98397263       0.76751605      -0.03650219       0.03683810
Na       9.72817462       7.73482145      25.02344056      -0.33819576       0.32618666      -0.10135362
Na       7.52124808       8.77274669      18.29143215       0.11615677      -0.50335576      -0.33437640
Na       9.78347300       2.70591660       9.15880833       0.13747378       0.09559036       0.02356811
Na       4.88169562       7.96010574      10.51785030       0.03428294      -0.40742183       0.76564334
Na       4.02181769       8.83326369      13.67731340      -0.21214229      -0.74988519       0.84218877
Al       7.09642015       5.30534701       9.02737408      -0.70148523       0.37648092      -2.94757393
Al       4.71234116       2.84887640      11.38581135       0.79152315       1.73619367      -0.10496938
Al       3.07913755       4.47061268      18.40932214       0.77622100       1.71298100      -2.08752441
Al       5.39442600       7.21699550      15.78545532       0.94996633      -1.29315558       2.13962002
Al       0.62214526       2.00822003      11.41707123       1.26444872       0.72368529       2.71765146
Al       8.15602516       9.57579266      22.66700189       0.26566817      -0.45644367       0.64783063
Al       9.81847690       7.45942379      15.92577955      -0.30206936       1.30967220      -1.58293138
Al       2.12121552       0.39689883       4.40515535       0.37571797      -2.04128936       0.27256562
Si       2.60986106       5.65286495      15.26052981       7.76468154      -3.51273757       1.24915409
Si       4.71804209       7.29843069      19.00648289      -2.65200995      -1.74689423      -2.35304381
Si       7.65232113       4.37217707      11.93485481      -1.66389137      -0.62557562       0.06578141
Si       5.86182423       2.36202094       8.34242691      -2.11937065       0.26175019       1.05608254
Si       1.14431721       7.32541494      11.84395791      -1.29901270      -1.77854907       3.27294459
Si       2.63677425       9.16807600       8.28590661      -0.42092599      -2.60973688      -0.80850320
Si       9.25421918       2.64414123      15.46734526       1.64350049       0.49475982       0.70222122
Si       7.52152407       0.70048188      18.67153578       1.39995818       0.52296988       1.29782797
Si       0.54091767       2.85230519       5.79827318       1.34176968       1.24754373      -2.13123025
Si       7.53579746       9.35472045      14.55805806      -3.59097954       0.19883406       0.23750887
Si       9.61223657       7.02938819      21.68909523      -0.80174986      -1.41749479      -2.03384999
Si       2.97406780       0.33338635      12.40268397       0.29801049       3.05207336       1.12757659
Si       7.90236371       5.43075872      14.70289313      -0.67500101       0.57487821      -0.71498821
Si       4.62480064       1.88281084       5.42741341       1.79946862       0.68366991      -1.87396151
Si       2.55284341       4.36727925      12.55124351      -1.63644068       1.78313767       0.99774014
Si       5.63217295       7.93662644      21.72153542      -1.33985633      -3.94422801       3.23665919
O        8.41726525       5.86394347      21.84003533       1.11681827       1.26323153      -1.11014919
O        4.38970195       1.32638647      12.21024838      -2.21021308      -0.09358913       0.98801912
O        1.51936427       4.36197842       5.31477124      -2.16398762      -3.80175696       1.46468983
O        5.97616384       8.62756032      15.08833608       2.25725341       3.23592823      -2.57882784
O        1.33089560       3.30053390      12.48707327       0.26330374      -0.86735599      -0.54560096
O        6.67548715       9.05944100      21.93040109       0.95007606       1.96441496      -0.51539413
O        9.33630095       6.06930440      14.99390765       1.11381652       1.65399840       0.46831448
O        3.68289887       0.57245699       5.28714102      -0.52968333       0.89692215      -1.11508827
O        3.65970818       6.01735342      19.15464094       0.86222131       0.88195613       0.23211462
O        3.94934660       6.77191279      15.04023413      -3.74300008      -0.87861786       0.04226220
O        6.65867626       3.76874863       8.18418427       0.13474215       0.32767776       0.31087553
O        6.31524405       3.40851404      12.27515994      -0.55729081       0.42487726      -1.47526290
O        1.61249255       7.76249455       8.09340816       0.41564728       2.19909665       0.79522646
O        2.31863321       8.42650471      11.95173480      -0.09763080       1.38323774      -1.12948796
O        8.84495637       1.66149451      18.93181263      -2.91384284      -0.94305769       0.33648693
O        8.22596564       1.44835578      15.24020200      -0.72485511      -1.89347125      -0.23804035
O        2.71869969       4.74404874      16.64776621       0.00120074       0.91641894       0.75754772
O        5.51829672       7.26072298      17.61580354       0.60511723       0.18625514      -0.60890228
O        7.94933895       4.91767185      10.39671141       0.05092397      -0.52698987       3.41357275
O        4.82470309       2.40183844       9.72464531       2.48953383      -0.53832630      -3.22867426
O        9.66016080       7.46213396      17.67422397       1.67690132      -0.13652600      -0.62032546
O        1.94428177       0.20566998       2.66723909       0.13946382       0.68143082       1.90696815
O        0.20780607       2.71570133       9.99357732      -0.44441615       0.72422200      -3.30147288
O        7.73127688       9.45549781      24.34416512       0.29260331       0.02497897      -0.38331909
O        9.32911744       8.22997296      22.73836551       0.40031787       0.46902762      -0.51701803
O        1.60029782       0.54164707      11.51651942       1.45174951      -0.23137592       0.45435514
O        0.88761590       1.46050205       4.89251665      -0.43013918       2.39391252       1.20219129
O        8.60184357       8.71843036      15.49371852       1.90707561      -0.66614508       1.13287591
O        3.64110680       4.38624366      11.36738669       1.86346978      -2.81508168       0.61413830
O        5.82591340       6.50359193       8.84413582       0.14803094       1.88828174      -0.30316455
O        6.65369715       6.11348447      15.42233197       1.33465657      -1.92567990      -0.12113617
O        4.34188541       3.24432322      18.46003516      -1.40722143      -0.05124460       0.36308584
O        8.81470130       3.24441590      12.13666255       1.34144914      -0.36180261       0.69026595
O        7.01704433       1.17796149       8.19381695       0.16743013      -0.34690688      -0.22603360
O        1.20916494       6.18968401      15.14599692      -3.79020282       2.23823029      -0.18709621
O        3.94218157       8.73548286      18.95306910      -0.90692407      -1.16761568       0.68979121
O        8.42090324       3.93605612      15.09080726      -2.66368232       0.36588804      -0.28723127
O        6.11331007       1.52576302      18.62297657       0.62550354      -0.42486651       0.40193811
O        1.94018381       5.91233384      12.14415763      -1.04864450       0.55718601      -0.02305566
O        4.13179730       8.30132271      22.38060072      -0.53593176       1.78114238      -1.33080303
O        7.61330849       5.64131212      13.01586972       0.84575708      -1.20837116       0.21494580
O        4.94201196       2.24500901       6.92413146       0.21263796       0.12361963       3.18853648
O        3.06019763       4.37879901      14.22023563      -1.10784100       1.12828919      -2.45957518
O        5.74241758       7.41301573      20.23057744       0.73812989      -0.37923949      -0.81712569
O        0.68608593       2.63172060       7.41094083       0.19970839      -0.23354589      -1.03289123
O        7.96137602       9.28406160      12.90501642      -1.47334876       0.19226057       2.48172648
O        9.87194906       7.58800552      20.11116096      -0.27257396      -0.17921925       1.21907093
O        2.43817361       0.64996903      14.15643374       1.26263780      -2.15336040      -2.85121255
80
Lattice="9.77192453 0.01751879 6.90363604 0.24348012 9.76890588 6.90363604 0.01370155 0.0133883 13.86910312" Properties=species:S:1:pos:R:3:forces:R:3 energy=-573.57944907 source_file=vasprun.xml step_index=210 time_fs=70420.0 time_ps=70.42 file_index=35 pbc="T T T"
Na       8.00322928       4.85149139      19.53726605       0.17929775      -0.40182773       0.45435332
Na       9.38980320       1.20379561       9.75915831      -0.36275150       0.19727662      -0.07334331
Na       1.07384021       4.71201740       9.30690105       0.38018642      -0.35500413       0.07996193
Na       4.54208882       9.06045864      13.50481856      -0.20367736      -1.04664554       0.34079822
Na       4.75755144       1.06394056      16.58085722       0.04740264       0.22111541       0.26733093
Na       6.55825113       1.21476650      13.53317729       0.27169722      -1.03334108       0.25864237
Na       1.47007504       8.87679908      16.69040198       0.66642272       0.38203275       0.69517819
Na       9.61185568       5.98544620      12.57139023       0.42691809       0.48228410      -0.04993049
Al       6.93007116       5.35788761       9.15542607      -0.00027327       0.74462260      -0.82724812
Al       4.46486143       2.58119315      11.60607699      -4.87153730      -0.50083500      -3.52081486
Al       2.82877372       4.41374942      18.56377231      -2.87859266       1.57523294      -1.99347407
Al       5.32929854       7.06610957      16.24352130      -0.42726641       0.43322631       0.63371251
Al       0.21177409       2.04241820      11.76359884       0.59943744       2.86681033      -2.45740537
Al       7.99099400       9.28559730      22.95206549      -5.26529370       3.54495360       0.53347483
Al       9.62409592       7.73019601      15.96967765       1.90421097       0.10614232       0.28853947
Al       2.04084701       0.39648397       4.66386187       0.05345502       2.80908535      -0.95287834
Si       2.58837470       5.71025109      15.50261909       0.42263025      -2.67011488      -0.53037394
Si       3.92680128       7.19726075      19.30183603       0.27876253       0.95276767      -1.08195379
Si       7.11437682       3.83828248      12.06218112       0.14183543       0.54080239       3.70177875
Si       5.75233168       2.63681885       8.71149611      -1.69463679      -0.19918235      -1.31104109
Si       1.18121598       7.34151010      11.96230106      -2.21124166       3.27964413       0.40228474
Si       2.69180491       9.34845982       8.57957509      -1.84253849       1.11290648       0.23302450
Si       9.05163757       2.40320023      15.54330947       3.48230879       3.54418203       0.40867036
Si       7.27379897       0.86572429      18.97657920      -0.42644006       0.09398887      -1.29577439
Si       0.20497387       2.82926211       5.63365476       0.44759261      -0.08185237       0.28705653
Si       7.13411257       9.50083474      15.02447389       1.30131203       5.50881431      -0.34435687
Si       9.73984545       7.06394183      21.87279606      -5.21931908      -0.06726420       1.09375434
Si       2.67184427       0.23879128      12.52376414      -0.01967403       3.05176653       0.60132134
Si       7.85853876       5.29671231      15.04923893      -1.67895023      -0.99534202      -0.64390365
Si       4.50801776       2.06299793       5.85007548       0.91478122      -4.29429847       0.23135286
Si       1.96767412       4.53888547      12.48819102      -0.31576557       0.19709101       0.11621676
Si       5.30876141       7.92909414      22.09652467       3.69993690      -0.97856773       0.49180127
O        8.34442033       6.07544207      22.14842922       2.41254796       0.63687338      -1.19058830
O        4.05253732       0.83956186      11.99450389       1.21693918       1.93387159      -0.18623518
O        0.83285597       4.16541531       4.94502565       2.26828040      -0.76981964       0.14550919
O        5.97707859       8.70276921      15.61471689      -4.14171822      -2.83887961       0.02115618
O        0.54218827       3.70193764      12.32330482       0.75281165       1.20306526       0.47234455
O        6.53236649       9.03598295      21.82049951      -0.06699841       0.85469351       0.48444811
O        9.21078394       6.24301926      15.12722515      -0.22353354      -0.68352650       0.10855764
O        3.31228173       0.96231582       5.68226419       0.79927774      -0.41833595       0.47193841
O        2.86264953       6.00725338      19.36458527       0.13634033      -1.55639188      -0.28143323
O        3.78092504       6.78607213      15.23892799       1.60241830       0.40231340       1.22034325
O        6.52510299       3.87624593       8.13594247       1.69725400       3.86768098       0.25451594
O        5.78063865       2.87238590      12.49408497       4.85253055       2.92333244       1.61456534
O        1.58503504       8.13119859       8.56229482      -0.90271633       1.12940612      -0.29013892
O        2.21190416       8.59461564      12.01837479      -0.25055061      -2.78361868       0.68455355
O        8.35652491       2.06854574      19.12620980      -1.48363993      -0.94497051       0.33035193
O        8.02165843       1.25230173      15.41595637      -1.06972355      -2.49004537      -0.65199617
O        2.74182025       4.55641093      16.69725952       0.57179896       1.40827424       0.06007360
O        4.92514417       7.29791618      18.01738776       0.34378460      -0.90855944      -0.90955046
O        7.14029050       4.59291496      10.72752637      -0.31011409       1.49958908      -1.83341644
O        4.70846243       2.95441130       9.85710738      -0.04046630      -0.68197237       1.53352173
O        9.82434262       7.60440635      17.69598671      -0.08582254      -0.42323079       0.56022891
O        2.31290201       0.74992192       2.90548727      -0.09632572      -1.55350315      -0.85785203
O        0.34795613       2.35423945       9.90903886      -1.51507652      -0.10405422      -0.84861528
O        7.81054040       9.52840335      24.72189408      -0.14809081       0.52096058      -0.44867336
O        9.30972608       8.46315095      22.74204275       4.77809940      -3.73245926      -2.03751018
O        1.42614460       0.90742396      11.72694346       0.44478141      -1.64468120       0.73366966
O        0.62882459       1.40894715       4.89346623      -0.16690514       0.68152596       0.94601142
O        8.42047625       8.88122814      15.62241075       2.64292625       0.24686977       0.47374951
O        3.14245705       3.79794990      11.76379931       1.38637586      -1.65044296       0.07615960
O        6.04634344       7.00491067       9.35930337      -0.29638874      -2.38349329      -0.68145473
O        6.59104211       5.80308002      16.06354000       1.00244919       0.49194067      -1.80368953
O        3.96001973       3.25005967       5.15339693      -1.81973055       5.64699631      -2.92082732
O        8.37163132       2.82675916      12.14470992      -0.18477213      -1.07601583       0.49862185
O        6.76266227       1.42438454       8.92914477       1.71762580      -4.01918495      -0.74198647
O        1.22963282       6.57453062      15.76297828       1.36882855      -0.10395937       1.78686429
O        2.89220256       8.50434563      19.02761668      -0.10174203      -3.13684041       0.29354837
O        8.07822039       3.75283908      15.62664024       0.31277810       0.85500977      -0.06824456
O        5.76104846       1.49413857      18.71406600      -0.13081585       0.24585599       0.22892966
O        1.95866171       6.02794566      11.67236402       0.32948743      -2.95499781      -0.25896917
O        4.07750563       8.58929577       8.97501014      -0.98784203       1.58074494       0.53408344
O        7.72403003       5.11473216      13.27507812      -1.78054541      -1.00395634       1.31840357
O        4.84604327       2.28702486       7.35012837       0.21088583      -1.07786823       1.29464118
O        2.26212231       5.00206599      14.00250144       0.19664503       0.02263151       1.85177360
O        4.76247906       7.27645232      20.72691298      -0.24058249      -0.13721410      -0.96323920
O        0.45699590       3.01614176       7.31422668      -2.03612385      -1.94808301       0.09805519
O        7.10691527       0.05747472       6.48713327      -0.82849223      -1.62497642       2.98862237
O        0.35861510       7.40330126      13.45959298       0.09095491      -0.47971679      -1.55410445
O        2.53644038       0.61961352      14.15062305      -0.02198293      -2.05440407       1.39414768
80
Lattice="9.77192453 0.01751879 6.90363604 0.24348012 9.76890588 6.90363604 0.01370155 0.0133883 13.86910312" Properties=species:S:1:pos:R:3:forces:R:3 energy=-574.04785451 source_file=vasprun.xml step_index=220 time_fs=46440.0 time_ps=46.44 file_index=23 pbc="T T T"
Na       7.59352644       6.43167217      17.87262255       0.27173438      -0.24036868       0.13754136
Na       3.41255691       2.52183008      15.65107558       0.12077330       0.42927157      -0.13660247
Na       3.23074414       5.71725794      10.29839399       0.68140015       0.34505253      -0.40122912
Na       4.28781993       8.37940522      13.22581065      -0.10971106      -0.23906768       0.43629119
Na       9.16367179       3.65977000      20.64453907      -0.31051806       0.36331857       0.67280541
Na       8.58073160       0.97599167      11.10614679      -0.58667315       0.45766865      -0.08335068
Na       0.87632389       8.68358494      17.96399694      -0.27645030      -0.61192990      -0.17920045
Na       3.20556727       4.20816754       7.53934524      -0.38989517       0.10674938      -0.03124943
Al       7.37706931       5.33602372       8.90064223      -0.31302856       0.58860995       1.45329603
Al       4.81415279       2.91942976      11.65481236       2.37234189       1.00378194      -2.82578452
Al       3.26076827       4.49544225      18.41292982      -0.38932415       2.17107807      -0.09572983
Al       5.43684451       7.15075515      15.95264272      -0.22326472      -0.68520918      -1.06840878
Al       0.40843058       2.05957898      11.41216914       1.08197571       0.65930250       1.59199609
Al       8.23753754       9.77236432      23.05470588      -1.24421784      -3.20720573       1.91360389
Al       9.67411787       8.03851565      16.07404026       0.53001713      -2.43112875      -2.15179387
Al       2.16030931       0.54455932       4.63902912       0.60365142      -1.75174692       0.10732967
Si       2.68646935       5.72998738      15.42456794      -1.06282233      -0.58829615      -1.17094823
Si       4.63307407       7.54315914      18.99614669      -0.95844496      -2.59659113       1.59116054
Si       7.75141977       4.34490946      11.89051306      -1.61157396       0.62131169      -4.14898871
Si       5.79064194       2.77346304       8.32880304      -2.32465723      -1.49644788       3.91573573
Si       1.01577167       7.41947461      11.93958588       1.01721428      -1.14630953       4.04779100
Si       2.90694190       9.37189084       8.60110226      -2.63257195       2.07965790       1.76702369
Si       9.25509839       2.58577294      15.49877754      -0.27732755       1.97968808       1.83055536
Si       7.54118272       0.82675739      19.16066455       2.50019867       0.65206087       2.03700062
Si       0.58506622       3.00085172       5.66452997      -0.86251382       0.38645303       0.34577378
Si       7.22692855       9.59417601      15.07577932      -0.88920602       0.70828649       1.19834341
Si       9.66691141       7.32959795      21.71872797       1.70081794      -3.01329267       1.07098907
Si       2.90123254       0.46017225      12.55503858       2.71855167      -0.65811702       1.50467406
Si       7.86646949       5.35908261      14.94436554       2.61995792      -0.27127519      -0.80989537
Si       4.61164829       1.85841087       5.47142888       1.39829825       2.21547117       3.32316611
Si       2.39000329       4.53208622      12.71272358       4.11446688      -0.07417942       2.10147830
Si       5.47979237       7.86700488      21.98151818       6.19846905       1.69893738       1.74933945
O        8.76950193       5.93862545      21.92197993       0.47232613       1.20036774      -1.52206512
O        4.26184541       1.33627413      12.26595885      -0.98531034       0.74242527      -0.71795288
O        1.75324736       4.08169111       5.44989382       1.49908260      -0.17458232      -0.11871407
O        6.06172848       8.42769157      14.89214306       0.68612418       0.62137750       0.37496965
O        1.34958784       3.45467242      12.30941569      -2.36884058      -1.79431341      -1.03504100
O        6.74768596       9.11899313      22.50732550      -3.31779691      -2.64407500      -1.32245502
O        9.04962563       6.53654832      14.95383800      -0.47730645       1.58539341       1.36125584
O        3.45726935       0.78943995       5.84879247       0.08756096       0.36411298      -1.60903307
O        3.81392381       6.04171318      19.33921677       1.26102931       0.22479309      -1.66187834
O        3.82439166       6.79531127      15.19601831       3.74434539       1.43027082       0.63919455
O        7.06792404       3.69885916       8.28335748       1.50553415       1.21104350      -1.12549318
O        6.64717989       3.16538581      11.75481232      -3.48174609      -0.47133964       0.03691879
O        1.65411983       8.36220598       8.91609622      -1.24204946       0.46475378      -1.15955330
O        2.07663097       8.58975980      11.87520999       1.05494074       0.79890501      -0.39676095
O        8.61687696       2.09928400      19.15403597      -0.17173473       0.75286178      -0.26954404
O        7.99713361       1.54985774      15.52427637       1.54486577       1.88590572      -1.08910792
O        2.56672974       5.01912189      16.81487853       1.30411046      -1.67281010       3.01627407
O        5.64461087       7.64442929      17.69923140      -0.85645109      -0.82350423      -0.24607978
O        7.97351578       5.43299554      10.57635848      -1.20687486      -1.72899070       2.14769994
O        4.84914870       3.28210360       9.66784916      -0.24070488      -0.57153595      -0.40931587
O        9.79895400       7.27012105      17.65963746      -1.31000188      -0.65208346      -1.94990009
O        2.46953173       0.81683907       2.94396976       1.23926813      -1.36780054      -1.21895542
O        0.65590282       2.03252040       9.72172665      -1.78130457       1.00494895      -1.36256160
O        8.35846868       9.66690906      24.96297126       0.81767156      -1.36417769      -3.05235675
O        9.46354938       8.46596598      22.86941990       0.18001673       0.42371659      -1.43867059
O        1.46408124       0.76316346      12.01180551      -1.21496224       0.22055949      -0.68599211
O        0.89481568       1.53030996       5.09044160      -0.98694799       0.06090716       0.23475860
O        8.45211955       9.28031278      16.15331105      -0.17751926      -0.42689042       0.21294060
O        3.91883275       4.46207514      11.95903801      -1.70309755      -1.20170438       0.81911885
O        5.98185722       6.40690312       8.64560442      -1.09903610       0.14872867      -0.06053463
O        6.47747425       5.68269278      15.68705895      -0.86430420       1.35942216       0.81113836
O        4.62397398       3.25020173      18.47799801      -2.28467103       0.06772574      -1.12995913
O        8.93028310       3.28682346      11.81011475       3.92944391      -1.12402057       0.11693324
O        6.31708187       1.23194701       8.72011725      -0.22937268      -0.18444020      -0.32242142
O        1.44781966       6.66314788      15.09957797      -2.52929790       1.21428018      -0.17912888
O        3.40103328       8.59231618      19.00383399      -1.11474061       2.37149424      -0.03336765
O        8.55784273       4.13665131      15.88511756       0.26566409      -1.41273868      -0.41715524
O        5.97320758       1.04570256       5.11806711      -1.89137087       0.64483065      -0.17444087
O        1.93653491       6.04027262      12.47116736      -1.28019994       2.44925430      -2.15169779
O        4.08892736       8.30956524       8.79027558       0.17467323      -0.24922012       0.32905180
O        7.66151261       4.86760729      13.35048652      -0.07816036       2.21726904       3.82005879
O        4.70699362       2.71832419       7.09502128       0.85964384      -1.22213910      -1.93709862
O        2.80891263       4.39022969      14.39388649      -0.89597661       0.48129832      -1.54036161
O        5.46117058       7.88973758      20.37744579       0.10329598       0.05624842      -1.28221478
O        0.37055265       2.98743096       7.30226559       0.22647650      -0.71807766      -0.76593575
O        7.73975182       0.22681247       6.83017651       0.38240959      -0.26741333      -1.81770295
O        9.75234806       7.65520928      20.09712393      -0.83046496       0.71437225       0.92150987
O        2.82307939       0.69745904      14.28436557      -0.19512351      -2.08607294      -0.35885399
80
Lattice="9.77192453 0.01751879 6.90363604 0.24348012 9.76890588 6.90363604 0.01370155 0.0133883 13.86910312" Properties=species:S:1:pos:R:3:forces:R:3 energy=-574.66707125 source_file=vasprun.xml step_index=990 time_fs=97980.0 time_ps=97.98 file_index=48 pbc="T T T"
Na       7.26561275       9.46944567      17.99179493       0.09522119      -0.17562667       0.05487798
Na       5.79825541       1.83403257      14.70625273       0.05855094       0.13181209      -0.03829016
Na       2.80491273       2.77300720       7.72762240      -0.49036082      -0.36108088       0.33462748
Na       7.83384878       7.28621168      11.45940956      -0.07039199       0.47186902      -0.21890767
Na       9.36517319       3.54884492      20.31272081      -0.86877299       0.74232651       0.36394024
Na       2.01113351       2.36207913      15.83154605       0.08025319       0.66208404       0.07571873
Na       2.00732983       6.18342928       6.95969983      -0.07258918       0.52967857       0.16492832
Na       3.91781347       8.51671170      13.78291529      -0.01571442       0.09043008       0.09500398
Al       7.56263741       5.36695103      22.71330396      -0.83647175       0.97917739      -0.22121013
Al       5.42323816       3.08890055      11.60183364      -3.42441146      -0.52817597      -0.44442291
Al       3.37463980       4.80932849      18.61430782       3.54502371      -2.21658956      -1.48489901
Al       5.79893402       7.00540285      15.92941545      -1.53105099      -0.43865458       0.28548990
Al       1.00329450       2.11683108      11.34980476      -0.63049990      -0.08894002      -2.93440747
Al       8.22601344       9.70201640      22.88922396      -0.45105381      -4.88091888      -0.66221896
Al       9.90835766       7.91819461      15.99306219       0.39107610       0.31275618       0.87951199
Al       2.59802879       0.47978054       4.27925910       1.33031963       3.33043523       0.54128123
Si       2.92586790       5.28102272      15.54613103       0.61632424       2.78480689      -0.75006817
Si       5.19947693       7.46636444      18.94867458      -3.59183116      -1.05307032      -0.21060101
Si       8.00265092       4.41589878      11.99676971      -0.05313581      -2.00256633      -2.63623016
Si       6.31631580       2.55472067       8.44561672      -2.29212866       0.28717935      -1.75552663
Si       1.30139137       7.61071119      12.01002571       3.43077513       0.30299283       0.36285799
Si       2.91538625       9.30356052      22.01842701       4.69276292      -0.07503274       1.05848228
Si       9.37025422       2.60178106      15.20681436       2.85354696      -5.40835373       1.04913752
Si       7.86532731       0.59866530      18.94518451      -1.84339283       2.60700756       1.92620891
Si       0.81211393       2.91256743       5.38812654       3.22136592      -2.07692200       1.48063821
Si       7.33057778       9.34835595      14.78948145       1.18203410       1.64126054      -3.75698102
Si       0.25976368       7.00790057      14.82189416      -1.16026882      -0.41879141       1.64358726
Si       3.49061914       0.56918187      12.37446810       0.65457080       1.01909322       0.12521797
Si       8.42890926       5.56816683      14.83046018       0.14930356      -2.07572230      -0.72249373
Si       5.06663025       2.16458075       5.76350941      -0.26767931       2.05332123      -4.99990714
Si       2.67371652       4.69671374      12.32072002       1.91101874      -0.09091987       1.34035963
Si       5.88732009       7.96214603      21.77629907      -1.53998069       0.97947169       3.26471842
O        8.99456380       5.68051315      21.72476549       0.99747782       0.81736781      -0.04060136
O        4.85129048       1.67084701      12.58915262      -1.88897159      -0.98124155      -1.61089328
O        2.15694010       4.05799813       5.76714584      -2.82637919      -0.64054335      -0.06218376
O        5.96658642       8.54395487      14.96081863      -0.93008981      -0.41543304       0.56899907
O        1.43886279       3.66010061      12.11461777      -0.25759158      -1.09951097      -0.72739845
O        6.52815860       9.47278193      22.05753172       1.04708574      -1.75104283       0.29503435
O        9.75270284       6.49107178      15.03237040      -0.91713961      -0.76405703       0.17392425
O        3.87805939       1.16538330       5.39812682      -2.10901416      -1.67437520      -1.20308926
O        3.83093252       6.51139247      18.75716118       0.08254946      -1.15768378       1.29059631
O        4.15907892       6.42726615      15.40024810       0.92074185      -0.68018092       0.66498889
O        6.99336571       3.94994815       7.87845834      -0.22178379      -1.38792497       1.38774852
O        6.72562986       3.61000874      12.45147702       1.40854900      -0.46269103       2.14989633
O        1.58770420       8.47781265       8.18885684      -2.80425606      -0.98683505       0.39009131
O        2.42481839       8.91198055      12.05656434      -1.96193566      -4.43238018       0.72725059
O        9.18751140       1.65688625      18.98721110      -0.50499468      -0.86434157       0.20734735
O        8.13488653       1.47241591      15.46949813       2.12504687       3.97871277      -1.61899902
O        3.07261873       4.23224577      16.91180417      -1.34719395       2.23696070      -2.67383854
O        6.09625410       7.26016147      17.68262712       1.23947912       0.55951808      -2.10425630
O        7.54914392       5.14814431      10.62869996       1.05067970       0.47630480      -0.67530440
O        5.72214348       2.53844493       9.96247816       0.74109691      -0.33791815      -1.10870513
O        0.27674152       7.53686706      10.85679335      -1.70239783       1.25972094      -4.01784601
O        2.90503054       0.50017019       2.53835389      -0.21116923      -0.89050140       0.91650889
O        0.82948489       2.45926253       9.39352836      -0.21866446      -0.44937708       2.10298501
O        7.95304210       9.50924807      24.56173886       0.49728679      -1.21845170      -1.04610302
O        9.47016775       8.16605442      22.74086001      -1.59193152       1.67927790      -0.39630207
O        2.15997768       0.79597300      11.31924421       2.46795909       0.33989958       2.01705231
O        1.24904257       1.64078560       4.45076585       0.54457904       0.96018502      -0.28358539
O        8.40685115       8.84225807      15.80459640       1.64584078      -0.68545297       1.92581748
O        4.19620544       4.39797708      11.70233264      -2.03009764      -0.26851308       0.27461119
O        6.41759851       6.76313079      22.78846203      -0.03020753       0.76976050      -1.02646890
O        6.98646818       5.83774696      15.51112372       1.77039980       0.09420667      -1.20051475
O        4.89711862       3.65551288      18.79481296      -1.11565525      -0.18267576       1.83848168
O        9.24426111       3.34807105      11.58904966      -1.96503165       2.12792568      -0.43748364
O        7.18112060       1.24953839       7.93758278       0.07215226      -0.32783538       1.29958307
O        1.69780223       6.52389392      15.43026636       0.87299860      -1.95855310       0.38859111
O        4.45340615       8.89672151      18.94460818      -0.76878532       2.48299476      -0.28062380
O        8.81326078       3.99666516      15.22665053      -2.36079571       5.10408581      -0.05744722
O        6.39566926       1.50600882      18.95052929       2.89276867      -0.68959703       0.71219481
O        2.16304793       6.18472641      11.84480542       0.56292024      -0.04287336       0.99228963
O        4.16471630       8.16034879      21.85000344       0.14940008       0.16602030       0.40497804
O        8.50815378       5.37340589      13.12482878       0.26613938       2.59525368       2.00758154
O        4.91310276       2.16324976       7.33645158       1.83759548       1.51297167       4.42456764
O        2.79694864       4.44835242      14.08188465      -0.05254789       0.34123101       0.45185456
O        6.07812124       7.50904820      20.27525273       1.38017229      -1.22513604      -1.43955522
O        0.51863422       2.27455677       6.91354075      -0.63928014       0.73098778      -0.40987085
O        7.90692482       9.13547590      13.15509060      -0.00303786       0.66996047       1.16890358
O        0.44530769       7.68392404      13.33906359      -0.52592947      -0.34455472       1.54450223
O        2.95246184       0.67934509      13.99174289      -0.65499153      -0.01593583      -2.09612652
80
Lattice="9.77192453 0.01751879 6.90363604 0.24348012 9.76890588 6.90363604 0.01370155 0.0133883 13.86910312" Properties=species:S:1:pos:R:3:forces:R:3 energy=-574.3363682 source_file=vasprun.xml step_index=255 time_fs=76510.0 time_ps=76.51 file_index=38 pbc="T T T"
Na       9.15857938       4.30177808      20.67262875      -0.75474389       0.38967249       0.49889752
Na       8.76172791       0.90142832      10.72661518      -0.00816022       0.19803379       0.48210669
Na       6.44711421       4.13401580      17.78918490      -0.36904110       0.00386156       0.05922313
Na       1.92776457       9.20384818      15.82875928      -0.27926126      -0.22048475       0.04351202
Na       2.80124783       2.78347430      15.77452169       0.01574508      -0.31189538      -0.02993548
Na       5.73563412       1.45090521      13.85415062       0.81721993      -0.14197294       0.40714004
Na       6.45324564       7.36884230      12.05004188      -0.06588648      -0.37490722      -0.21042581
Na       1.23299479       6.03176067       6.89351787      -0.16350298       0.29538215       0.28243504
Al       6.91226435       5.45891793       9.26311102       0.87827366      -0.40008584       0.37352961
Al       4.56114654       2.77393966      11.39752933      -2.38266444       1.11906661       1.01147774
Al       2.76602971       4.65464272      18.53088935      -0.43385088      -2.87069000       1.05689861
Al       5.25139438       6.99068600      16.40815167      -1.25448714      -2.40622384      -0.25072139
Al       0.28968379       1.77131718      11.75472629      -0.26749018       0.01418776       0.35376294
Al       7.59806863       9.49970172      22.94510658      -0.47426775       0.46862671      -1.11321807
Al       9.22823921       8.12391267      15.81154346       0.21427674      -3.25394052       2.56924105
Al       1.96189449       0.40966422       5.02855489      -2.11471584      -1.19944796       0.42197006
Si       2.19471728       5.77170207      15.69310152       1.75789407       0.52168266       0.97622878
Si       4.47573495       7.18585858      19.38674827      -1.87986956      -0.28868298      -3.64494108
Si       7.29561982       4.02767074      12.05412644      -0.13720357       1.76187238       1.52046179
Si       5.49993159       2.78229883       8.34363593      -1.20599025      -1.72941217       3.71740077
Si       0.69578249       7.34989925      11.97681483      -0.68072046      -4.23713399       0.67482464
Si       2.38268278       9.33636227       8.85663587       1.20884796      -3.18840358      -2.87455108
Si       8.90576585       2.50700138      15.73655156       0.19638180       0.09628659       3.54345083
Si       7.06602368       0.49714169      19.11297041      -1.64509546      -1.53861008       0.73732984
Si       0.26388545       2.86131435       5.91628440      -2.44944523       2.00801771       0.44638755
Si       6.94748245       9.50038450      15.14736739      -4.38507791       2.99732776      -4.49695877
Si       9.30150670       7.09301791      21.89986633      -0.71594228       0.55506372      -2.20119041
Si       2.90461288       0.39897527      12.81789526       3.09297271       0.51923692       1.62664915
Si       7.52503266       5.20677081      15.12086229      -0.76287327       1.83160874      -1.25358789
Si       4.46898802       2.26587425       5.65325827       1.17582592      -0.56330865      -0.21508647
Si       2.04979495       4.42039178      12.73211045      -0.09566740       2.31347182      -3.08198157
Si       5.15559077       7.82063665      22.14356136       3.19482883       3.52554998       2.59520775
O        8.39059319       5.80477197      22.26526339       0.60119121       0.87512021      -0.48981193
O        4.08997786       1.50489874      12.50285912      -1.01015647      -1.66055987       0.57857319
O        1.20659946       4.14566510       5.56671551       0.95140968      -0.50817510       0.36535605
O        6.07313999       8.31345892      15.77352704       0.32506953       1.62001735      -0.23868761
O        0.79620302       3.39672488      12.36304779      -0.51937237      -0.34164247       1.58794386
O        6.01118650       9.33198603      22.01491430       0.35289372      -1.76168364      -0.33430212
O        8.65783691       6.49388239      15.05172144      -0.54315177       0.05125675       0.69419699
O        3.37808829       1.08674147       5.58367439       1.42374103       0.22043122       0.56390568
O        3.22151089       6.13447387      19.04641514       0.69312020       2.82598205       1.87730624
O        3.49395424       6.81717514      15.72654416       0.66047292      -0.38404315       0.98529368
O        6.55544081       3.95869593       8.51275480      -0.42049345       0.21460624      -0.60089154
O        6.13102441       2.96473167      12.07669382      -0.74630939      -0.36365067       0.21070765
O        0.99057183       8.52034226       8.30793317       2.94617300       0.61869195       0.15484913
O        1.51719294       8.61130410      12.31258253       2.30497364       2.21751873       0.87900728
O        8.57124299       0.90498003      19.47979460       1.81649529       1.27608653      -1.23364523
O        7.84086220       1.39358043      15.48488890      -2.23438263      -2.40103356       0.43168455
O        2.21727366       4.62495086      16.95996895      -0.89835308       1.42279747      -4.14253501
O        5.54031376       6.89059025      18.15656469      -0.80259840       0.62962534       1.14408576
O        7.36244670       5.09431614      10.90067903      -0.67681243       1.37406800      -0.64527441
O        4.39541185       2.66343518       9.72408093       2.40707934      -0.32541881      -3.20000880
O        9.39095326       7.70228972      17.66237305       0.80192521      -0.16937587      -0.77665558
O        1.96526754       0.34023706       3.31038754      -0.06734815       1.15592065      -1.07277291
O        0.21612984       2.10765480      10.04935768      -1.75492104       0.17784542      -1.19766521
O        7.03059569       9.32263524      24.63821236       1.26804445       1.25520132       1.16792520
O        9.11459635       8.67056062      22.33700458      -1.80163455      -0.69107497       0.50247767
O        1.67867457       0.74827172      11.94439739      -2.07479230      -0.57478887      -0.86900640
O        0.53877519       1.37948654       5.53310316       1.88409700      -1.83636191      -1.25036708
O        8.34896563       9.63527339      15.80169188       2.10471741      -1.05487750       0.57547337
O        3.31226804       4.00777953      11.88330916       2.06312385      -1.34282646       0.52463223
O        6.12738198       6.98076495       9.26674119      -0.97118255      -0.03517418       0.25584835
O        6.07007904       5.42099511      15.93132246       0.81185244       1.34830670      -0.87879473
O        4.14699895       3.48244137      18.48897139      -0.41570203       0.34783129      -0.37523084
O        8.55626306       3.06831264      11.91998600       3.32683029      -0.88565256       1.24907161
O        6.43450637       1.44123497       8.05184178      -0.91200196      -1.12684676       1.81382977
O        0.94835467       6.81611513      15.63696687       2.77670546      -0.80424907       1.97901120
O        3.83108423       8.70423682      19.38335261      -0.38328771       0.06177715       0.00692418
O        7.94476306       3.86655961      15.97762575       1.03738639       0.14535632       0.28203071
O        6.10450633       1.82844629      19.17674011      -1.53183425       1.20126024      -0.87483105
O        1.83775059       5.91481478      12.00968253      -2.66426822       2.35972824      -0.57606606
O        3.78177126       8.22617426       8.94009629      -4.49367203       1.54581506       0.97426848
O        7.22352312       5.04660451      13.42352498       0.53512485      -0.99131779       1.40723026
O        4.46221249       2.91939389       7.14008055      -0.67926131       0.37272060      -1.03879193
O        2.16302828       4.84291160      14.33979443      -0.13348059      -1.63112213       0.31447126
O        4.90639764       6.93606697      20.87363699       0.95835179      -1.69051973      -0.46322413
O        9.66641334       2.80999332      14.44079619       2.64266966       1.58764899      -3.93061807
O        6.55138896       9.30221552      13.40966104       2.31895889      -0.56880827       0.40742244
O        9.62151928       6.88010866      20.27101411      -1.00680949       0.38857708      -0.25740679
O        2.63372972       0.57716559      14.54434646      -0.30372762      -0.01377214      -0.49162181
80
Lattice="9.77192453 0.01751879 6.90363604 0.24348012 9.76890588 6.90363604 0.01370155 0.0133883 13.86910312" Properties=species:S:1:pos:R:3:forces:R:3 energy=-575.19665276 source_file=vasprun.xml step_index=500 time_fs=77000.0 time_ps=77.0 file_index=38 pbc="T T T"
Na       8.02281327       3.82269999      20.96980433       0.34776663      -0.29032136      -0.87787467
Na       8.69326088       0.45050694      11.18390590      -0.24095220       0.31358294      -0.46980293
Na       5.38865235       4.27713224      17.43060102       0.52413224      -0.30352973      -0.06775774
Na       1.96539939       8.94495241      16.24217353      -0.13216973      -0.08483091      -0.08829343
Na       2.00415495       3.07101057      14.86046108       0.30158143      -1.70452945       0.27952393
Na       6.18940372       1.37793046      14.20804263      -1.47547329       0.52663582      -0.98262433
Na       6.35935092       8.05798373      11.24957827      -0.43234727      -0.51359144       0.30248383
Na       0.93563590       6.02758263       7.13870168      -0.01190607      -0.56000867      -0.27538525
Al       6.79486201       5.25060442       9.30965567      -2.83434522       1.03789549      -1.21789560
Al       4.59190062       2.83344853      11.73772695      -2.59260880       1.66405897       1.90203234
Al       2.87816233       4.64422010      18.45290184      -0.20079243       0.59757041      -0.94836651
Al       5.28764926       7.32967590      16.08767243      -0.69710532      -1.88352995      -0.74165379
Al       0.45871332       2.03047249      11.69418486      -1.76095670       1.10036290      -0.07953104
Al       7.93825721       9.57420457      22.83055623       0.62103685      -0.40762248       0.41189864
Al       9.28517918       7.78207614      16.08439305       0.27472425       1.30249563       1.12848172
Al       1.93702642       0.17846878       5.07294798       0.91915117      -1.36686481      -1.56922220
Si       2.36033386       5.70710441      15.64228535       5.76709613      -1.02407824       0.58183628
Si       4.51356005       7.48279062      19.18793298       2.46691965      -0.59659334      -3.88181647
Si       7.39004928       4.02207419      12.13741611      -1.22886642       1.89616499      -0.81885996
Si       5.33655168       2.62675133       8.60766514       0.71318647      -2.05411148       0.06741725
Si       0.61295138       7.41664118      12.42984723       0.43206971      -0.58829674      -3.83748462
Si       2.29334939       8.78976381       8.67260101       1.98007335       0.16649786       2.52313492
Si       8.97249049       2.62019620      15.59007947       2.26544716       2.50803625       2.95007206
Si       7.33346073       0.95037959      19.00166140      -2.03479936       3.34860124       3.86533987
Si       0.36912257       3.06740690       5.65506302      -0.85886336      -1.28814208       0.59903416
Si       7.02235902       9.64540829      14.89788794      -0.57075877       1.55213501       0.50830298
Si       9.33420724       6.76656672      22.00848101       0.97437469       3.10653239       0.88830814
Si       2.84286245       0.43596826      13.12788683      -0.53167989       3.46311597      -1.54472040
Si       7.53715839       5.12613589      15.30835930      -2.50417552       1.03831555      -0.42843379
Si       4.36129724       2.02061157       5.74368549       1.95889419       0.37660063      -3.63703785
Si       1.96512373       4.78514409      12.54643776       5.38069395      -4.46944056       1.91677079
Si       5.28307653       7.74769450      22.01951191       1.10330762      -0.23441465      -0.42876949
O        8.12483914       5.85276147      22.31812741       0.29234883      -1.15116580      -0.69014788
O        3.90424109       1.78879458      13.05140640      -0.73951619      -3.07332394       0.33057830
O        1.28591463       4.32089837       5.26347633      -0.47397468       0.86926106       1.16736408
O        5.94015616       8.52210035      15.03726229      -1.68335627      -1.41863775       0.82161921
O        1.03497273       3.47846571      12.53899337      -1.67173554      -0.35802553      -0.22879248
O        6.34883000       9.03280700      22.09628219       0.50964889       0.69760998       0.33233163
O        8.70692235       6.25422932      15.47793946      -0.12300047      -0.03875649      -0.34410673
O        3.59139002       0.73507318       5.19195440      -0.46260778      -0.85857209       1.06979737
O        3.68661078       6.20699692      18.74082107      -2.34709211      -2.00630020       0.34367641
O        3.59067284       6.86016147      15.73273444      -2.30979248      -0.22715096      -0.03005985
O        6.13468021       3.96440220       8.22513284       0.83406212       1.08066354       0.75162673
O        6.17708137       2.99724013      12.39727974       0.37165878      -0.74805700      -0.70969531
O        1.02879702       7.89978541       8.20030308      -0.25324396      -0.06677697       0.64511986
O        1.59730346       8.49779538      13.01422181       1.09196171       2.93180221       0.12661237
O        8.50429590       1.98694967      19.53750313       1.63054473      -1.11721006      -1.61620885
O        7.97021431       1.49862024      15.30686499      -2.69690490      -4.13563431      -1.44841839
O        2.76160410       4.38636260      16.68818363      -0.91486920       2.24673502      -1.26972149
O        5.42667347       7.72482591      17.73420827      -0.52269508       0.53553183       3.24382909
O        7.32838928       5.18711904      10.88322131      -0.12139430      -1.97580245       4.06466921
O        4.68117100       2.75090837      10.05283866      -0.71851795      -0.35429821      -0.99826840
O        9.60873249       8.05025159      17.97690406      -0.43985016      -0.85181727      -0.67357700
O        2.31793970       9.26814385      10.23590874      -0.97828131       0.37727079       0.10913557
O        0.11673441       2.00946045       9.89750336       0.80269677       0.46033072       1.05977067
O        7.52819933       0.08464217      17.71822112       0.14168981      -1.52127608      -2.48693017
O        9.30547471       8.39247492      22.53162293      -1.24942511      -0.33822379      -0.01549849
O        1.61115706       0.81310157      12.03666883       1.03453255      -1.42491328       0.92717686
O        0.92785497       1.63247388       5.17438108      -0.19107596      -0.81611722       0.22349494
O        8.38060106       9.26868864      15.62672355       2.02748198      -1.29420632       1.20355549
O        3.47963881       4.20028594      12.14575044      -0.61161364       0.73528303      -0.90255860
O        5.72874540       6.70548708       9.26053727       0.91662555      -1.28173092       1.27355126
O        5.97457418       5.62480206      15.80530545       2.71299026       0.14476432      -0.64241384
O        3.88048135       3.30325738      18.69562529       0.36586913      -0.46028038       1.76415892
O        8.67656383       3.13160287      11.66558996       1.78680743      -0.23750688       1.72686033
O        6.40558075       1.33020277       8.76325532      -0.08013945       0.03954523      -0.98008624
O        0.90673209       6.19555523      15.87081792      -2.84097689       1.72074748       1.07916375
O        3.74697229       8.84696789      19.47739316      -0.85445792       0.76618318       0.39003218
O        7.97916171       3.88692496      16.34051642       0.92638338      -0.80640687      -2.43118179
O        5.98875441       2.03210989      19.02693112       0.27608180      -0.93293734      -0.32652397
O        1.54008815       6.10925975      11.93695563      -1.67928438       3.49056846      -1.99441153
O        3.72044136       7.92987725       8.45349650      -2.18772868       1.13113130      -0.06284737
O        7.35784935       4.68769970      13.64042595       1.73047866       1.03712870       1.87290327
O        4.40961481       2.21452597       7.30725822      -0.73770727       0.45199553       2.15408886
O        2.22723279       5.01161474      14.20255010      -0.14634724       0.47601605      -1.12157656
O        5.32770802       7.08148894      20.50754382       1.15583285       0.24805872       0.69038448
O        0.16016881       3.02050331       7.39742124      -0.47562340       0.68759357      -1.55070943
O        7.04628326       9.68270586      13.27209902       1.33764609       0.43427453      -1.83922807
O        9.38952710       6.77458617      20.38791314      -0.64457304      -0.30381399       0.49051942
O        2.25200647       0.36828566      14.69520373       0.28226936       0.57670833      -1.53959263
80
Lattice="9.77192453 0.01751879 6.90363604 0.24348012 9.76890588 6.90363604 0.01370155 0.0133883 13.86910312" Properties=species:S:1:pos:R:3:forces:R:3 energy=-575.9415869 source_file=vasprun.xml step_index=935 time_fs=11870.0 time_ps=11.87 file_index=5 pbc="T T T"
Na       6.79583464       4.69091193      17.48381827      -0.28091689      -0.24793155       0.50059667
Na       7.11753188       1.40039715      13.12462362      -0.14927291      -0.65765299       0.21213871
Na       2.84943817       2.19331453       8.58529629      -0.10833078      -0.09176305       0.12776020
Na       8.90192880       7.59064598      12.07443718       0.00310719      -0.39922101      -0.15744264
Na       8.70122641       3.16510545      20.94396499       1.13782954       0.47930894      -0.22769027
Na       3.80494171       2.76598283      15.80071860      -0.59355173       0.30015337      -0.08774903
Na       2.91550700       6.48766893       7.68252309      -0.17357009       0.05206608      -0.30273186
Na       4.15078037       7.91496671      12.70377408       0.79157449      -0.33937827       0.72236182
Al       7.41598445       5.46255920      22.65593043      -0.71847893       0.98561591       2.04558394
Al       5.09820157       2.72532761      11.37571004      -3.24532169       1.24965383       0.39248626
Al       3.43793882       4.58364715      18.64661104      -2.72395020       2.18871126      -1.57476735
Al       5.67801912       7.27255373      15.79898534      -0.66887433      -0.55151952      -1.36741595
Al       0.83156935       2.46995511      11.46563325       0.49438655       0.01622910       0.56465569
Al       8.41635131       9.78399395      23.01570864      -0.01122481      -2.77284403      -1.20516225
Al       0.22467320       8.06495359       9.02563664      -2.41707998       0.75133900      -0.66151477
Al       2.39066918       0.52552645       4.35369392      -2.04824383       1.09296517      -0.64238577
Si       3.07055278       5.84453059      15.47025414      -2.25423827       0.02827496       0.74282538
Si       4.91766476       7.41523579      18.97246116      -3.38923230       1.79791763       0.95748824
Si       7.72820032       4.47483112      12.02497520       0.30785384       2.70435567      -2.66076223
Si       5.97950792       2.65052996       8.37339962      -0.72217028      -0.16691398      -1.13603303
Si       1.33360584       7.39393453      11.91091732      -2.11073595      -1.93219514      -0.06251353
Si       2.97593131       9.51454567      22.15080667       0.06603358       1.10266043      -1.67913798
Si       9.67739175       2.92201107      15.43186814      -0.35166877      -2.36860876       0.60843182
Si       7.81737268       0.78119392      19.04625733       2.22951630       2.06651531      -0.68175142
Si       0.66270660       2.94227629       5.53893237       3.97079266       2.35522715       1.03017255
Si       7.55355230       9.56889513      14.86074595      -1.02410946      -2.38439899       1.18143504
Si       9.92828540       7.09197636      21.72682022      -1.34876618      -0.94965967       2.14511278
Si       3.25252413       0.52106496      12.22451870       1.83254899      -1.45156203       3.50142413
Si       8.18100425       5.61435432      14.86734434       0.93365222       4.62817166      -2.06571672
Si       4.87724371       2.21766682       5.57599780       1.03830619      -1.98087157      -5.40133087
Si       2.53187919       4.61082741      12.67268205       0.44711647      -2.30433517       0.86497425
Si       5.98442690       8.17024898      21.68786587      -0.27481668       2.81916826      -3.00489839
O        8.90749641       5.65416396      21.92521131       2.52527099       2.38616715      -1.03868982
O        4.75662612       1.17781451      12.06606598       0.54604864       0.32704251      -0.28613435
O        1.81497261       4.21120625       5.47071241       0.26943711      -0.94270712       0.08423535
O        6.31647795       8.49894056      14.68110418       0.31014751       0.36600924       0.66672914
O        1.05913952       3.84157545      12.63715137       0.74239465      -0.26099858      -1.16810118
O        7.02417276       9.42103909      21.83576494      -0.05438012       1.16819702       1.07295845
O        9.45118498       6.69773877      15.05451541      -2.37259010      -1.73674155      -1.00493472
O        3.70252919       1.06850627       5.28618722       2.52601617       0.93995714       0.48104948
O        3.96463808       6.11368706      19.31964759       0.72781359       0.10128241       1.63041581
O        4.14097076       6.96327051      14.82945969       0.62576451      -1.02367135       2.03414364
O        6.79568503       3.99000342       7.86783837      -0.46630479      -0.85140197       1.41674977
O        6.39144239       3.55831287      12.05114847       2.22188016       0.11852202       1.43905166
O        1.71734319       8.43418243       8.29794314       1.89574057       0.83287601      -0.62513256
O        2.31923296       8.65891708      11.94533582       0.10313696       1.88753842      -0.69894543
O        9.03610125       1.97095680      19.00967373      -0.97191333      -1.34143554      -0.26553902
O        9.00547947       1.44174532      15.77420048      -0.99387233       2.43398279      -0.69471477
O        3.21984476       4.88555784      16.89197539       0.12004049       2.04220807      -2.66534698
O        5.34654331       7.25175081      17.49951370       1.97570870      -0.43126634      -3.18236982
O        7.76268674       5.42341323      10.63732208      -0.85644173      -1.16253366      -0.07795237
O        4.99979906       2.85838684       9.63800429       0.58101869      -0.37419330      -0.53599741
O        0.56698328       7.27267577      10.43499747       1.29384538      -0.57081076       4.92899427
O        2.53638215       0.88812054       2.55720539       1.01757290      -1.96443381       0.71840835
O        0.94663734       3.02029329       9.74867211       0.36704971       0.91399555       0.65234696
O        8.16266616       9.45665420      24.76438661      -0.34621195       0.27728377      -0.39679139
O        9.49458694       8.50788114      22.43734801      -0.14384125      -1.27703458       0.20981227
O        2.02101271       1.12617300      11.51761867      -1.86229882       1.40118993      -2.13308297
O        1.12757306       1.77694328       4.61827686       0.26091613      -2.26818414      -0.51943617
O        8.58284243       9.23461684      15.99651563       2.35533012      -1.41388778       1.06204315
O        3.70718473       3.67747843      11.96092216      -1.20665084       1.25388817       0.32537372
O        6.36340040       6.91335959      22.47721798       0.49443835      -3.22084969       1.48443635
O        6.71280737       5.77741228      15.58625588       0.69065069       0.88427254      -0.25574438
O        4.72109562       3.50130661      18.27901968       1.20139350      -2.54107149       2.89191765
O        9.02099146       3.51132446      12.02131003      -1.28902284      -0.92835914       0.03373522
O        6.81386173       1.23517904       8.35855380      -1.22752248       4.07806743       0.77890035
O        1.60936286       6.68208592      15.41378206       1.34499892      -0.50312716       0.75072674
O        3.83172128       8.71961595      18.94850431      -0.29247610      -1.32069203      -0.25409197
O        8.61897154       4.18111447      15.23118375       1.51097640      -4.74957268       1.64024764
O        6.52875267       1.77616394      18.91290108      -2.58725668       0.01636600       1.21711395
O        2.48823787       6.11832551      12.03665968      -0.86292952       1.22213592      -0.00799776
O        4.39692869       8.61777941      22.05007244      -0.03541612      -0.44248393       0.55817612
O        8.16836890       5.60979962      13.17544262      -1.76395776      -0.41294853       0.34303299
O        4.85733553       2.30780782       7.13341252      -0.01804979       1.35050438       2.44413062
O        2.83286051       4.68262469      14.34159072       0.75082496      -0.72086517      -1.25166868
O        6.10584636       7.87565265      19.95220640      -0.02269410      -0.35469048       2.36705562
O        0.77825507       2.56714424       7.17581720      -0.51147840       0.46806470      -0.36446872
O        8.31232583       9.69243486      13.47278353       0.47395101       0.15254574      -2.56534590
O        0.21220478       7.34428582      13.24994626       1.94941878       0.21922960      -4.13475767
O        2.77225146       0.65580979      13.86563974       0.36532981       0.00109815       0.22996565
80
Lattice="9.77192453 0.01751879 6.90363604 0.24348012 9.76890588 6.90363604 0.01370155 0.0133883 13.86910312" Properties=species:S:1:pos:R:3:forces:R:3 energy=-574.90815273 source_file=vasprun.xml step_index=785 time_fs=15570.0 time_ps=15.57 file_index=7 pbc="T T T"
Na       7.42794440       8.47354112      17.98051980       0.25895354      -0.17927070       0.02972663
Na       8.67364474       4.11562245      20.26503599      -0.13536582      -0.06029581       0.52807607
Na       1.74625204       8.88360709      17.23419894      -0.15884626       0.11722783      -0.03164530
Na       8.27236818       7.29837412      12.13798734       0.14540046       0.48258595      -0.21902648
Na       4.16379991       2.93040562      16.07579593       0.09910758      -1.33739164       0.08757808
Na       6.26928915       1.24924634      13.61302842       0.36552038       0.11894667       0.29010868
Na       3.66493019       5.07860452       8.92042969      -0.00302399      -0.06486254       0.16875383
Na       4.19846878       8.16968320      13.37846239       0.06290563       0.90302094      -0.70583175
Al       7.27453881       5.47445271       8.90497872       0.72964286       0.76060994       1.19256031
Al       4.81658509       2.95620104      11.45312423      -1.11599605       0.53673220       2.54130697
Al       3.17497714       4.70371182      18.53511796      -2.98540333      -1.04367425      -0.49896541
Al       5.57992761       7.14723828      15.83496574       3.95479550       0.21418151       0.93256957
Al       0.52185325       2.35318243      11.43068131       0.59674993      -0.31385305       3.85192582
Al       8.08814880       0.12944571      15.85547055      -1.60213735      -4.41673169       1.45439016
Al       9.79980067       8.05269170      15.98209674      -0.44438373      -0.71866851      -1.37991133
Al       2.54703333       0.49971747       4.62358368       2.05118234       2.43962612      -1.57869835
Si       3.07228403       5.75840875      15.25564259      -1.13481649       0.19884185       0.92059999
Si       4.46291751       7.38124535      19.00596318      -1.84415933       1.44186308      -1.80790222
Si       7.67477395       4.35919489      11.91695909       0.83557629      -1.25868226       1.68130498
Si       5.96321453       2.73548681       8.51449775       0.47779869      -2.16507311      -2.75823977
Si       1.10439029       7.67893077      12.02517934       2.80409789      -1.81158272      -3.79353965
Si       3.01778278       9.45759933      22.31451738      -2.17522737      -1.36331866       1.67581169
Si       9.39104197       2.64855663      15.35300951      -4.91625612       1.21819307       0.56766474
Si       7.68756005       1.04566608      19.05735432       1.27714796       1.11281646       0.01764356
Si       0.56548758       2.78411092       5.68590352       1.58564008      -0.64088117      -1.85581961
Si       7.23737998       9.49827042      14.73044189      -0.06261376       2.11781089       0.39739759
Si       0.22107822       7.09662940      14.89166687      -1.98410733       2.40641043       2.63901414
Si       3.09240219       0.62170543      12.63622052      -0.40239614       0.03243308      -0.39303972
Si       8.35495562       5.57831809      14.89766252      -1.88345737      -2.06587393      -0.96783408
Si       4.81965214       2.21870038       5.61552134       1.92465090       1.27466890       2.11791971
Si       2.25910250       4.66581413      12.41779388      -0.86902955      -0.40978323      -0.58869958
Si       5.62346756       7.87958408      21.57009047       4.99905315       1.07588552       2.88109477
O        8.73960741       6.06937858      21.98976896       1.63129744       0.07016007      -1.31437313
O        4.47416755       1.42274118      12.35188242       0.59870524       0.60170579      -1.02102913
O        1.47600038       4.06889911       5.51730881       2.87282065       2.47226439      -0.45785513
O        5.91442171       8.60604638      14.85284971      -0.29257776      -0.25706170       0.10423104
O        0.93462562       3.72363863      12.49142358       0.25361291       1.48906448      -0.53588063
O        6.80936847       8.96432876      21.96213266       0.32468630       1.22112689      -0.15973602
O        9.56933048       6.52439007      14.98515565       1.98371911       3.31254848       1.04378386
O        4.08891146       0.83121807       5.72765714      -2.24030214      -1.70382623      -1.51511408
O        3.36882742       6.21574663      19.41669409       1.68753683       0.21200594      -0.46874734
O        4.24563766       6.83890068      14.99806539      -3.86286774      -1.91786632      -1.67287112
O        7.14688068       3.82749267       8.36101418      -0.30115690       0.59395574       0.07255152
O        6.21667444       3.52609216      12.53160384       1.51048697       1.19064167      -2.54864229
O        1.42629562       8.83061115       8.50513234       2.79305535       0.39529879      -0.18036044
O        2.45257448       8.70417424      11.96590461      -2.38190163      -3.03667755       0.55107278
O        8.95503454       2.05160856      19.54144163      -1.36632418      -1.62256098      -2.25590595
O        7.90989720       1.63002064      15.10807925       2.44626656       2.24268206       0.12696832
O        3.31891340       4.75084749      16.49741239      -0.77480513       1.41213058       1.74567835
O        5.10676282       7.11130185      17.50971066       0.19570044       0.85919316       1.58184446
O        7.56301126       5.54470897      10.70150181      -0.29955639      -2.20976273       0.94571861
O        5.04355979       2.86120783       9.79851924       0.36595831       0.30334034      -0.48674989
O        9.70943281       7.72998972      17.70566055       1.49144330       0.31815026       2.01408528
O        2.99627130       0.68064871       2.79068944       0.62436312      -0.87318507       2.18611588
O        0.41239055       2.32130074       9.76162120       0.60107110      -0.86014139       0.38409434
O        7.88194173       0.25556420      17.65428687       0.38523718      -0.00959781      -0.58300758
O        9.57014318       8.47008145      22.75435040       0.24028079       0.42612359      -0.55417281
O        1.79339997       1.23039771      11.93851744      -0.08018891      -0.86054566      -1.11347471
O        1.34754131       1.65915093       4.82400861      -0.91435657      -0.47733883       0.26916966
O        8.28962672       8.96651549      15.77767394       1.43256553      -1.01034975       1.28477316
O        3.26807041       3.93126402      11.40847070       2.01972708      -0.27414718      -0.14069614
O        5.97110531       6.61377133      22.54232839      -0.51796842      -1.62239341      -0.98241977
O        6.94531241       6.03755473      15.60683867       0.18575821       0.29488051      -0.66672736
O        4.25419546       3.37133792      18.50517631       0.05558697      -0.11385304       0.15043555
O        8.92928294       3.11608613      11.83249359      -3.17393684       1.08419331      -0.31297840
O        6.69077281       1.26904034       8.32148226      -0.23727982       0.22264951       0.29509130
O        1.69159716       6.67736047      15.49781320      -0.30195248      -0.12884364      -0.09940020
O        3.46918289       8.81058563      18.97235367       0.63366511      -0.73351874      -0.01573077
O        8.74057955       4.20401246      15.70906539       0.86886578      -2.41639636      -1.33592433
O        6.39994962       2.07320106      18.96817496      -0.03891032      -0.66930760       0.25132881
O        2.00479548       6.15611865      11.83154911      -1.69848464       2.63592310      -0.12385068
O        4.17592208       8.21790065      22.00242508      -4.51869011       1.84875147       1.04866429
O        8.40015878       5.25761603      13.14392061      -1.78612196       0.33042151       1.51020050
O        4.92121745       2.79027044       7.22729459      -0.33747922       0.78697332      -0.84823356
O        2.81788071       4.94102857      13.91068158       0.55693562      -1.11929769       0.09583850
O        5.74033464       7.84876596      19.94526405      -0.24686111      -1.29843198      -1.05255053
O        0.48212373       2.12403895       7.22500231       0.57730208       1.12893636      -1.67990869
O        7.89576575       9.56720068      13.21787512      -0.86509646      -0.41425580      -0.22492289
O        0.36623539       7.79072140      13.40597326      -0.90533099      -0.70274796       1.32434658
O        2.94465753       0.77723625      14.26415535       0.33741456       0.25914106      -1.98715418
80
Lattice="9.77192453 0.01751879 6.90363604 0.24348012 9.76890588 6.90363604 0.01370155 0.0133883 13.86910312" Properties=species:S:1:pos:R:3:forces:R:3 energy=-574.739687 source_file=vasprun.xml step_index=385 time_fs=40770.0 time_ps=40.77 file_index=20 pbc="T T T"
Na       9.22685257       1.51621822       9.56730626      -0.30028154      -0.04762521      -0.16324872
Na       3.84951100       2.23762680      14.58712465      -0.30309539      -0.00080872       0.49552840
Na       7.19681865       7.32209027      11.44458685       0.01292746      -0.28698806      -0.03261161
Na       1.93056335       7.89894082      17.24303981      -0.31826396       0.12963293      -0.43052818
Na       7.73003642       8.06341408      18.51390298      -0.45954144      -0.11769780      -0.09519243
Na       6.81266130       3.26642319      18.01826776       0.61618933       1.48516508      -0.75949763
Na       1.41030811       7.03845716       6.58896363       0.34768704      -0.69292331      -0.08744741
Na       2.71577456       2.71053287       8.19149474      -0.51079987       0.04140407       0.44658769
Al       7.21575029       5.17834487       8.81097082       1.21269304       3.47049823      -3.21095624
Al       4.75808981       3.13723625      11.73134703      -0.01636927      -0.13531885      -2.37770178
Al       3.05544640       4.30912148      18.47808528      -0.69790281       2.10689156       0.41364694
Al       5.66333595       6.99751170      15.53896928      -1.69215701      -0.01254845       1.27335948
Al       0.48292920       1.97886867      11.17793827       2.66768098       1.59937369       1.18918246
Al       7.99456323       9.45424921      22.88828579      -1.04285787      -1.16404764      -0.39661275
Al       9.59708607       7.46887673      15.96851657       2.33470811       0.57696622       0.21533723
Al       2.36980995       0.37608294       4.05568001       0.24412889      -1.14763698       0.50015705
Si       2.70316981       5.38574772      15.38954016       0.58789679       0.73877392       2.13567559
Si       4.58353209       7.28199521      18.62707175      -1.49362660       1.37561590       1.46240752
Si       7.76224351       4.19615375      11.76743485       0.31478409       0.63583617       0.88527756
Si       5.69088588       2.42178191       8.48906580       1.46196022       1.14537567       5.05512282
Si       1.03369383       7.54244307      11.99630856       1.43599632      -2.87639639      -0.19978868
Si       2.76376891       9.06994735       8.37350685       1.59076640      -0.17148302      -1.33356364
Si       9.10837463       2.20626621      15.12734224       1.42204497       3.68437857      -1.13708402
Si       7.77944203       0.72655027      19.05293048      -1.30418014       0.54574100       0.06362957
Si       0.49405011       2.56300069       5.32243379       3.65714612       1.24316734       2.14215278
Si       7.34926847       9.47475166      14.89140855      -1.43627815      -3.97802602       2.26248081
Si       9.73618481       7.16446859      21.77055867       0.59478707      -1.55512574       0.85302420
Si       3.00801230       0.27907695      12.26372755       1.90123597       2.69659157      -1.49770815
Si       8.16568797       5.20941289      14.63127513       1.81120655       0.74211527      -1.13016150
Si       4.82549176       2.00568699       5.59118369      -2.15132038       3.07824329       1.04647944
Si       2.14900516       4.55044157      12.58021526       0.42174188      -0.17964916      -3.10121858
Si       5.48518350       7.76470312      21.73653998       0.31491056       0.38327708       0.08122850
O        8.60085776       6.05729563      21.67878148      -0.76914469      -1.16851436      -0.27026317
O        4.02960368       1.69149834      12.41226781      -1.03401255      -2.42132450       0.58142717
O        1.38237686       3.94478148       5.51637483       2.50413076      -0.19084174      -1.37364293
O        5.93092994       8.52132614      14.69973918       2.15520109       1.08824153       0.04972516
O        1.07361682       3.52748153      11.80343367       1.16097632       0.92374370       1.51690416
O        6.39603000       9.03271905      22.27553592      -0.00441361      -0.86107508      -0.68284313
O        9.57629948       6.09536670      14.91574330      -0.86772319      -0.47716307       0.10877413
O        3.58503613       1.26007280       4.98781242      -0.24696757      -1.85143444      -0.28592647
O        3.41980317       6.16590611      18.95362585      -0.34744515      -0.38766978      -0.47624921
O        4.13198337       6.16319559      15.27712988      -0.68765833       0.61036335      -0.58985235
O        6.68635595       3.71152912       8.31713274      -1.20123949      -3.67554343      -1.07575146
O        6.41140202       3.58381373      12.32490851      -2.33071603      -0.83419993      -0.74247466
O        1.43145847       8.24054271       8.56408687      -1.83186282      -0.45231939      -0.40527530
O        2.33477244       8.25829068      11.43632506       1.11918816       4.73971572      -0.72446829
O        8.77343126       2.02259681      18.95541878      -1.37704507      -2.08795385      -0.10062745
O        7.95762878       1.19314302      15.20705820      -1.31627808      -1.77214517      -0.08617238
O        2.81692129       4.51064963      16.77815914      -0.28095788      -0.56506187      -0.32552417
O        5.54904148       7.21260344      17.37928564       1.44726857      -0.52086285      -0.74590435
O        7.79838419       5.03891620      10.36155811       0.58242918      -0.27573274       3.34125306
O        4.79625930       2.53277286       9.96106402       1.18248951       0.18890062      -2.54766883
O        9.75080574       7.37385036      17.67929859      -0.55409239      -0.42068829       1.71869012
O        2.61505506       0.74306133      16.15008441       0.29772382      -1.42069537       0.87187570
O        0.31706756       2.18870937       9.49066032       0.41301723      -0.26412531      -0.71928018
O        7.83231583       9.50478519      24.63723235       0.05480422       1.38859695       2.79016448
O        9.22992496       8.19629710      22.95662855       1.03381280       0.62080602      -0.93246478
O        1.62762784       0.67063324      11.56719401      -1.73012357       0.35053416      -0.91220349
O        1.04744179       1.50729326       4.25216911      -0.45102712      -0.82372670       0.27072305
O        8.42424041       8.70548293      16.03556643      -2.57222550       2.35882114      -2.19807771
O        3.56543643       4.42952424      11.68035423      -0.22726603      -0.28346008       1.51114638
O        6.03709868       6.35397886      22.19284069      -0.27459226      -0.37624429       1.03040910
O        6.95107606       5.90052967      15.34175537      -0.32694931       0.24550939       0.39636843
O        4.62696348       3.60953863      18.94444264       0.08101824      -1.10757273      -0.35252636
O        8.83355328       2.90678749      11.79001625      -4.33547018       1.71599620      -2.26817080
O        6.71969754       1.07713547       8.71952764      -0.02034646       1.45416002      -0.36815380
O        1.31508677       6.32430096      15.60161351       0.44527284       1.10778288      -0.85048792
O        3.73764446       8.76369296      18.24573850       0.44368491      -0.56066728       0.71666097
O        8.18989088       3.68907599      15.14266215       1.44280571      -1.85777426       0.10426203
O        6.36660863       1.68247585      19.33496408       2.13462108      -2.47859898      -1.15748183
O        1.68269976       6.12233141      12.51189343      -0.18856034      -1.55079711       0.01866382
O        4.00089871       7.97302856       8.58520766      -0.74207178       0.85566285      -0.35073532
O        8.12130029       5.33741146      12.96884274       0.15022121      -0.29507903      -0.94851927
O        4.75454759       2.20436248       7.23480747      -2.00978608      -0.77141344      -0.41672480
O        2.54365587       4.30579543      14.20442198      -0.66011681      -1.17423402      -1.51180740
O        5.34148448       7.66683619      20.05397578       0.59893968       0.35028075       0.02415037
O        0.36508437       2.10872531       6.88862804      -0.49624385      -0.96481816       1.69021625
O        8.15086049       9.56817107      13.48190300       0.45849249       0.51688948      -1.61656153
O        0.39123618       7.93370767      13.43995922      -1.55335383       1.06962849       1.29165915
O        2.94844131       9.60083631      20.64699396      -0.49413789      -1.00260815       2.44129377
80
Lattice="9.77192453 0.01751879 6.90363604 0.24348012 9.76890588 6.90363604 0.01370155 0.0133883 13.86910312" Properties=species:S:1:pos:R:3:forces:R:3 energy=-576.23470212 source_file=vasprun.xml step_index=155 time_fs=6310.0 time_ps=6.31 file_index=3 pbc="T T T"
Na       7.93146896       7.93951246      18.83168588       0.56821546      -0.00001561      -0.05158068
Na       6.58525579       1.83114116      14.48227345      -0.14380162       0.72961876      -0.64668779
Na       3.43392871       3.31421489       8.96027723      -1.49702497       0.57596424      -0.56631650
Na       7.24372853       7.38604207      11.67955550      -0.10445719       0.03160334      -0.36854307
Na       8.43229662       3.92108391      20.03252513       0.14296378       0.18864261       0.22776995
Na       2.51935547       2.76374369      15.25828048       0.02543341      -0.56544638       0.16005707
Na       1.51359868       6.66729864       5.94515961       0.47103418      -0.32910158      -0.00412400
Na       3.61777039       9.17259474      14.38504510       0.22826209      -0.26154235      -0.19205599
Al       7.47543180       5.36661876       8.98094274      -1.88150404       0.37227823      -3.52939198
Al       5.04679201       2.82478098      11.26569199       2.09189167      -2.17543580       1.30436179
Al       3.40634024       4.53691800      18.25335469      -0.42163174       0.55852839       0.97713528
Al       5.93220409       7.09610832      16.04952755      -0.13204634       0.11791705      -0.20888045
Al       1.12618327       2.23648623      11.31185246      -0.97594346       0.17034944       0.88805920
Al       8.30780715       9.70303528      22.82886861       2.19753412      -0.74647052      -1.00549345
Al       0.35357603       7.80754462       8.75824065      -1.26858443       1.64238155       2.01562368
Al       2.49801814       0.44360489       4.48424812      -1.30095176      -0.03906715      -0.88465038
Si       3.05174336       5.73332563      15.31282744      -1.45470320       0.29899585       2.15827574
Si       4.90527377       7.36428425      19.08457736       0.92209311      -4.25291292       1.63859208
Si       7.81041805       4.13020991      12.05559286      -0.29904415       0.86115803      -4.06489739
Si       6.00968081       2.58072447       8.13024257       1.45393131       0.23953919       1.23159503
Si       1.36107152       7.22052602      11.76075922       1.42177767       1.08105622      -1.28795082
Si       3.20316518       9.27260601      22.31359982       1.33139217       1.06076138      -0.95564388
Si       0.07497048       2.72722343       8.59836985      -2.24728091       0.92043244      -1.38132889
Si       7.85829814       0.91906062      18.91467875       0.46561408      -2.55481284      -0.20981699
Si       0.88966501       3.03425807       5.73837953       1.85315733      -2.40496748      -0.46074912
Si       7.51417475       9.35101790      14.68743109      -0.90735287       1.83947562       0.94820540
Si       9.81687533       6.92196840      21.57736182       0.85715195       2.36850849       0.61604398
Si       3.31432283       0.38304954      12.44253921       0.71072035       0.82812498      -1.03563728
Si       8.43283004       5.45452963      14.64344133      -3.21318699       1.51881580       1.46404947
Si       4.96816611       1.91128730       5.49576347      -4.25706618       2.43984264       0.20205145
Si       2.71025552       4.66692534      12.35541983       1.12997800       0.47626030      -0.15267447
Si       5.90984024       8.11756795      22.05769408       1.75275109      -3.30354279      -0.01639106
O        8.71743185       5.73949831      21.70079413       1.63974414       0.74372199      -0.77596828
O        4.57615445       1.29817483      12.02131434       0.00831219       0.26252939       0.16395402
O        1.79637606       4.32037303       5.18907556      -1.39110131      -1.15027662       1.07626066
O        6.10232427       8.56977974      14.97659282      -0.02696543      -0.35985447       0.52202103
O        1.42060672       3.64500046      12.50455404       0.45229167      -0.28324551      -0.27389138
O        6.82309450       9.44519002      21.94171416      -0.62074573       0.84340690      -0.14778644
O        9.76990070       6.46886200      14.69575053      -1.62356152      -1.98416201      -1.82346053
O        3.90878794       0.63009279       5.48071563       2.37595277       0.81764905       0.17966652
O        3.89866674       5.97564113      19.30929703       0.95088819       1.14977601      -2.12802573
O        4.19701911       6.78776095      15.78269452      -0.21100405      -0.08261861      -0.60579899
O        6.77963764       4.01307737       7.94500228      -0.00892651      -0.22139034       0.44170387
O        6.46208930       3.28129970      12.26174345      -0.29765034      -0.31876957      -0.48599356
O        1.78052977       8.64348864       8.29244985      -2.09454539      -1.97571190      -1.31234479
O        2.18210930       8.61062303      11.83990188      -0.18880446       0.52593388       0.44304198
O        9.14477390       1.90630748      18.81328908       0.50710219      -0.05982244       0.76055589
O        8.84548916       1.48645663      15.58878850      -0.09867380       0.08703223      -0.08697257
O        2.85735797       4.59479650      16.56478634       0.85661541       0.87406984      -1.75723729
O        6.04372152       7.33259491      17.86482588      -1.13769567       0.16019258       0.38493342
O        8.02260969       4.85441530      10.39759539       0.42628338      -2.36374661       6.96279511
O        5.27341841       2.49214393       9.58831052       0.52989475       0.01390903      -0.43303606
O        0.48707444       7.21190549      10.38425478      -0.16491238      -0.47854167       1.16119187
O        2.91369811       0.58293263       2.64296263      -0.45469506       2.35315560       4.36818142
O        1.09899468       3.15033102       9.74289983       0.33200939      -1.15183174       2.84184674
O        7.74227393       0.07217577      17.56836820      -0.34999132      -1.13295767       0.78550281
O        9.46303562       8.56459715      22.14366252       0.51607371      -3.58535129      -0.95456537
O        2.06426071       0.65814928      11.34575522      -0.18384148       1.54568094       1.64487589
O        1.26719401       1.51080128       5.20215015       0.64871058       1.13845201      -1.19547643
O        8.61483559       8.90089777      15.77347691       1.30071429      -0.79632276      -0.67278579
O        3.82767630       3.93140616      11.43398099      -1.70552055       1.13386734      -0.06690152
O        6.77048605       6.98321586      22.99243383      -1.57302671       1.47000256      -0.08113284
O        7.04246662       5.79228638      15.64791636       1.95667873       0.89349901      -1.47734804
O        4.47483300       3.20156856      18.43613093       0.30134467      -1.37632941       0.10213019
O        9.05624814       3.14219816      12.29257062       0.61764284       0.55114734       0.59158237
O        7.07524282       1.30777618       7.98914040      -0.32977015      -0.87495701      -0.64538875
O        1.51952335       6.49052227      15.32524426       0.81783990      -0.12599928      -0.41577942
O        3.96304994       8.59480825      19.19283838      -1.96568541       1.21211119      -0.90257231
O        8.67791778       3.97245847      15.19354720       1.70535069      -1.41795489      -0.05957789
O        6.51256453       1.80248138      18.99678723       1.25945440      -0.09426083       0.45820864
O        2.70086773       6.19718110      11.73058232      -2.35983688      -0.84980504      -0.02004380
O        4.42153371       8.23263895      22.63669245      -0.89995976       0.43247593       0.19424129
O        7.69167742       5.40953179      13.05732754       1.84599053       0.98754290       1.68027017
O        4.76930395       2.58035139       7.05647851       0.42755615      -1.31659513      -0.51625166
O        3.36804538       5.06368738      13.84405511      -0.45201426      -1.02955972       0.95145366
O        5.68846582       7.40870728      20.59254622       0.93125574       0.18413699      -1.63687040
O        1.14843011       2.68433253       7.39918284       0.04474610       1.11228900      -2.22390907
O        7.83991540       9.16086603      13.06853789       1.04137373       2.54917402      -0.86367752
O        0.32616501       6.91885377      13.01222984      -0.33726177       0.38996396      -0.18171938
O        3.23304535       0.54313136      14.10081954      -0.56615928      -0.10763217      -0.75628765
80
Lattice="9.77192453 0.01751879 6.90363604 0.24348012 9.76890588 6.90363604 0.01370155 0.0133883 13.86910312" Properties=species:S:1:pos:R:3:forces:R:3 energy=-575.28483492 source_file=vasprun.xml step_index=845 time_fs=99690.0 time_ps=99.69 file_index=49 pbc="T T T"
Na       7.76173187       7.06423166      18.72309494       0.67786374       0.26971062      -0.01461975
Na       6.83095992       1.08527847      13.71075660      -0.49198948       0.88353674      -0.86953799
Na       3.10574536       2.99108707       9.34023202      -0.24237865      -0.09075591      -0.37576749
Na       7.33646264       7.34933683      12.00767486       0.08502621       0.69404852      -0.45639057
Na       8.74072069       3.76191975      20.42648753       0.00865267      -0.71044897      -0.30507902
Na       2.94465123       2.59554568      15.53278144      -0.07514319       0.88745160      -0.07046863
Na       2.01325986       6.77880226       6.56466247      -0.22618225      -0.49763674      -0.08019574
Na       4.35940462       8.55031671      13.43733909      -0.67459503       0.17380873       0.12038485
Al       7.47569034       5.22379033      22.64374289      -0.90706741       1.71190450      -1.25431413
Al       5.15279701       2.76684917      11.59792286      -0.19517156       3.50777366      -0.73775540
Al       3.36871640       4.61036684      18.53828521      -1.53329020       2.05055356      -1.43189338
Al       6.25090095       7.16892450      15.86601268      -4.40038736       2.87900494      -0.79956194
Al       0.81395008       2.42522668      11.40007711      -0.27586942      -1.50843591      -0.43869912
Al       8.41898623       9.40535705      22.61285739       2.15289125       0.10154120       3.35133579
Al       0.29816254       7.91780012       9.00851215      -1.69891711      -1.26552122       1.72995808
Al       2.40014391       0.53526006       4.41408183       0.16029426       1.43025329       0.32239200
Si       3.16684916       5.74760465      15.68611318      -0.70345192       1.58042180      -1.22186143
Si       4.86068798       7.46260036      18.64981980       0.06084545       3.39737070      -0.85411532
Si       7.85632464       4.39199472      11.85068821      -1.92941663       0.61675406       2.00010109
Si       5.97685395       2.39844016       8.44147650       0.35761171       0.62768252      -1.99556981
Si       1.19164277       7.58158585      12.02246367      -2.51303760      -1.31202055       1.02524222
Si       3.08192272       9.35862351      22.20504625      -1.52758130       2.06678890       2.08559531
Si       9.51940162       2.50383070      15.32540112      -0.51955334      -3.34470932      -5.70549224
Si       7.78240827       0.94603363      18.71289864      -0.87714607      -0.30352808       3.44325074
Si       0.88866652       3.00344354       5.52908688       1.50126184       2.90827953       4.00143676
Si       7.82393658       9.53477532      14.55812413      -1.17143724      -1.54598426       0.95027357
Si       0.23668767       6.92629240      14.80083207      -0.18266578      -2.16867289       1.92249367
Si       3.16124512       0.47913190      12.40840953       1.10301182       1.26086008      -1.48427027
Si       8.37792236       5.41953039      14.73234918       2.38412478      -0.25615068       1.72459023
Si       4.88607595       2.10910481       5.68322749      -2.94130857      -0.80237403      -0.58741423
Si       2.59884587       4.66848233      12.71554123       1.51547122       1.34121666      -0.77408411
Si       5.94524403       7.98344620      21.54867784      -3.28622143      -5.64887131       2.17762133
O        9.02631121       5.51943957      21.55670193      -0.20638840       1.45633707       1.34518334
O        4.56571439       1.48781320      12.45018717      -1.76517607      -3.39244973       1.60723730
O        1.99264571       4.42594949       5.71916177      -2.22451376      -2.16996158      -0.20792253
O        6.30665799       8.41129315      14.44269128       3.49775457       0.53514085       0.93649685
O        1.19735299       3.74832054      12.55213134       1.23445244       0.03134941      -0.25023974
O        7.07095338       8.97273587      21.77416376      -0.14787466       2.25403497      -1.46946623
O        9.76125161       6.43386045      15.03305218      -1.85842654      -1.87294588      -1.25146143
O        3.81735618       0.83003677       5.42353136       0.77525102       0.80185504       0.29875219
O        3.72748327       6.38508030      18.75707502      -0.14654677      -2.92720086       0.07999607
O        4.43184991       6.80327572      15.83004790      -0.72722974      -1.43522305      -0.97129074
O        6.71913440       3.76790289       7.96813738       1.82303716       0.70398875       0.88954120
O        6.61752202       3.41143374      12.28720614       0.62285943      -0.16013130      -0.25674934
O        1.82126749       8.25782214       8.41889914       3.14289548       1.43272281      -0.75558772
O        2.20804092       8.71744729      11.88553166       2.57352215       3.16946950      -0.18617675
O        8.91415331       1.99593623      18.88650427       2.95268858       2.95829368      -0.68539351
O        8.65318739       1.06824508      14.86812971       0.99314364       2.12360068       1.63701980
O        2.87405786       4.62242577      16.78653268       0.44666111      -0.07309485       1.15992121
O        5.99233870       7.83931800      17.47370484       0.12365666      -0.84024956       1.78120467
O        7.57665006       5.33846266      10.56539507       0.65566621      -0.73632622      -0.34679021
O        5.40206097       2.50572830       9.90064490      -0.99572694      -0.24096207       0.64781718
O        9.90720956       7.74624269      17.70217197      -0.05407868      -1.23497410      -0.11432725
O        2.87856079       0.75842983       2.74417573      -0.18020797      -3.19811858      -2.64602795
O        0.72320188       2.57865827       9.57264854       2.72723469       0.01619222       5.79999073
O        7.64831795       0.13771560      17.43406302       0.23513788      -2.44837770      -3.89079129
O        9.33276336       7.92301169      22.77014895      -0.36494084       0.75620700       0.92972592
O        2.06829394       1.11041913      11.36370548      -0.24187841       0.91195218       0.93452038
O        1.28715820       1.98601886       4.43286096       1.26611470      -2.31393129      -0.73817447
O        8.86851368       9.15765610      15.79026885      -1.40154724      -0.08026767      -2.23123294
O        3.89576972       4.15105245      11.67674356      -2.12722303      -0.10276265       1.30334425
O        6.25013118       6.51535472      22.28794805       0.49471320       0.92946960       0.25339206
O        7.29276630       5.91583164      15.81434500       1.06047192      -1.50194188      -0.15341716
O        4.49267582       3.39754047      18.61885508       1.83576894      -1.56988635       0.98873381
O        9.17951296       3.54327421      12.03109258       0.23072240       0.31708810      -0.43262485
O        6.98275238       1.12659570       8.27181191      -0.75563615       1.06360198      -0.30258088
O        1.76987236       6.56953346      15.24194619       0.16487062       0.17423584       0.66463982
O        3.78563425       8.76934858      18.68023653       0.32440365       1.16256435       1.34357053
O        8.62789870       3.78720256      15.34038844      -2.21110921       4.05917950      -1.72752687
O        6.32822173       1.60165623      19.08672504       1.42792952      -0.17091417       0.30212210
O        2.09605875       6.26049255      12.22586474       0.95649570      -2.92193426       0.40325827
O        4.48447350       8.60322156      22.14747022       1.52902214      -0.69637967      -0.97551902
O        7.84685811       5.60698534      13.15742196       0.87315088      -1.53504521       0.17156550
O        4.71246664       2.39815733       7.31788697       0.66981033      -0.54311668       0.45068581
O        3.24526043       4.81345405      14.32440676      -0.31032363      -1.61654635      -3.37575795
O        5.77257425       7.43131090      20.03600449       0.07906511       0.66345957      -1.56488107
O        0.82980598       2.43945865       7.14647152       0.03548625       0.89743108      -2.18692043
O        8.52604138       9.68249425      13.05877915      -1.61644428      -0.70536806       0.47294170
O        0.26672732       7.77246217      13.45362375       0.23346089       0.15806183      -3.12828353
O        2.55170130       0.59020671      13.96859228       0.71141088      -1.02233499       0.06600956
80
Lattice="9.77192453 0.01751879 6.90363604 0.24348012 9.76890588 6.90363604 0.01370155 0.0133883 13.86910312" Properties=species:S:1:pos:R:3:forces:R:3 energy=-575.11611505 source_file=vasprun.xml step_index=190 time_fs=58380.0 time_ps=58.38 file_index=29 pbc="T T T"
Na       7.49623246       7.42589839      18.81337790       0.40410323       0.21655041      -0.64986658
Na       7.60079517       3.65416910      20.37880877       0.10337437      -0.28726665      -0.14850985
Na       1.34721430       6.02544278       6.82002703       0.35396834      -0.01267592      -0.64953737
Na       3.16772671       8.41636476      14.26374299      -0.16104386       1.16519129      -0.52346648
Na       1.32191203       2.47618699      16.12695579       0.03186739      -0.19433773      -0.00881321
Na       6.10432956       1.39141185      13.59550586       0.06075643      -0.26004427       0.73235939
Na       2.09111749       3.10548179       9.01623851       0.56825399      -0.24037495      -0.09763188
Na       4.99286400       6.10731193      11.53720450      -0.27642060       0.23911640      -0.14425493
Al       6.85094400       5.19450179       9.17489171      -0.59013172      -1.01473455      -3.19547037
Al       4.66507761       2.68612376      11.36714544      -1.96120796       0.06571648      -0.66890646
Al       2.88740791       4.28452746      18.28496810       1.07285746       1.29947743       0.99895855
Al       5.32171272       6.86252934      15.76374934       0.90704374       0.27992201      -0.39388278
Al       0.54688970       1.80505772      11.44346224      -2.25827848       0.48594312      -0.97308572
Al       7.67175837       9.30406386      22.93426597       0.24239565       0.64528043       2.03173352
Al       9.65538067       7.44832023      15.87112245      -2.46550170       1.84587925      -4.45828126
Al       2.00031643       0.13378838       4.38563789       0.41447785       1.23081597       0.30669544
Si       2.40367499       5.56313975      15.24538850       1.21974497       3.11643155      -4.20093194
Si       4.65991308       7.05809416      18.94629546      -2.99992324      -2.05788811      -0.37597234
Si       7.48404697       4.25584551      11.97352385       0.10797875      -2.12108338      -0.62974604
Si       5.59208622       2.13836168       8.42312465       0.21281389       1.25946495      -3.81095560
Si       0.80511387       7.23716153      11.98132979      -2.50833049       1.73566718       0.53637391
Si       2.48812716       9.03346826       8.19180309      -1.39034843       0.01540996      -0.65820843
Si       8.85235327       2.33718169      15.43455258      -0.05227600      -1.51179373      -1.58132121
Si       7.50970814       0.38997423      19.12220310      -3.29982000      -1.50094603      -4.20284709
Si       0.42074293       2.81638893       5.49105729      -1.66519472       0.55414082       0.07055457
Si       6.99456522       9.17910441      14.76800702       0.45131256       0.69131288       3.12329841
Si       9.28073831       6.82047157      21.84231298      -0.22671105       3.28339783      -1.62801614
Si       2.83329176       0.18114367      12.30373136       0.65812525       1.79662759       0.26357999
Si       8.06825857       5.21648349      14.92542494      -3.14017056      -3.24124673      -0.13287119
Si       4.60524687       1.64511701       5.32664869      -1.22477855       4.48137835       2.94822349
Si       2.06026681       4.33937897      12.47726381      -0.13086378       1.70779975      -4.37292925
Si       5.38420078       7.63746047      21.63351844       2.30691602       0.84697144       1.47167605
O        8.33762766       5.50643679      22.05759220       0.24592545       0.66585910       0.16184867
O        3.86123870       1.54696915      12.47638609       0.24727477      -1.48133991      -1.05140677
O        1.42715178       4.09053779       5.50000190       0.72352059       0.47103136      -0.27847382
O        5.59147519       8.38260246      14.87793498      -0.90344417       0.54921991       0.64062431
O        0.70007293       3.48464851      12.18575449       0.95332827      -1.48219063      -0.14685498
O        6.51433526       8.95037587      21.72415763      -3.49137977      -2.61545807      -1.19053913
O        9.48610399       5.74690047      15.30348271       1.86990095       1.94454362       0.29349194
O        3.49380241       0.54158960       5.25140485      -0.36606577      -2.05903796      -0.54491498
O        3.65858127       5.70450304      19.14039428       0.01932374       1.81221442      -0.37360885
O        3.77368160       6.52407542      14.96770773      -1.31578031      -1.71111154       0.84884126
O        6.35450935       3.57248991       8.48146699       1.02200582       1.90088748       0.71627710
O        6.07259916       3.31577768      12.25803082       1.17282815       0.16479942      -0.66489444
O        1.14436646       8.12409522       7.92437432       0.50554298      -0.94575350       0.86703460
O        1.69188190       8.54161592      12.25977787       1.01296113       1.03097972       0.12064933
O        8.77970240       1.36776750      19.17083136       0.58415683      -0.26514030      -0.10798973
O        7.77895126       1.13260976      15.34853314       0.01171386       0.20437153      -0.03672526
O        2.36440662       4.86191132      16.57597723      -0.00635727      -3.25554811       5.06032033
O        5.31741576       7.01009729      17.50713461       0.96968925       0.11916791      -0.58069057
O        6.97818192       5.30902751      10.83185397       0.74047412      -0.45378905       2.05712682
O        4.62957093       1.98466484       9.63905224      -1.24117873       0.19973641       4.13284051
O        9.93808368       7.48270082      17.42058682       0.18370075       0.05051404       4.59668329
O        2.14683569       0.24295017       2.57433795      -0.10320627      -0.57447806       1.17648343
O        0.18510640       1.97123372       9.63473866       0.99154284       1.02868294       1.26971695
O        7.22202203       9.05562570      24.70506147       2.01665380       2.57818958      -0.23079929
O        9.03148380       8.28880518      22.66962349       1.00373151      -3.84129312      -1.73662391
O        1.63054595       0.46709166      11.16379316       2.09705198      -0.32313373       2.05707452
O        1.15554433       1.68643462       4.63495246      -0.40004220      -0.94617146      -0.57001737
O        8.10322085       8.51685996      15.71105479       1.80304512      -1.49991794       0.76391345
O        3.31522512       4.00090164      11.33817613      -0.26678403      -0.12274627       1.33412042
O        5.61060597       6.38780489       8.81674249      -0.15665052       0.80067777      -0.10270889
O        6.69773555       5.85796133      15.39389738      -0.43800155       0.56812043       0.38849502
O        4.13287450       3.05162148      18.40779333      -0.33544955      -0.82885230      -0.47279624
O        8.82420557       3.29414250      11.47195680      -1.16957254       0.69534146       0.81142780
O        6.86209635       1.09803782       8.20873207      -1.38080081      -1.38451010       0.05503438
O        1.10124041       6.56552489      14.94818566       2.23351243      -1.24529974       1.13934709
O        3.95879622       8.56970895      19.06381807      -0.18055707      -0.37483552      -0.11898352
O        7.97985344       3.66355565      15.59153522      -0.00217074       1.67529135      -0.15355704
O        6.17675890       1.45251769      19.05013433       2.05269261      -0.34981140      -0.22373099
O        1.65059526       5.95446271      11.89269908       2.89087306      -4.60998121       1.06547998
O        3.88268923       8.21864069      21.97304548       1.11706347      -1.24434269      -0.12928730
O        7.92875960       5.03441251      13.29485943       0.37646717       0.42083163      -0.05404855
O        4.54121792       2.26067957       7.07479056       0.76732667      -1.43945744      -0.61867263
O        2.44628797       4.42812915      14.01306179       0.16540034      -0.12536424       1.43973659
O        5.80087787       6.89644386      20.14386766      -1.19981273       1.30877469       0.37075330
O        9.66683611       2.47281924      13.91028934       0.23482159      -0.07920848       0.63898224
O        7.41894752       9.05851761      13.27973323       1.45208784      -0.26539833      -1.84267166
O        9.34792001       7.11805458      20.00968588      -0.86870670      -0.16519023       1.24652794
O        2.25355070       0.19989388      13.84047637      -0.38727482       0.96131368      -0.99540008
80
Lattice="9.77192453 0.01751879 6.90363604 0.24348012 9.76890588 6.90363604 0.01370155 0.0133883 13.86910312" Properties=species:S:1:pos:R:3:forces:R:3 energy=-574.37069889 source_file=vasprun.xml step_index=300 time_fs=64600.0 time_ps=64.6 file_index=32 pbc="T T T"
Na       8.72073189       3.00068250      21.36401508      -0.05989168      -0.03665813      -0.21968157
Na       8.22503693       5.37911391      17.94122332       0.00440039       0.32419763      -0.10665595
Na       3.61466879       5.70558891       9.60316234       0.02880529       0.54766464      -0.04999382
Na       4.11505117       8.62596052      13.18092934       0.72878245      -0.21658907       0.57649005
Na       2.97181303       2.30600923      16.22819470       0.12333348       0.26982295       0.16289332
Na       5.44354240       0.68915539      13.74461787       0.68884319       0.43278040      -0.31421507
Na       2.52998202       2.56839786       9.63380524      -0.98262249      -0.97039230      -1.12197250
Na       0.30000819       6.48136824       5.32225138      -0.10803604       0.11500095       0.14009744
Al       7.36513285       5.16153346       9.17886882      -2.32628549      -0.60238410       2.11114105
Al       4.44164634       3.02505272      11.58461667       0.59444696      -1.34010115       0.64315188
Al       2.88957836       4.90725476      18.45877995      -1.53111132       0.78331116       0.73518818
Al       5.45655248       6.89548574      16.00128040      -1.44680266       0.80813465       0.67901348
Al       9.76509714       2.16402601      18.54045885       1.94352451      -1.60623536      -1.27053358
Al       7.98105275       9.62854540      22.67532609       0.24478418      -0.18166440      -0.22013254
Al       9.57915115       8.01739424      15.98458089       0.36442620       0.03160660      -1.64988373
Al       1.77813052       0.32349484       4.87106418       0.73822594       2.89112638      -0.32856802
Si       2.61531176       5.72039124      15.32010396       1.96727046      -0.62728871       0.60195645
Si       4.31676320       7.57708833      19.17558474      -3.63189166      -0.39778981      -0.86246855
Si       7.19773204       4.27422751      12.35035912       4.66471574       0.13459387      -0.86412718
Si       5.70892332       2.33629688       8.61296930       1.33041895      -1.80490181       1.33437589
Si       0.72138412       7.35825947      12.04344816      -3.41260209       1.15151995      -2.54452342
Si       2.74469280       9.01256265       8.82537637       1.80382992      -0.86768076       2.56797389
Si       9.24035986       2.39845296      15.30518133      -0.31319191      -1.43526902       0.57951626
Si       7.01428428       0.97428812      18.67224201      -0.43035293      -4.25527469       0.07586082
Si       0.32116153       2.99471206       5.70677919      -1.76019523       1.07186028       0.08316041
Si       7.09794998       9.30025048      14.61533206      -0.67729823       0.35541561      -2.88784370
Si       9.60458597       6.96138593      21.74679668      -1.47369184       1.49878267       3.25937119
Si       2.73993172       0.67520119      12.82591477      -2.58583455      -2.91666661       0.93546560
Si       7.84635577       5.27451057      15.06078080       0.64045956       2.84793563       1.37600811
Si       4.35361448       2.26820614       5.71725775       0.20268963       1.44946751      -1.96550611
Si       1.82767076       4.57561023      12.30000301      -1.38886394       0.32653551       0.69674842
Si       5.57051883       7.74087321      22.13947603       0.23561628      -0.53190860      -0.74996850
O        8.76314671       5.63499997      22.22519463       0.19088066       0.00305334      -1.08227463
O        3.82789542       1.78987266      12.71285583       1.47281882       1.74637926       0.01488938
O        1.04605499       4.31786561       5.10545267       1.52909798       0.74849615      -0.02790324
O        5.94164472       8.18083631      14.82990729       0.22352982      -0.27815304       1.58625721
O        0.39268691       3.66992331      12.29537606       1.61608071       2.93477403       1.00397824
O        6.50076672       9.09015583      22.03921890      -1.58641301      -2.03721238      -0.34924623
O        8.93895758       6.56060188      15.47934673      -2.34262129      -5.92576287      -1.09638420
O        3.03615847       1.34162518       5.87328741       0.27657865      -1.65883638      -0.91608953
O        3.01251266       6.55175545      19.24750799      -0.75531631      -1.22577181      -0.38988675
O        3.91148367       6.67457489      15.11583780      -0.43620635      -0.39453707       0.18827214
O        6.73395448       3.54513878       8.64196036       1.77605195       1.52991410      -0.13468194
O        5.85788772       3.49583475      12.43368236      -2.46220831      -0.50357241      -0.08128995
O        1.56609980       7.95332473       8.77407898      -0.45024723      -0.02999814      -0.09903127
O        1.85561718       8.42614006      12.34432137       0.87998868       1.32696436       0.82843702
O        8.32002919       1.75236691      19.26216376      -2.43798726       0.92411336       1.19709278
O        8.06474432       1.28253609      14.93788475       1.76222823       2.35325904      -0.56664723
O        2.83864307       4.73931522      16.67378036      -0.21428184      -0.01553140      -1.21271831
O        4.93352882       7.29321704      17.78102601       2.85391052      -0.69882980      -3.48505734
O        7.59251821       4.99118690      10.94222566      -0.35734994       0.03091045      -0.32632014
O        4.75663239       2.42114432       9.95022696      -0.47922753       0.20545462      -0.24285477
O        9.47128066       7.83138704      17.68016325       0.70843538       0.44819663       2.66368107
O        2.53775918       0.23931469       3.23953173      -1.17972638       0.01038146       0.50582303
O        0.22534173       2.02919989       9.91812257      -0.60168054       1.04040841      -2.56259461
O        7.65394341       0.12564874      17.39661963      -1.30387359       1.50077778       3.67896643
O        9.09294798       8.42438618      22.39477247       2.66834414      -4.20096685      -1.44043581
O        1.28868610       1.15946331      12.26819693       1.63345911      -1.11687962       0.77417706
O        0.65817508       1.69462201       4.92140732       0.53353894      -3.17296634      -2.20177621
O        8.62564834       8.78618833      14.63881304       0.53507805       1.66957299       1.42232059
O        2.91733813       3.86643759      11.29761691       0.23874155       1.51555005       0.21119806
O        5.95487246       6.28331670       9.05752178      -0.10386990       1.57783859      -1.32204581
O        6.49848860       5.47396114      16.03465472       1.02438701       0.19228374      -0.14412205
O        4.11461942       3.93252145      19.16053003       0.43198186      -3.19160796       0.14103386
O        8.41571622       3.11967482      12.70252377      -0.21214939       1.30729794      -0.81947811
O        6.60229896       0.87249412       8.69944583      -0.62427804       0.79476753      -0.87637208
O        1.25056103       6.51044797      15.60163124      -0.60023335       1.21803548      -1.20789995
O        3.68220297       9.10168809      19.07937520      -0.46866136       1.09310660       0.35951196
O        8.44671705       3.80629638      15.43036951      -0.19582096       1.29935072       0.77903164
O        5.48806738       1.54594122      18.35128880      -0.94692537       2.43217892       1.58770532
O        1.38007084       6.00604113      11.46806135       1.58453447      -2.52510559       0.91796804
O        4.24827123       8.25433072       9.07221165      -1.80436704      -0.70578945       0.02672615
O        7.40572239       5.43980865      13.49761182       0.01278216      -0.09585579       0.11797796
O        4.91324051       2.45030574       7.23406825      -0.20358009      -0.49349016      -0.18093879
O        2.52879114       4.90168400      13.81409206      -1.31450088      -0.62058416      -0.94055255
O        5.11850465       7.44478468      20.52516521       1.89269381      -0.08129800       2.60691459
O        0.67129936       2.61083114       7.26448874       0.08368716      -0.02348030       2.35226858
O        6.70449159       9.58781581      12.88979838       1.13935029       1.07916318       1.66029209
O        9.38341003       7.01394317      20.12933647       1.58832129      -0.08576358      -0.53599475
O        2.64119122       0.20043938      14.54866702       0.27611192       2.85094318      -3.79287982
80
Lattice="9.77192453 0.01751879 6.90363604 0.24348012 9.76890588 6.90363604 0.01370155 0.0133883 13.86910312" Properties=species:S:1:pos:R:3:forces:R:3 energy=-574.40954042 source_file=vasprun.xml step_index=400 time_fs=42800.0 time_ps=42.8 file_index=21 pbc="T T T"
Na       7.65606350       9.06103088      19.29925917      -0.30938970      -0.42981554       0.33002555
Na       5.55780759       3.44145528      15.89370107       0.18775418      -0.65387855       0.17065532
Na       4.35228362       7.09012788      10.82686126      -0.02360006      -0.18624226      -0.11370593
Na       3.91484085       8.58913058      14.06701142      -0.19507585       0.25132132       0.07488673
Na       8.46455798       4.19210856      20.12766730       0.25311124      -0.31738653      -0.11111731
Na       8.68517479       2.25307453       9.98148564       0.18695277       0.12216231      -0.00642172
Na       1.10379090       8.13775494      18.48457002      -0.09110686       0.14327993      -0.01824870
Na       2.21398553       3.29335241       8.29850643       0.49377572       0.02287378       0.18219879
Al       7.32350132       5.18134666       8.99572860       0.89784873       0.70735189      -0.36303420
Al       4.92501605       3.00395225      11.59226812       1.83535064      -1.43036641      -1.82703005
Al       3.16587929       4.60736359      18.42113552      -0.67025229       1.35114224       2.23313793
Al       5.43755503       6.70492347      15.94355450      -2.67048393       5.03748064       1.25612662
Al       0.48359594       2.05036975      11.43316373      -1.40373849      -1.90114707       1.87684040
Al       7.99810988       9.43299777      22.99302536      -1.47071725      -0.53931999      -0.47222209
Al       9.62099307       7.76398118      16.12798583      -0.09962978       2.59277212      -2.05456883
Al       2.23475623       0.34675656       4.65031769       1.07365074       0.84571885       0.07077784
Si       2.35278887       5.75018031      15.51289203       3.09983102       0.45453626      -0.60649805
Si       4.49720023       7.30752004      19.10886894       3.06322029       2.99895742      -2.80979796
Si       7.74527498       4.50725260      12.14146005       2.21906169       0.26958485      -1.50536537
Si       5.81994153       2.60290455       8.18443854      -2.60739678       1.64173294       3.04551371
Si       1.32851223       7.31364919      12.03594638      -1.93294271       1.31113769      -1.42851299
Si       2.63993606       9.05723194       8.44737074       0.73459568       2.09508415       0.43434646
Si       9.12231995       2.35696773      15.54365778      -1.49186323       3.24783635      -3.03471120
Si       7.53152989       0.73165441      19.03063163       0.86242873       2.62330759       1.29883806
Si       0.85705845       2.90240021       5.64122641      -3.18020413       1.01663814       2.34330268
Si       7.15496870       9.33054977      14.89702126      -0.97733545      -0.02588800      -0.45937736
Si       9.80367734       7.03012224      21.64350219      -5.41408424      -2.19509805      -0.62019903
Si       2.98091069       0.42351339      12.44952436       3.18676327       0.18067500       0.22214960
Si       7.93715163       5.38512662      14.97508690      -0.98784600      -0.35244464       0.02157272
Si       4.70539916       2.39372806       5.50708328      -0.83825919      -4.53977722      -3.51540565
Si       2.26738424       4.52494998      12.63981548       1.16789507      -1.13034148      -4.21732459
Si       5.34074658       7.66604262      21.92158896       5.80921417       2.32105367       0.55204885
O        8.77043195       5.63835772      21.86531154       1.31490003       1.68855390       0.17926530
O        4.37855966       1.42504396      12.11396472      -2.25850781      -2.11644048       0.11327251
O        2.10646740       3.89609624       6.04505499      -0.22955655      -0.52608263      -2.13650112
O        5.91340001       8.24088226      14.84943027       0.65096285      -0.45627081       1.19693961
O        1.19792042       3.38723045      12.11869946       1.27769434       3.60402084       1.58092337
O        6.36479813       9.03661716      22.28750264      -0.71911899      -1.10743993       0.69805302
O        9.18757784       6.22150669      15.61553741      -1.73869076      -1.06544430      -1.11010888
O        3.61995448       1.07778830       5.46626372       0.12242838       0.86322869       0.36458420
O        3.57625196       6.12399735      19.43244838      -2.04100628      -3.33609706      -0.03496055
O        3.83213546       6.42287593      15.30448509      -0.65514480       0.26924028      -0.74060195
O        7.11947692       3.56920105       8.12299096       0.22735855       0.76947640       0.12092843
O        6.63391533       3.37968130      12.27443902      -2.16859150      -1.04682504      -0.70715894
O        1.15573905       8.45128267       8.18138065       0.75775809      -0.04753275       0.41689965
O        2.33898070       8.50660372      12.46315664      -0.14536997       1.55497313      -0.32009530
O        8.62273864       2.01934682      19.17982613       0.40990689      -0.70415519      -0.44450926
O        7.93895340       1.36903997      15.76562513      -0.80432088      -1.15465458      -0.63336682
O        2.47276717       4.97544174      16.87563969      -0.76955223      -1.32524047       1.32264304
O        5.29326230       7.13658353      17.66921896       0.61372924      -0.52043471      -0.04575957
O        7.89235817       5.17897059      10.65654361      -1.59373331       0.23988925      -0.27754149
O        4.95801674       3.09159601       9.59423668       0.76597888      -0.68713126       0.53228079
O        0.31943716       7.76260553      10.81368739       1.46012865       0.11330647       2.36631803
O        2.71339773       0.03234423       3.02985874      -1.14973828      -0.90239381      -2.13075057
O        0.43183711       2.38016627       9.77525961       1.21914941       0.30811075      -0.29820154
O        8.39807728       9.61304567      24.76523596      -0.55748169      -1.73728845      -1.63726569
O        9.02741671       8.36044053      22.00359932      -0.39028679       1.57866525       0.56458274
O        1.49217143       0.61354637      11.84838572      -0.33454110       0.93633637      -0.52806525
O        1.07568449       1.73968506       4.55653864      -0.16461675      -1.13752791       0.16282997
O        8.27917282       9.03816487      16.00958762       0.64838977      -0.74128002       0.51403415
O        3.73871246       3.93424250      12.28946577      -1.34980107       2.43134244       0.85210784
O        6.09858041       6.43417486       8.84777048      -1.56689323      -0.33479950      -0.05291695
O        6.33637794       5.45073933      15.53722582       3.90639899      -1.99448139      -0.76010189
O        4.48531247       3.49882532      18.14991650       0.06129687      -0.18337944       1.07298300
O        9.27822489       3.76534579      11.94285260       0.93404992      -0.99702719       1.35667053
O        6.34276461       1.09984458       8.23035327      -0.35969322      -0.49743772       0.62304758
O        1.32128214       7.00105280      15.64686625       1.26739844      -0.12614085       0.81731587
O        3.57281241       8.65914630      18.69698500      -0.13603924       0.37897054       1.58192523
O        8.16360451       3.84920120      15.35790032       1.81618898      -2.73986210       0.33958088
O        6.09092769       1.57980719      18.88862099       0.55068933      -0.09135621       0.41865828
O        2.31535486       6.09319709      11.74593440       0.51163409      -3.16912487       0.40614484
O        3.84966978       7.89573807       8.62901952      -0.85483568      -0.91607312      -0.74355605
O        7.65275139       5.63377833      13.33752080       1.01294363      -0.28164459       0.30308214
O        4.59256911       2.85746095       7.02005867       1.93901439       0.79880343       2.03606090
O        2.01306193       4.90680610      14.12736209      -0.58318522       0.50808268       3.16394677
O        5.74166729       7.60242170      20.28809781      -2.69121247      -0.47667138      -0.94380981
O        0.22174903       2.25936000       7.22337852       1.24749690       0.37412773      -1.65307851
O        7.78487358       9.54816456      13.41468864       0.14494203      -0.44404223      -0.81759412
O        0.19319374       6.88525901      13.10933892       0.38776219       0.17505473       0.94123036
O        2.92890259       0.33260498      14.11821690      -0.70671937      -1.25923618       1.02578126
80
Lattice="9.77192453 0.01751879 6.90363604 0.24348012 9.76890588 6.90363604 0.01370155 0.0133883 13.86910312" Properties=species:S:1:pos:R:3:forces:R:3 energy=-574.31781715 source_file=vasprun.xml step_index=575 time_fs=65150.0 time_ps=65.15 file_index=32 pbc="T T T"
Na       8.15026588       3.16345999      20.41647843      -0.35644139       0.51117851      -0.32251487
Na       7.99009823       8.81644568      18.28780653      -0.50857204       0.00962126       0.32612672
Na       3.52296853       5.87110564       9.86077253       0.19206986      -0.25662047       0.02048044
Na       3.97831513       8.27566649      13.42433017       0.96890528      -0.22366397       0.29395373
Na       1.02822471       2.83500362      15.65344070       0.51990526      -0.29850418       0.38103967
Na       5.77341354       1.97536365      14.42133252       0.72793568       0.00797318       0.35329728
Na       2.89941998       8.79065364      16.39586703      -0.16133453       0.05320271       0.78699405
Na       1.03648472       6.53890504       6.61548971       0.39174725      -0.08977646      -0.44395045
Al       7.05749837       5.34465433       8.93984615      -0.19463790      -0.65917503      -0.57465890
Al       4.66581618       2.86679439      11.61598941       1.96457072      -0.80496665       0.98322003
Al       2.83189262       4.61341558      18.60777544      -0.09983185       0.75932883      -0.80819146
Al       5.29351995       6.71151200      16.02857277       2.17955982       0.70947741       0.30198639
Al       0.41988525       1.73806045      11.47715899      -0.89239661       1.53679171      -0.40664146
Al       7.60882996       9.51532334      23.01826412       4.67550523       2.02847731       1.64374596
Al       9.38397139       7.89035768      15.84326130       0.42818073       0.79041840       1.06829268
Al       2.36949458       0.17382374       4.69093150      -2.41416656       1.96648022      -0.39195670
Si       2.26295991       5.62720904      15.46861690       1.12400902      -1.87869693      -0.18380831
Si       4.62230364       7.57119897      18.94205594      -2.51531571       1.08166950       0.58804912
Si       7.54574279       4.16891317      11.87925486      -0.68842197       0.51313709       0.20715298
Si       5.57232934       2.58943261       8.66586507      -3.90515184      -3.46443638      -1.11270310
Si       1.02087923       7.26161153      11.97198491      -2.16171395       0.34736970      -4.46829663
Si       2.59989005       9.23387487       8.55521905      -3.11252799      -1.51565145      -3.40668693
Si       9.09483751       2.45057125      15.65381215      -4.30599150       0.90219402      -5.18881062
Si       7.34728185       0.67400483      19.12577929      -2.14117822      -1.71327723      -0.17559792
Si       0.39421042       2.80433873       5.60646447      -0.84238802       1.50569167       2.79231482
Si       6.55504985       9.48207500      15.20428368       4.88179837       2.59442897       0.21219869
Si       9.43034343       7.13636248      21.64759946      -0.63830705       2.40892674       2.18705644
Si       2.92887240       0.70960934      12.80512764       3.86311902      -3.50039507      -1.71816325
Si       8.02362786       5.18269762      14.82374146      -0.31623100       0.85591397       4.99568966
Si       4.65633728       2.08439402       5.59919653       1.68496394       3.17429542       1.94667268
Si       1.87840851       4.31802410      12.34901261       0.58260843       1.27357009       1.20371240
Si       5.41551962       7.98260746      21.94046480       0.01181996      -0.37091296      -0.12234790
O        8.28870775       5.93759171      21.60348502       1.41731320       0.06446972       0.66968911
O        4.32312143       1.56154242      12.83901046      -0.96271619       0.40053666      -0.81187734
O        1.41541252       4.18072963       5.77781853      -0.55493063      -0.71627367      -0.88106197
O        5.46037694       8.39215674      15.31277979      -2.99585468      -1.28612756      -0.77761100
O        0.55445369       3.40297678      12.20005157       0.31530737      -0.23824411       0.84792046
O        6.12683073       9.39279888      22.37304053      -3.26620216      -1.63944117      -1.80885795
O        9.19558222       6.40249657      14.98840108      -1.82295738      -1.30726655      -0.21736670
O        3.85768989       0.81715083       5.20266682      -0.68518196      -3.10561702       0.10459082
O        3.31964059       6.43398885      18.92691564       1.26694042      -1.12588878       0.14753624
O        3.65126829       6.43764249      15.57859894       0.40700832       0.68165992      -0.29661999
O        6.52992288       3.70374255       8.32330052       4.64422070       4.51168387      -1.40515228
O        6.32929026       3.17982328      12.31402351      -1.46397256       0.25703810      -0.62287202
O        1.18726166       8.37744611       8.15852580       0.42633462       0.39403174       1.02944933
O        2.30792208       8.20303261      11.97085437       1.61551392       1.95171534       0.71326626
O        8.91124791       1.06765791      19.35326405      -1.19112317       0.65648815       0.38485975
O        7.81016406       1.45510281      15.63392750      -1.05548227      -1.31479714       0.45790126
O        2.22824510       4.54235904      16.70513955      -0.29444358       0.38274972       0.63478307
O        5.61138405       7.52268762      17.65993947      -0.36680663      -1.72930328      -0.02261968
O        7.17959639       5.22625914      10.66004170       0.85423004      -0.97206396       1.40706772
O        4.69964301       3.03695899       9.91314429      -0.64384976      -0.09251301      -0.18265586
O        9.74426305       7.62210192      17.58383667       1.15923236       0.10979417       0.80149724
O        2.35465323       0.21162283       2.98950561      -0.08174616       1.36478585       0.95011368
O        0.34032804       2.03840784       9.77348558       3.61975768      -1.51417988       3.56292101
O        7.49475674       9.38629263      24.75160049      -0.31505006       1.44215709       2.24578674
O        9.01312247       8.49456947      22.64203706      -0.04125548      -2.58695035      -2.48284036
O        1.78395251       0.84936271      11.79634325      -1.03112818       0.92212610      -1.77082242
O        1.10634626       1.51211907       5.06828306       1.50201930      -2.20964745      -1.21859264
O        7.89915786       8.96540063      16.07367624       1.07587796      -1.22147972      -1.62630187
O        3.25100919       3.78518963      11.67936808      -2.30520030       1.72576591       1.18655972
O        5.83201908       6.54254393       8.78632063      -1.49785868       1.87199502      -0.48691818
O        6.45875446       5.56018282      15.33823980       0.48604308       0.79843427      -0.02088278
O        4.08244771       3.43579424      18.80402744      -0.23143112       0.61217594      -0.83998690
O        8.84507087       3.28051750      11.53516171       2.21196574      -1.18462080      -0.33025228
O        6.32311304       1.20154789       9.18613046      -1.24259663      -1.15157678      -1.95896033
O        1.18049283       6.82095437      15.41677678      -1.39350544       0.03478850      -0.04483433
O        3.68606007       8.97715059      18.82604989       0.52597359       0.14021616       1.09032618
O        8.44681107       3.94105897      15.95544124       0.06316877       1.68298119      -1.87227676
O        6.30380481       2.02925902      19.16449746       1.39141618      -0.45295740      -1.25749241
O        1.59893022       5.79718687      11.63313402       0.49344133      -1.18032698       0.20780406
O        3.80420870       8.16632194       8.42982979       0.22312227      -0.87115245       0.10061336
O        8.03724920       4.84163342      13.31321849      -0.22497619      -0.02999155      -2.66295640
O        4.57994936       2.37388543       7.22939303       0.90534670      -0.60671176       2.26931094
O        2.18042785       4.79636538      13.99613813      -0.65053669      -0.71135049      -0.06205449
O        5.55012645       7.90941757      20.30763941      -0.14487722      -1.13416432      -0.73605405
O        9.57417151       2.32399825      14.04665076       0.95474839       1.28032256      -0.97502266
O        6.54432130       0.02065481       6.65370490       1.01552593      -0.73380359       0.66898313
O        9.84501432       7.58292708      20.09506019      -1.47641730      -0.25314684       2.47490935
O        2.30205277       0.60053460      14.25720196       0.40557030      -0.18279071       2.42571833
80
Lattice="9.77192453 0.01751879 6.90363604 0.24348012 9.76890588 6.90363604 0.01370155 0.0133883 13.86910312" Properties=species:S:1:pos:R:3:forces:R:3 energy=-574.65583522 source_file=vasprun.xml step_index=305 time_fs=24610.0 time_ps=24.61 file_index=12 pbc="T T T"
Na       6.11762540       2.01534500      14.36712512      -0.16067516      -0.16145185      -0.13402334
Na       8.23569967       4.40684847      19.90311882       0.07005638      -0.48895889       0.11803923
Na       1.58775420       5.79876950       6.72310653      -0.27656526       0.51541167       0.42926248
Na       8.03655883       7.60542394      11.91461944      -0.10043543      -0.53195871      -0.17598961
Na       7.96445836       8.40074465      18.12586004      -0.34206773       0.05438151       0.12103377
Na       1.28833075       2.49334532      15.26927133       0.38962415       0.11050447      -0.16015674
Na       3.71787575       5.16892726       9.77555121       0.34321579       0.09953196      -0.09661774
Na       4.46140671       9.27567696      13.37061905      -0.35317392      -1.39394523       1.13051353
Al       7.32184733       5.36906642      22.62051881      -2.40355491      -1.50893578       0.61742816
Al       4.87319454       2.91490467      11.52973025      -1.41421761      -0.51955163      -2.05221022
Al       2.90818053       4.57459160      18.51973100       2.21551036      -1.24194965      -2.35560810
Al       5.60899698       7.12489194      15.82291044      -3.03766635      -1.24182720       0.53871572
Al       0.42093900       2.33855645      11.53385676       1.76977420       1.06937070      -0.32402376
Al       8.15379445       9.34424762      22.75462678      -0.28123309       0.47592670      -2.41541676
Al       9.76351055       7.74042198      15.66733243       0.87920480       0.48209764       1.03272931
Al       2.26461242       0.45874276       4.33991660      -1.34556596       0.29036780      -1.00189417
Si       2.84523336       5.50212781      15.42140185       3.83034708      -1.55266025       1.51419710
Si       4.41332894       7.48058885      18.84408559      -1.32832657      -0.06150225      -3.77135815
Si       7.62870325       4.40307297      11.93791216       0.04803476      -0.38280542      -1.89775009
Si       6.02952880       2.28956435       8.50044424      -2.94297044       4.80484275      -1.46249691
Si       1.25562792       7.42644190      11.72237331      -1.29749800      -1.20555009       1.95763233
Si       2.85520727       9.29697456      22.16875076      -3.16556208      -0.16071215       0.59088832
Si       9.09193427       2.57104388      15.44218498       1.88624195      -1.15808813      -2.02215380
Si       7.47921865       0.75641938      18.80199711      -1.79019017       2.38790313      -0.25125836
Si       0.46770923       2.66726076       5.61166649       0.36109977       3.60986472       1.86167181
Si       7.22155003       9.40200874      14.82859188       0.09886008       0.28046514       0.82529759
Si       9.84246495       6.96794631      21.69087905       2.40127392      -0.65910138      -1.60467271
Si       3.00787376       0.63734216      12.33587945      -3.49729832      -1.59071731       0.83098132
Si       7.99146514       5.31086231      14.86624758       1.53846740       3.78349476      -0.46276215
Si       4.81369342       2.08590001       5.69986074      -2.62420231       0.20363046       0.01859084
Si       2.41630855       4.55974393      12.66627317      -3.93004813      -0.79831782      -3.09638005
Si       5.56462414       7.81130766      21.68594847       0.56599050       0.53864552       3.31611642
O        8.66055006       5.86625279      21.66570901      -0.54987158      -0.59644335      -0.93882500
O        4.31284938       1.46671055      12.43383181       3.53327111       2.29061946      -0.23714174
O        1.54743394       3.99850260       5.48299819      -1.96906311      -1.72706031      -0.31732705
O        5.92755658       8.41668762      14.80034133       1.43657126       0.99542293      -0.66781673
O        0.90524319       3.61531433      12.87750045       1.23481953       1.11576800      -1.39818526
O        6.69197461       9.02351810      21.62833197       0.43371325      -0.99151073       1.11005407
O        9.48621858       6.24648181      14.84086655      -2.27993607      -1.56843623       0.46065063
O        3.74004545       0.89092858       5.06204612       1.74322733       2.08935294       0.60853729
O        3.12215985       6.30434527      18.78937679       2.14195583       1.48803074       0.80999483
O        3.90873736       6.79325913      15.35828822      -0.25068829      -2.02451503       0.24900961
O        6.84504634       3.58907102       7.89634394       1.22752612       1.12499637       0.74509364
O        6.19512688       3.73874422      12.23860508       0.17384753      -1.24628808       0.70635406
O        1.53489698       8.22476903       8.21089841       1.69620352       0.20466356      -0.30135525
O        2.40197869       8.51949300      11.63735535       0.19083469       0.47565459      -0.26413527
O        8.79859846       1.64703467      19.08921442      -1.47333914      -0.77102587      -0.04640023
O        8.12742640       1.26366718      15.22585668       0.62166455      -0.44792397       0.59177707
O        2.73733383       4.25951901      16.65941916       0.86691871       2.14918576      -0.44465942
O        5.49609220       7.38462184      17.49411560      -0.98282332       0.66838051       4.38445349
O        7.51778441       5.16595046      10.47088432       0.55970679       0.45174681       1.27023260
O        5.06509049       2.81310083       9.65507590      -0.56208888       0.82953827       3.35433445
O        9.88156470       7.40088837      17.43841582       0.43662586       0.22399260       0.72880877
O        2.23526324       0.69675529       2.48497543       0.40970707      -0.72412907       2.72280325
O        0.29614210       2.66748131       9.77588739      -0.55837363       0.37270831       2.16868640
O        7.58976370       9.57074166      24.34984783       0.37345998       0.17158364       3.20939642
O        9.42152144       8.08270226      22.70804876      -1.21731728       2.29944508       1.33137685
O        1.73432409       1.29111868      11.59264918       1.64030290      -1.15227967       0.19767324
O        0.81347662       1.16267728       5.24111888       0.98794602      -0.16691513      -1.75077057
O        8.63282378       9.09643043      15.57570599      -0.48531048      -1.52095683      -0.43816303
O        3.45686311       3.96407019      11.64213110       1.05501418      -1.07272043      -1.43057791
O        5.79252231       6.45343857       8.78379672       1.53588564       0.01121063      -1.06406636
O        6.85941949       5.98247797      15.81765528       1.86865143      -1.19376352      -1.25732484
O        4.16039261       3.53819744       5.46626723       0.24065777       0.57186047      -0.50466504
O        8.90286494       3.37796264      11.71333556       0.08460686      -1.02125690       1.06041001
O        6.52813778       0.89501006       8.84236960       3.16120198      -3.24569323       1.82171966
O        1.42073813       6.07992000      15.37667927      -4.92850711       2.47271169      -1.31744136
O        3.56575602       8.96292814      18.49180518       1.13915975      -1.86310940       1.77615059
O        8.05963966       3.78730815      15.19502636      -0.96784377      -1.03985415       1.06057770
O        6.20261150       1.91931799      18.73691332       2.03755075      -1.24619050      -0.23548539
O        2.10470168       5.97663330      11.80299308      -1.11608990       0.42671626       0.71328987
O        4.15513921       8.35532361      22.38678021       0.45628834       0.37017119      -0.49055153
O        7.79019313       5.40047693      13.23316628      -0.14111200       0.84090890      -1.11996917
O        4.99050768       1.70613330       7.34754866      -0.99543636       0.54612858      -3.55459246
O        3.17145315       4.61777671      14.00670998       0.74940331       0.71967718       3.92838834
O        5.35656908       7.31386279      20.20477111      -1.30968997      -0.29981652      -3.16081827
O        0.40101690       2.79871043       7.28303239      -1.17913245      -0.84761615      -0.52835134
O        7.37781372       9.65585480      13.22334856       0.77873965      -0.41098952      -1.58299036
O        0.31430025       7.70125589      13.25293352       0.78445762      -1.72275377      -0.60328130
O        2.48339903       0.51674534      14.00172081       1.25778039      -0.06830966      -2.99799793
80
Lattice="9.77192453 0.01751879 6.90363604 0.24348012 9.76890588 6.90363604 0.01370155 0.0133883 13.86910312" Properties=species:S:1:pos:R:3:forces:R:3 energy=-575.49868694 source_file=vasprun.xml step_index=535 time_fs=65070.0 time_ps=65.07 file_index=32 pbc="T T T"
Na       8.36710027       3.96720651      20.77100078       0.23517103      -1.72709778      -1.62482365
Na       7.04014814       8.28884058      18.53984015       0.72966874       0.23128423      -0.20095884
Na       3.59205892       5.80874483       9.57842791      -0.02911871      -0.27031783       0.20416668
Na       4.41133558       7.72103431      13.32504542      -0.14854152       0.52281779      -0.41041439
Na       1.75328702       2.61953611      16.22337330       0.10751157       0.23259053       0.27712426
Na       6.21407813       2.13109485      14.33300395      -0.21653251      -0.19685738      -0.20594181
Na       3.07915417       9.32204453      16.43917651      -0.08623621       0.35556336      -0.57154382
Na       1.21914551       6.36277720       6.40059479      -0.61370084      -0.11650235       0.40218873
Al       7.10168821       5.25391923       8.91032434      -1.75387618      -0.32432191       2.64982590
Al       4.53465892       3.08337070      11.60416643      -2.19129572      -1.53379311      -1.86122829
Al       3.01854751       4.51241916      18.59552814      -1.12649160      -2.02926023      -0.19230404
Al       5.29787870       6.99259609      15.98905872       0.87928383       0.83769357      -1.65104899
Al       0.49009724       2.13718534      11.52930569      -0.77607061      -0.02513461       1.85883027
Al       7.45713556       9.42346872      23.10256030      -1.74540015       2.32389806      -1.77775451
Al       9.39537778       7.72916751      16.09466132       0.89295877      -0.11891219      -0.13488464
Al       2.42154935       0.28328378       4.43993680      -1.24718429       2.26787613       0.60424981
Si       2.31356832       5.76415549      15.65542109       0.93506938       1.86571285      -1.60546013
Si       4.24751406       7.21824288      19.03268551       4.87020034       0.76312577      -1.75801454
Si       7.51073652       3.98388406      11.77798258       2.58857890       1.17175575       0.08970935
Si       5.41786580       2.51974929       8.55693664      -1.18254741      -3.70610139       2.58772798
Si       0.76064882       7.60054863      12.21876172       1.94980375      -0.31274403       0.38043604
Si       2.45665792       9.21107009       8.22089675       0.30090408      -1.40405312       2.66115735
Si       8.94929449       2.49783816      15.61526573       0.66894008       1.41502472      -0.23825987
Si       7.31258022       0.66000262      19.05125741       2.93973897       0.46855322       1.18190618
Si       0.46308573       2.93663672       5.73536660       0.95037578      -2.08304654      -2.12614499
Si       6.95086432       9.43957615      15.02775047      -0.13959147       1.17345390       2.28005823
Si       9.37001693       7.04763239      22.01321228      -1.78584453       0.46069372       1.08628118
Si       3.12495471       0.36001557      12.33585988      -3.50049716       2.61958770       0.67185555
Si       7.92225086       5.31931723      14.74889752       0.07284205       1.01088076      -1.79780857
Si       4.73003622       1.90960838       5.58535722      -6.81711916       0.96776395      -0.40002708
Si       1.90082244       4.73223429      12.81020809       1.25170533      -1.18656430      -2.73207832
Si       5.31764457       7.75554564      21.82422776      -1.69120495       3.17376160       1.83243867
O        8.58031714       5.60919109      21.93415153      -0.19366605       0.74374975       0.65105362
O        4.36902244       1.32921264      12.17342223       0.43731529       0.10190154       0.63989205
O        1.45638812       4.19656293       5.53636108      -0.24099413       1.73339029       0.46105638
O        5.45815160       8.80094923      15.22724212      -0.90400651      -2.15087641       0.34273215
O        0.72445309       3.67852914      12.49480551      -0.14158510      -1.27244485      -0.10011191
O        5.85947210       9.33463711      22.00627212       1.94241472      -1.61035367       1.12875590
O        9.33384803       6.18028367      15.11754109      -1.32457820       0.04979736       0.11449727
O        4.06057340       0.45932498       4.98393108       0.70160687       1.18944805       1.40690015
O        3.40825952       5.98349285      19.41385163      -1.34852749      -0.56885074       0.57005727
O        3.66386935       6.70100885      15.27208234      -0.35606187      -0.30663929       0.90402428
O        6.21291398       3.79779397       8.36217092       4.12047488       4.86997263      -0.79602044
O        6.17397259       3.13418992      11.94959748       1.06305680       0.19318013       0.99035872
O        1.01455207       8.41135569       8.26881305       0.61801810       0.13392641       0.01883041
O        2.10410012       8.66368575      12.28591263      -1.95778388      -1.52880927      -0.39672099
O        8.67341412       1.56940922      19.03443412       0.78098021      -0.49732076      -0.00877455
O        7.95886756       1.16214378      15.51919092       0.48878962       1.59754772       0.28324832
O        2.59695097       4.87817522      16.92694043      -0.43358753      -0.25608796       0.28032031
O        5.37965652       7.00656170      17.74153609      -1.77931406       0.00855893       0.85680437
O        7.58416223       5.09065736      10.62242525      -1.00713116       0.01023183      -1.95288996
O        4.33585938       2.74841356       9.79037343       0.50492396       0.47232306       1.01732872
O        9.45394924       7.92105401      17.95302077       0.81384209      -0.67099271      -0.58423457
O        2.35001353       0.48499579       2.59027657      -0.27287270      -0.88112634       0.93324487
O        0.26930372       2.62959879       9.95008800      -1.85294343       0.10391308      -3.46939986
O        7.27997777       9.45165162      24.76725807      -0.40628376      -0.78735987      -0.10689797
O        8.51820341       8.25574601      22.67116694       2.10216799      -3.19651498      -1.08832021
O        1.83258932       1.01282997      11.50651894       1.05358530      -0.95190335       0.05899116
O        1.49845931       1.78034643       5.14221672      -0.49300392      -1.50268764      -0.89587785
O        7.90640006       8.57674598      16.13393606      -1.42564824       1.49708815      -2.03129645
O        3.46239372       4.37558165      12.26358381      -0.21950392      -0.76266787      -0.65807275
O        5.78012747       6.48172155       8.82338111       0.63229070      -0.10485941       0.05263784
O        6.55339772       6.14401590      15.05681969      -0.63297380       0.25058319       0.73028123
O        4.04890371       3.13458551      18.39465480       1.39197303      -1.02477182       2.20111267
O        8.87280258       3.00579964      11.59170059       0.30414388       0.05758470       1.41498595
O        6.52578658       1.23741353       8.75257555      -0.40655343       0.03352072      -0.39254843
O        1.07383680       6.90741794      15.69549725       2.57010955      -1.31532972       2.19406646
O        3.48295037       8.60054925      18.62118464      -0.15092084      -0.05481345       0.50554554
O        7.87741177       3.94662323      15.57931070       1.07086500      -3.40822426       0.64299532
O        6.22552060       1.78587217      19.20166189       2.53942029       1.90205442      -0.57776001
O        1.52637054       6.11498409      12.05473017       0.27961957       0.87191969      -0.56965812
O        3.65931465       7.93858765       8.44133055      -0.74053481       0.32057391      -0.90506374
O        7.81331881       4.94323312      13.07504049       0.48836425       0.43109938       2.64491932
O        4.52181881       2.29579835       7.27205928      -1.45340593      -1.30143854      -4.29765311
O        2.07599341       4.70870974      14.38986744      -0.29715436       0.76463989       2.88170621
O        5.35704585       7.43228355      20.25651790      -0.17432884       0.11076423      -1.88492315
O        0.10210245       2.65155073       7.28904736      -1.31473962      -0.18409966       1.36178721
O        7.43892280       9.58495690      13.48611256       0.26263130      -1.29115558       0.98663630
O        9.73361759       7.24397958      20.51182682       0.01824999       2.09762466      -3.76956984
O        2.47701342       0.39185906      13.90266537       0.98926123      -0.70462488      -1.25176651
80
Lattice="9.77192453 0.01751879 6.90363604 0.24348012 9.76890588 6.90363604 0.01370155 0.0133883 13.86910312" Properties=species:S:1:pos:R:3:forces:R:3 energy=-576.28472476 source_file=vasprun.xml step_index=145 time_fs=2290.0 time_ps=2.29 file_index=1 pbc="T T T"
Na       8.11871686       6.95795592      17.84139133       0.27175802       0.83371836       1.34244015
Na       6.55871979       1.44945735      13.98092712      -0.25334172       0.18468437      -0.51919295
Na       3.20325412       2.49007445       8.54752939      -0.79617940      -0.04336629       0.28899957
Na       8.19817903       7.48694159      12.07511550       0.19528315       0.05883944      -0.20650775
Na       8.69406078       3.86530337      20.00016020      -0.08694041      -0.07517585       0.28354270
Na       2.46582766       2.78021675      15.69924535      -0.02601518      -0.28438521      -0.09876423
Na       2.20266601       6.28784753       6.90787100       0.01811459      -0.22748440      -0.43812085
Na       4.26530314       8.36580222      13.32064234      -0.18487478       0.31190014      -0.23839112
Al       7.48363708       5.37986781       9.08052138      -0.09516693       1.90361873      -3.66414327
Al       5.05525291       2.95470851      11.44008485      -1.02193422      -0.44495066      -0.08639223
Al       3.40263590       4.55872323      18.37282701      -2.21383443       4.72721625      -0.42003462
Al       5.80294133       7.23285158      15.87730833       0.43574485      -1.03246680      -0.22354849
Al       0.91167375       2.19509405      11.56690718       2.73948989       0.57143478      -2.35730320
Al       8.19433324       9.54704094      22.73708138      -0.26424478       0.60069088       0.34857410
Al       0.40076752       7.82588263       8.68210974       0.57595839       1.92047717       0.13422686
Al       2.26886230       0.53070945       4.48567811       0.62555509      -1.01930313      -0.13387827
Si       3.05699008       5.82404157      15.11808804      -1.83923701      -0.26253944       3.23681460
Si       4.71116728       7.60694339      18.93231391      -2.22614958      -0.55773251      -2.82618005
Si       7.58151067       4.43586539      12.19132884       3.07909019       0.14507211      -0.94786547
Si       6.16476477       2.62148815       8.43083862      -0.44972950       0.83343834       0.59670695
Si       1.35203093       7.30138010      11.94359654      -0.99974491      -0.62604797      -3.48521673
Si       2.98016593       9.14972266      22.11958693       0.52340440      -0.93349246       0.31286870
Si       9.61834345       2.58860061      15.41687446       0.50036561      -1.93302882      -0.18307899
Si       7.81735429       0.81113520      18.80149706       1.18090579      -1.84933708       0.44034193
Si       0.79350706       3.10299832       5.65556855       0.48494501       0.86839497      -1.33337967
Si       7.59625105       9.45970794      14.89316978       3.75884662       4.05338612       0.21373915
Si       9.93085298       7.08589143      21.59801895      -2.58965004      -0.50941313       1.41475911
Si       3.61179706       0.62790015      12.57532688      -3.21002691      -1.64132708      -0.89509206
Si       8.43618094       5.61020010      14.98056746      -1.10183179      -2.03099102       0.56391899
Si       5.02005981       2.26553046       5.56086686      -0.13749960      -2.92827397      -1.73654279
Si       2.52126472       4.55798427      12.44610320       1.83368690       0.95028243      -0.07855626
Si       5.59198914       7.95580892      21.88367376       3.56524989       0.52668519      -0.99472891
O        9.16440787       5.99271442      22.61409082      -0.01650218      -0.59609440      -2.18593070
O        5.02857570       1.30951337      12.15965894      -1.36212530      -0.17592733       0.67627357
O        1.88882673       4.37197911       5.47426906      -0.34791887      -1.54815950       0.32439143
O        6.44348813       8.44876731      14.79497663      -2.75547593      -1.79961283      -0.26458402
O        1.19059895       3.71181323      12.47198663      -2.07873727      -0.40183957      -0.21221027
O        6.53859236       9.31904055      22.19829525      -1.39088829      -0.22037546      -0.87776523
O        9.71474883       6.52154213      14.55573530      -1.01359027      -0.51123718       0.34270071
O        3.91286551       0.98338848       5.26151017       0.02171474       1.02430440      -0.09816441
O        3.64036716       6.35970589      19.02606609       1.13608226      -1.33522159      -0.32285945
O        4.34327783       6.77952473      14.94252484       0.76203199      -0.03699300       0.58753301
O        7.12915580       3.92631951       7.89821793      -0.60448790      -0.81176812       2.20662983
O        6.51378364       3.29153047      12.27213256      -0.86964235       0.09753144       0.90978482
O        1.69085187       8.39941941       7.52116261       0.42625473       0.55688411       1.47678749
O        2.03873571       8.67434725      12.21401732       1.43968092       3.66821544       0.15052845
O        9.18876031       1.68910653      18.85668632      -3.40363839      -0.35261513       0.68878767
O        8.46856597       1.38881169      15.16076780       0.29122684       1.06445309       1.23692144
O        3.04032976       4.84806489      16.62093716       0.17617146       1.12702189      -1.90212865
O        5.72979095       7.47002538      17.55758526      -1.54403383       0.88098937       2.38506663
O        7.54250383       5.17496132      10.71033579      -0.38877712      -0.47569252       4.34917570
O        5.09706649       2.88104562       9.73763626       2.28972454      -0.18104212      -3.37652288
O        0.98683915       7.22194239      10.20552749      -0.76373860      -0.17476222       2.95871107
O        2.44594735       0.08895956       2.73462632      -0.60454530       1.14888266       1.91337220
O        0.90554067       2.40743403       9.74562460      -0.15194039      -0.23594469       0.32359928
O        8.09835446       9.38549962      24.50028029      -0.15693313       1.88326368       1.84144244
O        9.30855500       8.45728851      22.12382202       1.13922989      -0.20222870      -1.10565594
O        2.21208794       1.15231510      11.90368534       1.14631524       1.23818968       0.93804786
O        1.23278345       1.94238614       4.58383394       0.17902906      -0.23369496      -0.04082469
O        8.89547211       9.07028210      15.85234228      -0.74233873      -0.80848320      -0.96147806
O        3.58125891       3.93957236      11.39298027       0.39746480      -0.17559168       1.45148373
O        6.35199247       6.76913781      22.56085751       1.80042729      -3.04184510       0.98835212
O        7.29719116       6.19638789      16.14284878       1.69428000      -1.70287443      -3.45560185
O        4.77594163       3.67476503      18.69098692       0.66350145      -1.17954195       0.29949608
O        9.04255858       3.65413004      12.33069005      -0.14008209       0.29822516      -0.32657658
O        6.81253731       1.15537468       8.67971181       1.02300974      -0.80255114      -0.61031497
O        1.71860864       6.90277342      14.88280323       4.05423882      -1.66765598       1.00858339
O        3.51053088       8.87173279      18.75134362       4.02541112      -0.52123775       1.83108660
O        9.09734084       4.10512338      15.53769109      -2.16856911       2.90452733      -0.66670035
O        6.55197975       1.81589282      18.89490847      -0.51901716       0.19630842      -0.27450699
O        2.47061097       6.16985877      12.13662515       0.36190899      -0.98871818      -0.02258602
O        4.10737458       7.84325541       8.62612586      -2.60215318       2.29335355      -1.12075422
O        7.61524800       5.46018678      13.50796652      -0.44211865       0.17657532      -0.16928728
O        5.14428333       2.32819582       7.15839740      -0.89497631       0.57176043       0.92031282
O        3.00274187       4.60380577      14.05532700       0.16561924      -0.84978500      -0.51840794
O        5.72658616       7.69448967      20.18067173      -0.21792693       0.93921408       1.52907167
O        0.78928309       2.46021218       7.14080168       0.75998311       0.01639363       0.84148546
O        8.12778772       9.69744423      13.28684186      -0.74081342      -0.32440949       0.41593441
O        9.86438954       6.97718788      19.87719595      -1.02377596      -0.15836264      -0.21143406
O        3.38555212       0.65154965      14.33747300       0.68195997      -0.62571652      -2.16989075
80
Lattice="9.77192453 0.01751879 6.90363604 0.24348012 9.76890588 6.90363604 0.01370155 0.0133883 13.86910312" Properties=species:S:1:pos:R:3:forces:R:3 energy=-574.73120222 source_file=vasprun.xml step_index=465 time_fs=52930.0 time_ps=52.93 file_index=26 pbc="T T T"
Na       5.35186740       3.27473853      16.24942549       0.25530387       0.81906517       0.47718562
Na       8.49648569       4.14614426      20.30729000       0.01655649      -0.05583015      -0.42043587
Na       1.42861629       4.23614919       7.90103122       0.01982604       0.34106487       0.47180315
Na       3.26407839       8.94763156      13.89301110       0.49812813      -0.04866761       0.11490215
Na       1.70876586       2.65499662      16.37707713      -0.03064578       0.13564024      -0.41094158
Na       6.00278760       1.04880266      13.60680718       0.17566486      -0.12555556      -0.39492110
Na       1.39548389       7.81534447      17.65501719      -0.33978895       0.73772330       0.28751765
Na       4.65111111       5.65231742      10.32193572      -0.55229994      -0.03656900       0.46941829
Al       6.92220637       5.16350964       8.69049106       1.04501084      -0.81920396       1.35433749
Al       4.56648399       2.72217108      11.45554348       0.95048137       0.53590813       0.31091091
Al       3.27267631       4.76432315      18.58021046       1.73423635      -1.54433569      -1.26148939
Al       5.31541987       7.12063856      15.79244199       1.72496546       0.73784807      -1.50435997
Al       0.30585648       2.40876346      11.17138274      -1.57267277      -1.13630043       1.34913875
Al       7.86440315       9.46570534      23.04537781       2.38185880      -0.25119023      -0.23551493
Al       9.32648181       7.43950323      16.14874956       2.10683013      -0.09536131      -1.00650286
Al       1.92622097       0.39905457       4.41623057       1.01024611      -1.93213603      -0.34309688
Si       2.66651386       5.67155488      15.51709741       2.63565561      -1.00096957       0.31242796
Si       4.49302998       7.72958400      18.76574954      -1.37492127      -0.43919374      -1.75058187
Si       7.48788155       4.13165581      11.70136290      -4.51887786      -0.41530917       0.77404030
Si       5.61590710       2.26803022       8.55794150      -0.31136884       2.45196306      -0.58426102
Si       0.90402268       7.03920555      11.95353147       0.51057113       3.99664528       2.45517003
Si       2.48348704       9.07518624       8.42460133      -3.12008782      -2.73639511      -1.05884477
Si       8.80121624       2.46138230      15.07713144       4.25084650       4.81515712       1.02417763
Si       7.60579471       0.89669025      19.14571072       0.77634396       1.13325643      -1.60116793
Si       0.51688810       2.94073125       5.24141332      -1.44829128       1.24360077       1.65592619
Si       7.24096931       9.38661547      14.88973256       0.49787763      -0.34224278      -1.03873454
Si       9.73948442       6.65768077      22.01522883      -4.21862022       1.59368145      -2.93809374
Si       2.51516623       0.49395911      12.35171530      -0.96192197      -1.76393879      -0.80143876
Si       7.62320996       5.15852150      14.60936406      -1.38320779       2.83774298      -1.21517866
Si       4.67220803       1.96700348       5.55820250       0.36386763       3.63622981       2.68181899
Si       2.19111809       4.56634971      12.63252176       1.79445917       0.06815041      -0.45530219
Si       5.41998851       7.98268343      21.68081335      -1.14077947      -0.66144366      -1.58394938
O        8.66108500       5.35585884      22.09796221       0.40245116       1.92164823       0.80724007
O        3.79742044       1.46348088      12.45031207       0.68046028      -0.13567384       0.16431065
O        1.69057636       4.00632163       5.01312395       1.29475078       0.85799660       0.90678449
O        5.88401398       8.55353076      14.80935920      -1.12839628      -1.98973271      -0.33660205
O        1.03226312       3.67932628      12.03829606      -0.89336653       0.62628369       0.86587788
O        6.31110158       9.17147325      22.21710038       2.15277831       1.11503188       1.35894349
O        8.91730839       6.03550387      15.03361328       0.64389051      -0.22603558       0.19677315
O        3.39837654       1.16846032       5.11327587      -2.03890790      -1.67956410      -0.39108588
O        3.75461165       6.28032981      19.18161944      -0.12016228       1.71000613      -0.10666862
O        3.65209888       6.98097992      15.23327085      -1.75459094      -1.40672757      -0.87866908
O        6.52560260       3.59383444       8.10135965       0.06909763      -0.86424948      -0.47378864
O        6.28027493       2.91618274      12.17174088       1.03073456       0.40483789      -0.96143917
O        1.30603055       7.96589085       8.88325968       0.57529648       0.55489142      -0.98010167
O        1.66376267       8.59823496      12.05361734      -0.33006450      -0.07147107       0.00645579
O        8.50856439       2.26521647      19.29116702       0.79758975      -0.81478091      -1.34411371
O        8.00399456       1.21513956      15.22495314      -2.57624206      -5.35191973       0.15385395
O        3.41562969       4.80536873      16.72760982      -1.21750655      -0.04354578      -0.45225632
O        5.29595260       7.73836605      17.35438282      -0.16163174      -0.38045432       2.36312834
O        6.76383289       4.88517722      10.47736530       0.31507868       0.70556913      -1.65147694
O        4.55281290       2.89982660       9.67843304       0.76096057      -1.26586317       1.10055204
O        9.72067792       6.71357221      17.72203942      -2.70200416       0.12601272      -3.03872956
O        2.27150296       0.37906179       2.67811229       0.46887801       1.80368554       0.74091389
O        9.80481446       2.83882001      16.42548603      -1.37997185      -0.04203004      -2.59436028
O        8.09621830       0.10803588      17.82293690      -0.61037039      -0.69193106      -2.46476435
O        9.26463000       8.24024397      22.48483137      -0.40510091      -1.90270166       0.26193325
O        1.29121358       0.98072816      11.32702265       1.16307998      -0.44671029       1.36654633
O        0.79030177       1.64824118       4.41707658      -1.03363928      -0.41552093      -0.58874732
O        8.38926568       8.88269503      15.87661937       0.56876707      -1.34996334       0.23279651
O        3.57918475       4.02482979      12.01487994       0.43301698       1.10295020       0.21700870
O        5.86958875       6.50955089      22.18909952      -0.31874862       0.22119152       0.04959543
O        6.39070697       5.71327380      15.58841139      -0.53401784      -0.06920022      -1.14971263
O        4.69426191       3.64163802      18.83370483      -0.90438889      -2.61916861       0.64139607
O        9.02962459       3.81710564      11.51395517       1.07919771      -1.73607438      -0.26838086
O        6.50765880       0.93956919       8.79348593      -0.00702989       2.10448747       0.49607177
O        1.24388382       6.24630060      16.04735271      -0.30928653       0.45756804       0.11125211
O        3.26930031       8.87345836      18.42506899       0.28197300      -0.56437076       0.89957628
O        7.50317830       3.57344126      14.99296738       1.97616683      -1.11639770      -0.35195983
O        6.00713967       1.21927326       5.11315976      -0.32443573       0.54261949      -0.85252176
O        2.16331906       6.10210630      11.98127895       2.47480534      -2.19963923       0.85593224
O        3.93086349       8.39632275      22.14185459       0.90641424      -1.46478368       0.62582957
O        7.47240275       5.27810649      12.83713300       0.06912965       0.42684822       4.32637710
O        4.60764259       1.96775411       7.32946248      -0.88394243      -0.41280024      -3.50956258
O        2.22346755       4.51020258      14.36083079       0.39467039       1.19189069      -0.74521795
O        5.42083241       8.18884002      19.99458860       0.80319837       0.08013499       1.72055473
O        0.27915988       2.53014474       6.89625126      -1.72960070       0.77361076       0.07327368
O        7.85933392       9.53144100      13.27223332      -0.21286643      -1.05666242       4.40718984
O        9.79632977       6.64571407      20.20503983       0.71179614       0.40011038       3.44349502
O        2.27290937       9.63778487      20.73655985      -0.20513759       1.48728384      -0.39512058
80
Lattice="9.77192453 0.01751879 6.90363604 0.24348012 9.76890588 6.90363604 0.01370155 0.0133883 13.86910312" Properties=species:S:1:pos:R:3:forces:R:3 energy=-574.75574629 source_file=vasprun.xml step_index=780 time_fs=57560.0 time_ps=57.56 file_index=28 pbc="T T T"
Na       7.56348637       7.71639781      18.49907129      -0.17474797       0.18866419       0.45716831
Na       7.70329327       3.86398417      19.92188018       0.02390908      -0.18556800       0.32561235
Na       0.89980929       6.74317469       5.93280851      -0.15837479      -0.25105236       0.40147732
Na       4.66436530       7.83072111      12.63420875      -0.06586595       0.28596228      -0.04571890
Na       1.88899739       2.08832662      15.71582258      -0.09754701       1.65731742       0.17656544
Na       5.90360205       2.00345546      14.08391827       0.16589520      -0.57402945       0.54189556
Na       2.30365747       1.33989331       8.99653230       0.07434250       0.18452290      -0.32668234
Na       2.73490603       5.76806187       9.30354811       0.15692044       0.02080826      -0.09073422
Al       6.77726505       4.98631385       8.95733460       1.77294664       4.09807132       0.52407388
Al       4.92583768       2.68669635      11.48047013      -3.65398293       0.73594155       1.54138811
Al       2.81895831       4.57176836      18.67362654       2.93223957      -1.12686708       0.49179937
Al       5.34938974       6.71779651      16.00653359       3.05954583       1.41725885       0.81532840
Al       0.43573809       2.08934134      11.41251708      -0.27650817      -0.35746960      -0.23862301
Al       7.62867345       9.30116267      22.95049223       1.43842279      -1.56362787       0.92926682
Al       9.31312862       7.51971284      15.98538098       0.91124598      -2.08107524      -2.41910572
Al       2.16169580       0.21863861       4.33485199       1.30822835       1.34647458       2.20528669
Si       2.49617294       5.32735180      15.70970247      -2.37568435       2.29075331       2.55794775
Si       4.35989246       7.37572649      18.88385596       1.97661118      -0.67108649      -1.08510626
Si       7.47683757       4.28135108      11.90951069       1.31988720      -3.38982161       2.77043874
Si       5.57808412       2.28036122       8.49479872      -3.28649570       0.38413406      -0.59743922
Si       1.14749797       7.16938571      11.91408260      -1.80503524      -0.96846300       2.19776992
Si       2.08489384       9.16244412       8.09588850       2.92204925      -4.60379261      -0.28378550
Si       8.85220237       2.18051219      15.25472521       4.36775409      -1.56790508       1.15098129
Si       7.48481097       0.64035549      19.22084637       0.36282179      -1.44655571      -1.48795099
Si       0.56822217       2.93350166       5.80662462      -0.22571032      -0.72170521      -2.95389890
Si       6.85712712       9.13375355      14.88875825       2.08214396       0.68207265       1.27056262
Si       9.42627160       6.62784513      21.71771468       0.27023794       4.88606207       1.05143082
Si       2.94406719       0.56153271      12.31551401      -0.45094240      -3.08879105      -0.66470027
Si       7.80560714       5.04539739      14.79579596       2.51924230       1.65093297      -3.07544288
Si       4.60084304       1.91254426       5.62086553       0.49176136       0.64630511       1.48946361
Si       2.25632580       4.51173522      12.67466100       2.24378808      -2.51848087      -1.41032261
Si       5.08623609       7.62612115      21.81532913       0.66392009      -0.06603229      -1.02913171
O        8.41021056       5.47699841      22.02417306      -1.73761493      -1.72532777      -1.11115984
O        4.28740362       1.33973141      12.45576384       1.74208014       0.92986110       0.17828942
O        1.56698015       4.32568945       5.97789044      -2.02994740      -2.50651097       0.09244364
O        5.62669995       8.10625272      14.77259901      -0.96580827      -0.50543876       0.33785854
O        0.93584503       3.64912329      12.12989379       0.41093305       0.27890366       0.89058100
O        6.05987070       8.82108057      22.47550696      -2.93805880      -1.54049972      -1.23237747
O        9.17454493       5.91417239      14.90539282       0.46630004       1.81959346       1.76276304
O        4.00454203       0.62966370       4.84766746      -2.07162305      -0.99288566      -0.12296018
O        3.31110482       6.18442416      19.12748618      -0.51768606       0.27489681      -0.19393777
O        3.83363083       6.13254235      16.05868291      -2.63970750      -0.64638029      -1.41071436
O        6.54745967       3.56451894       8.15838542      -1.07603233      -3.55059641      -0.94567106
O        6.30293819       3.12562130      12.29524298       2.40658435       1.35694278      -0.77622355
O        0.84847192       8.16257378       7.89338490      -1.22058914       0.65914391       0.90468007
O        2.18200370       8.38792581      12.02707882      -0.15296313       2.12829736      -0.79269882
O        8.96849150       1.31326998      19.33122456      -0.06497628       1.26880677      -0.43766609
O        7.94428486       0.91842574      15.15321173      -1.81996564      -0.27701172      -0.36518601
O        2.28582372       4.38227269      17.06158281      -0.67867304      -0.05400346      -2.48340868
O        5.59941704       6.97503619      17.79275207      -1.43943607       0.77515253      -1.13002895
O        7.58978577       4.98801246      10.54553715      -2.03437430       0.92921518      -2.45867285
O        4.60451657       2.59070944       9.83374991       1.17850413      -0.12854214      -2.18911766
O        0.35091469       6.73531182      10.54991069      -0.99269152       2.20574612      -0.76042093
O        2.01193092       0.09311727       2.61666319      -0.24261104       0.02673179      -0.48492058
O        9.74052315       2.23257685      16.62808875       0.01508046       0.03932191       0.36941942
O        7.44080906       9.55810727      24.74444876       0.54655694       0.92603533      -0.12488620
O        8.75288473       8.08203852      22.28995790       0.51846394      -1.32992792       0.37940528
O        1.82767813       0.97269272      11.21929025       0.00459181       0.84659233       0.82122084
O        1.18484129       1.64963046       4.72323032      -0.00649291       1.50990036       1.31707238
O        7.87489137       8.55538096      16.11745787       0.86394692      -0.74269688      -0.40373995
O        3.69426318       3.86700113      12.12214709      -1.41896858       0.75359940       0.20391093
O        5.30109879       6.05042985       8.57005881       1.04407420       0.74737061       0.21571605
O        6.64878165       5.65502337      15.57901601      -2.59523664       0.45495167       1.95111763
O        4.28845871       3.36280988      18.85234056      -1.26566179       0.84970582      -0.02044942
O        8.85735257       3.33161731      12.03292310       1.27586953       0.10564276       0.46018383
O        6.24137549       0.84589668       8.73509554       1.13238911      -1.59611711      -0.90711613
O        1.16926090       6.36800311      15.38522443       1.18308033      -0.66166578       1.26706298
O        3.64088122       8.80641964      18.72059673      -1.26780922       0.50756038      -0.53383990
O        8.10198155       3.50852222      15.09192006      -2.63344488       1.74670129      -0.16992219
O        6.28829302       1.73409332       5.70736560       0.23520093       0.25946209      -0.41160244
O        2.28877047       5.99232556      11.95676432      -0.02475390      -0.78447463       0.90139235
O        3.37592086       7.73288431       8.05721089      -0.03070731       2.13794670       0.50652584
O        7.48060560       5.27391536      13.16225850      -0.48171800       0.50732309       0.75217683
O        4.30389640       1.95793696       7.36282306       0.89010124       0.29989759      -1.05241804
O        2.41236910       4.55349398      14.34458547       0.13381131      -2.32568307      -2.67363351
O        5.42387795       7.64556959      20.06637665       0.62739058      -0.11028535       4.54426809
O        0.27528993       2.14202114       7.18061282       0.30958701      -0.21724007       0.83603932
O        7.73305683       9.24313143      13.44516146      -1.55366928       0.02237031       1.98384114
O        9.74888701       7.16979961      20.14173595       1.15718493      -0.80633867      -2.79495623
O        2.33516392       0.39064332      13.87475725      -0.72706202       0.84304293       0.13794739
80
Lattice="9.77192453 0.01751879 6.90363604 0.24348012 9.76890588 6.90363604 0.01370155 0.0133883 13.86910312" Properties=species:S:1:pos:R:3:forces:R:3 energy=-576.07014021 source_file=vasprun.xml step_index=340 time_fs=86680.0 time_ps=86.68 file_index=43 pbc="T T T"
Na       8.59456987       4.41685280      20.81066410       0.36509437       0.03771167      -0.30181946
Na       9.12445034       1.50781084       9.95599556      -0.30136708      -0.15451012      -0.01160521
Na       6.34765864       4.42207963      17.72772699      -0.16837872      -0.34733200       0.22322832
Na       7.01077030       7.25295993      12.69616013      -0.06798962       0.41578734      -0.56175282
Na       3.19258783       2.84100846      15.59894687      -0.25671985      -0.42902487       0.03210875
Na       6.26022084       1.19476241      13.18754819       0.20638656      -0.58081524       0.61656788
Na       1.73491794       6.35418297       7.47114112       0.09803165      -0.29938105      -0.07468251
Na       3.31053995       8.97095710      14.40455153      -0.31772240      -0.34397478       0.00044835
Al       6.89975298       5.29280958       9.42556447       2.35346340       0.23460012      -0.28267330
Al       4.45626788       3.16038824      11.88589949       1.58747260      -1.98708461      -1.07352974
Al       2.66291933       4.82429418      18.64802139       2.03435737      -0.16644852      -0.97072729
Al       5.35988628       7.16177928      16.05900111       0.81913826      -2.02146859       0.68892837
Al       0.10945781       2.30148298      11.84239259       3.99091363       0.15207794      -0.99271737
Al       7.90767809       9.64750270      23.10253934      -0.37588845       0.36404208      -1.02195304
Al       9.57279224       8.02425162      16.06883034      -0.03622267      -0.61606496       0.62395553
Al       2.04391060       0.47533726       4.82670038      -0.17130988      -0.64765642      -1.32769506
Si       2.71537101       5.85518714      15.45882482       0.37373193      -2.69347928      -0.51646211
Si       3.99885370       7.65358717      18.99747055      -0.86882302       1.35160540       1.43740056
Si       7.21567732       4.22207733      12.44140441       0.73946712      -0.67723154      -0.02558137
Si       5.82432798       2.71343059       8.91210522      -1.74691499       0.34876011      -2.71951660
Si       0.70532876       7.53658721      12.07786500       3.52835343      -2.03970897       4.69386886
Si       2.74371242       9.17727506       8.60662882       2.26857068       3.67828478       2.98063933
Si       9.24056304       2.39743849      15.48878642      -1.31067191      -0.08838624       3.10941862
Si       7.17030338       0.99944559      19.24103389      -0.38456343       1.79852140      -4.16356643
Si       0.23330449       3.07205876       5.66056213       0.86928561      -3.78925103      -1.11712359
Si       6.87276683       9.66450246      15.17373646       1.62245876      -0.84844838       1.91165172
Si       9.55579434       7.12206036      22.04254956       1.40006383      -2.29412683      -1.72061928
Si       2.78362296       0.66412606      12.91802130       0.66362420      -0.04367047      -3.61578791
Si       8.22679392       5.34854096      15.15771680      -3.59384509       1.18689233       2.76717240
Si       4.33195316       2.14584474       6.04233519      -0.31122719       2.24543405       0.45054722
Si       2.01801393       4.89940834      12.51340351      -0.01022671      -1.59336158       1.30210394
Si       5.42330627       7.95615957      21.92009051       0.51452404      -1.56288595      -0.35472831
O        8.70403242       5.78329439      22.68900632       0.44091079       2.07778979      -0.46471224
O        4.09973648       1.47974782      12.39303919       0.04602381       1.43946964      -0.38820052
O        1.07611904       4.40609780       5.39873080      -0.71921466       0.16517156       0.14699433
O        5.60177702       8.66173362      15.24174511       1.16280456       0.93976910      -0.74760353
O        0.68872721       3.98943048      12.31740528      -1.39487803      -1.09962161      -0.06396888
O        6.32931555       9.22628574      22.36483308       0.16246532      -0.67398170      -0.25557178
O        9.31095790       6.49073465      15.29239816       1.18629969       0.01097994      -0.87724017
O        3.26743235       0.90184557       5.96421382       1.45408987       0.94107776       0.71306377
O        3.05109004       6.40387480      19.48817658      -0.46185431      -0.90887571       0.02233477
O        4.02409632       6.71870886      15.02718710       0.29689539      -0.94942509       0.01030212
O        7.03140079       3.73276796       8.50098643      -0.32743044       0.17471294       0.34288793
O        5.93058140       3.41345560      12.89236829      -1.13563704      -0.08792174       0.46876728
O        1.37138357       8.38730699       8.43800566      -0.69487796       0.24862543      -0.39936293
O        1.82681903       8.68716730      12.39466183      -0.94226333       1.34499254       0.38335542
O        8.27699763       2.21027252      19.23108258      -1.65017760      -0.28814592       0.91501441
O        7.95645330       1.38221844      15.26101176       0.60229287       0.71656238       0.09005423
O        2.78463692       4.76614446      16.77390039      -0.04877813       1.55279029       0.21909657
O        4.49262708       7.11401793      17.58026665       1.57126483       0.62789820      -0.27108347
O        7.03468190       5.23487691      11.23498769      -0.19459178       0.89051421      -2.08667079
O        5.23557108       3.12442665      10.27467528      -1.07309344       1.13072262       2.02118647
O        9.57301130       7.83962522      17.80105940      -1.72946835       0.64169838      -3.00965540
O        2.46340176       0.49439723       3.07011780      -0.24291001      -1.78559326      -1.32055845
O        0.15847543       2.01096107      10.04630453       0.12482856       0.15653282      -0.76826403
O        7.79191283       9.67997493      24.86969324      -0.98257856       1.07948436       2.05751330
O        9.12030663       8.62616620      22.34301707       0.09531018      -0.66363965       0.90490314
O        1.30466942       1.16484549      12.78261809      -2.92875838       2.23632455      -1.16767368
O        0.83286348       1.70796795       4.73749979      -1.73424550       2.91210888       1.28756819
O        8.24754217       9.08123236      15.90501557      -1.20663703       1.09391611      -0.96585590
O        3.22459213       4.23121375      11.70294056      -0.46824811       0.72665801       0.22438537
O        5.87496417       6.42201404       8.66786130      -0.49076822       2.06594366      -1.09307883
O        6.86270961       5.99176659      16.21659859       0.10755313      -0.07386279      -1.97622838
O        3.92331294       3.53188162      19.03954479      -1.27019376       0.35048906       0.68138576
O        8.36999437       2.98036117      12.18355750       0.13731942       1.89852475       0.02298750
O        6.31333229       1.22159136       9.10312815       1.36362079      -1.42304292       0.65180744
O        1.56392839       6.91671201      15.34575048      -4.34874688       2.17158950       0.92690513
O        3.03264435       9.07401023      18.86759619       1.43917516      -2.33500774       0.74105488
O        8.62142464       3.95457429      15.87872338      -0.27958140      -0.16337501      -1.02511384
O        5.69444680       1.90317396      19.00293766       2.41992081      -2.08975099       0.35548291
O        1.93731637       6.37492679      11.92283533      -1.44292689       0.63024697      -0.45456376
O        3.94636492       8.06290936       8.78143314      -1.27997421       0.38447152      -0.59141988
O        7.64284899       5.34853361      13.59868895       0.87189005      -0.89343920       0.94323765
O        4.64610205       2.49354983       7.69691244       0.32660692      -0.03814300      -1.50362825
O        2.35680487       4.76458019      14.21518890       0.33853817       0.02842989      -0.73003105
O        5.19015083       8.02915723      20.17977332      -0.35486980      -0.64485033       0.87883711
O        0.31771274       2.63278199       7.23247664       0.62028577       0.08604619       0.20034540
O        7.12172821       0.31107140       6.79311353      -0.34322607      -1.50892775       0.15860067
O        9.53898829       6.90548160      20.26814812       0.17873729       0.89512195       1.22335353
O        3.11515353       0.64534253      14.46505865      -0.70298305      -2.60272569       3.62776011
80
Lattice="9.77192453 0.01751879 6.90363604 0.24348012 9.76890588 6.90363604 0.01370155 0.0133883 13.86910312" Properties=species:S:1:pos:R:3:forces:R:3 energy=-575.29953612 source_file=vasprun.xml step_index=680 time_fs=83360.0 time_ps=83.36 file_index=41 pbc="T T T"
Na       9.01006889       3.83292164      20.94604787      -0.96312637       0.49766547       0.45625842
Na       8.40147429       1.11122259      10.29146867       0.42013231      -0.25852351       0.51275445
Na       6.52439544       4.08055763      17.66555863      -0.02015071       0.44707946      -0.14832832
Na       5.16666274       7.09912167      11.42740713       0.00963109       0.04080329      -0.20038751
Na       2.25795726       2.71013215      15.86361867       0.15212588      -0.09331095       0.08478060
Na       5.98445326       1.47652926      14.29303557      -0.03310613       0.37447861      -0.41749166
Na       1.10294877       5.78724640       7.01768197       0.66590188      -0.05976019      -0.36765331
Na       1.75968468       9.38702308      16.92909457      -0.13191051      -0.20215306      -0.19010672
Al       7.01079728       5.49617678       9.24622633       0.80864674      -0.07659913      -0.38464660
Al       4.74992897       2.90764202      11.52894200      -1.67325564       1.35831760       0.32059446
Al       2.87240190       4.68901165      18.52169306      -0.34365780      -2.01654523       1.15518476
Al       5.51926985       7.22742175      16.19215607      -1.93312977       2.60465694       0.84913012
Al       0.46423969       2.53092759      11.50624499      -0.57237251       0.60759365      -0.77805401
Al       8.16332480       9.44528358      23.25316139       0.87242470       0.37357384      -1.77629266
Al       9.76437122       7.77747904      16.15664871       0.62691863       1.78598001       0.31995483
Al       1.84769369       0.49641546       4.68553522       1.27783329      -0.09555798       1.28032802
Si       2.90492966       5.73351504      15.55995660       1.27074368      -0.81847455       2.04042735
Si       3.95049797       7.61317071      19.14593093       1.04651572      -4.67600113       0.28902302
Si       7.16871680       4.34995646      12.30798900       0.40441307       0.13536763       1.52216082
Si       5.75010214       2.79621586       8.54591657       2.07275518       0.30394412      -2.98247531
Si       0.93524324       7.39863841      12.43703425      -2.02457336       2.87320028      -3.68661079
Si       2.66980448       9.35571443       8.68218302       0.14058645      -1.68395573      -0.82939154
Si       9.17172046       2.63942805      15.58016870       3.74150908       7.95987234       0.10541318
Si       7.33107819       1.16840463      18.93428676      -0.68782473      -2.22222248      -1.71063142
Si       9.82583455       2.89183752      12.46026767       4.04041167       0.28133151       1.42381210
Si       7.13768957       9.68867040      15.04249069       0.44438423       0.76598525      -1.64289305
Si       9.84555895       6.98367047      22.23335757      -0.42471944      -1.23853672       1.71146284
Si       2.75065073       0.69943179      12.60267101       3.24761610      -1.50958830       2.75457504
Si       8.01200281       5.54745914      15.22511878      -0.61070081      -2.83445751       0.80382770
Si       4.64025644       2.44069224       5.57162889      -1.96470642       0.52834460       1.45323087
Si       2.21072153       4.71976529      12.65905924      -2.26810310       1.42129758       1.86816552
Si       5.46758709       8.18909446      22.03713325       1.36117457      -0.78724493      -1.84230542
O        8.69111243       5.95418285      22.82128696       1.04944184       0.21340446      -0.78227219
O        4.17726800       1.48750370      12.30942065      -1.62851436      -2.06046578       0.36434306
O        1.32437960       3.79438700       5.12332210       0.55575942       1.43641534      -0.47438990
O        5.85259249       8.73415493      15.28074543       1.07732764       0.25902396      -0.07436695
O        0.79021700       3.85808725      12.62329157       1.19052005      -0.15292314      -0.78583480
O        6.78287938       9.27056626      21.96151863      -0.58710282      -0.63001880       0.99710893
O        9.48135990       6.13589559      15.64274052      -1.29156927      -0.07597479      -1.64391766
O        3.43975816       1.50608953       4.95598411      -1.16097528      -1.01196029       0.35003166
O        2.86238784       6.23463818      19.15279994       1.00064023       4.22113251       1.00284381
O        4.26587212       6.61610362      15.14531993      -2.82791989      -1.60754335       0.58882773
O        6.78264016       4.10394666       8.07255732      -0.80509211      -1.21537905       2.22761089
O        6.02042602       3.21766183      12.73127966       1.04654619       1.30482680      -1.03214325
O        1.57594832       8.16852473       8.39573898       0.35163013      -0.58316335      -0.25611066
O        1.75213540       8.79649796      12.63800013       0.76816752       0.03989158      -0.36454594
O        8.53224152       2.20901468      18.73009331       0.15006617       0.45733941       0.57766661
O        8.72139101       1.25333340      15.75963310      -3.90147263      -6.78361213       1.06445057
O        3.12484143       4.55649728      16.84246684       0.36835490       1.37213040      -3.14889406
O        5.01982850       7.51879383      17.93273656      -0.17256998      -0.14724860      -1.40649545
O        6.86787652       5.34672792      11.07022068      -0.99176950      -0.25753370      -0.49994051
O        4.83613310       2.96040567       9.77616385      -1.05642930       1.09854611       3.49682272
O        9.73761033       7.73270946      17.87956517       1.10688000      -0.35774603       2.53182122
O        1.60136509       0.39812099       2.89463639       1.21604277       1.36600189       1.51807806
O        0.63734482       2.91134896       9.83423280      -1.35069949      -0.09359325      -1.51087658
O        7.74307387       9.47692026      24.96957842      -0.05111504       1.58770616      -1.30216543
O        9.68024432       8.47481052      22.81935890      -1.44772928       0.82945763       0.45686795
O        1.49881200       1.17130114      11.83803136      -1.82323730       0.97592577      -0.73711503
O        0.47584793       1.38336057       5.16817550      -2.04505944       0.09037617      -0.99281189
O        8.58613138       9.12547773      15.62289674      -0.54623581      -0.29537020      -0.04202449
O        3.50289709       4.13818788      12.05964341       1.99963582      -1.12121376      -1.32477042
O        6.04181043       6.87245424      22.73736205      -0.36842805      -0.46409790       1.04313765
O        6.78932707       6.17739619      16.08982100       2.44863170      -1.52752279      -0.30333236
O        4.36243532       4.06761596      19.30122818       0.28276162      -1.19475205      -1.14180923
O        8.45767211       3.44414006      11.89953072      -1.03518253      -0.47007717      -1.65106010
O        6.58602600       1.40334622       8.86672185       1.62185850      -0.59244761       0.54538710
O        1.54254934       6.49687479      16.05316253      -0.58918040       1.39848842      -0.80960483
O        2.97410448       8.84841499      19.08398400      -0.87722559       2.52792561      -0.21019547
O        7.98657367       3.91922282      15.72206269       0.71059925      -1.26754065       0.81656197
O        5.91899752       1.99753410      18.43679801       1.43735518      -0.20506554       1.19778222
O        1.95322969       6.24385989      11.97137033       1.21702294      -2.24966934       0.93546480
O        4.31390563       8.78357277       9.18151255      -3.06859093       1.17688513      -0.77717229
O        7.67745064       5.21789852      13.63949483      -0.24076005       1.17303383      -0.78552422
O        4.84322494       2.42404097       7.29081275      -0.61167096      -1.10219735      -3.18245382
O        2.28024516       4.78589757      14.40575886       0.45392376      -0.69463541      -2.67081294
O        4.88032449       7.62730321      20.52668623      -0.01094042       1.49246254       1.50931444
O        9.80960293       2.95467250      14.07752205      -0.57592725       0.14860225       1.54706714
O        7.18849827       0.48665445       6.48916131      -0.72032510      -0.91695194       3.79932198
O        9.74957933       6.88965809      20.58146432       0.75909542       0.23065324       0.16654590
O        2.68244788       0.67399997      14.36198696      -0.00520663      -0.08779585      -0.81035468
80
Lattice="9.77192453 0.01751879 6.90363604 0.24348012 9.76890588 6.90363604 0.01370155 0.0133883 13.86910312" Properties=species:S:1:pos:R:3:forces:R:3 energy=-574.79976318 source_file=vasprun.xml step_index=600 time_fs=43200.0 time_ps=43.2 file_index=21 pbc="T T T"
Na       7.57295505       6.88421130      19.24938729       0.10857919       0.06240715      -0.30381336
Na       4.67731585       3.33305388      15.11969590      -0.18666854       0.19904936       0.17258439
Na       3.93616373       6.40440702      10.21047247      -0.04045219       0.34301048      -0.35749021
Na       4.38132400       8.18279097      13.29347664      -0.07525953       0.57269342       0.01568065
Na       9.05891199       3.34574131      21.60632067      -0.10668632      -0.21258099      -0.59428468
Na       8.43648663       1.18182912      11.02164000       0.14564522      -0.09876443      -0.06404411
Na       0.65609170       8.61733517      18.41833377      -0.34356778      -0.44381477      -0.29790586
Na       2.45274816       2.01541906       8.88374265       0.35743421      -0.02083433      -0.40002757
Al       7.14047990       5.44998085       9.00105386      -0.43642988       2.10459987      -0.63881159
Al       4.60724554       2.78731903      11.23251182       1.71143738       1.37788905       1.59384954
Al       3.18138153       4.67202062      18.39236741      -2.10462206      -3.01701022      -2.12676843
Al       5.58984133       7.20026248      16.14675895      -2.04604081       2.86032517       1.63387872
Al       0.47058578       2.09143910      11.61471828      -0.64920860       1.93327639      -1.40505348
Al       7.95749556       0.13015079      16.12946558       0.66606670      -2.36375458      -0.19016491
Al       9.60528400       7.92881543      15.89453793       2.10764972       0.55096309       1.84761532
Al       2.31295239       0.51957789       4.36047008       0.04444612      -0.59407159       0.21084815
Si       2.81911347       5.89527481      15.49636875      -0.09614551      -1.27071161      -1.84319494
Si       4.44933287       7.27477220      19.09529442       5.25413465      -3.23989312       1.62180825
Si       7.44642428       4.33676576      12.08724410      -0.84969145      -0.47754929      -4.06006422
Si       5.68135145       2.62880955       8.24897035       2.44651779       0.59841975      -0.87556420
Si       1.04991287       7.47023922      12.04994195      -0.87474000      -0.04907007      -3.12193403
Si       2.70725946       9.25571509       8.37803173       0.88796215      -0.94324703       0.65403154
Si       9.31131404       2.77358645      15.36175815       3.49021442      -1.36289743       0.24654326
Si       7.69563298       0.59534387      19.25266911      -2.15940580       0.36471364      -2.18558317
Si       0.68035758       3.01610054       5.61746930      -3.40154727      -2.69885604      -0.08181167
Si       7.32531195       9.67577056      15.11000870       3.16504545       2.23468739       0.93812289
Si       9.70623783       7.12260182      21.85663379       2.10691023       2.36238210       0.95667259
Si       3.00469787       0.35573127      12.35080991       1.99022254      -1.27523953      -1.64407862
Si       7.82783515       5.50162400      14.74937460      -1.56655874       1.28260759       2.52788039
Si       4.81790900       2.10788477       5.45566908       1.11702834      -5.06509541      -0.51348141
Si       2.22508474       4.54991449      12.63795684      -2.10854034      -0.36130892       1.37085366
Si       5.74333892       8.28670253      21.99796110      -2.81359792      -0.16052266       1.57870091
O        8.62018189       5.99158840      21.84052477      -1.86094615      -2.27862995       0.26572435
O        4.23848056       1.27601525      11.87726326      -0.81796336      -1.27439942       0.72128951
O        1.41080097       4.30984660       5.28104707       4.41546743       2.68578489      -2.01459915
O        6.08100035       8.90475654      15.61831086      -2.25517298      -2.08748832       0.60542945
O        0.94846379       3.47099411      12.46785090       1.25328274       2.54092395       1.85314808
O        6.63061145       9.64912807      22.41039494      -2.59689138      -2.24802304      -1.70441335
O        8.67957353       6.79104761      15.07906214       1.25290822      -0.01908896      -1.00266719
O        3.93705729       0.69200596       5.08270952      -0.65053314       1.12300047       0.08275622
O        3.81744733       5.78118017      19.38601379       0.85653488       4.44067834       1.80723972
O        3.98241820       6.96602298      15.30085571       1.06172206       1.50187788      -0.22570622
O        6.47447232       4.08353136       8.10660421      -0.57063626      -0.52749274      -0.19173276
O        6.15938711       3.30855635      12.06797405      -0.20845324       0.16402211      -0.05438079
O        1.47447926       8.27019449       8.19211010      -2.54962326      -1.00564624       0.25238899
O        2.14067351       8.57672298      11.62026903       0.63370982       0.19828439       1.13241698
O        8.95327678       1.52568554      19.57188043       1.06905837       0.53300065      -0.78187065
O        8.43099231       1.48159104      15.06937562      -0.72074827      -0.65542516       1.75724553
O        3.26913896       4.78922843      16.53308225      -0.29279029      -0.46781612       3.76549532
O        5.62991716       7.02431891      17.94160590      -0.79693790       0.48902352      -0.29983123
O        7.44080821       5.20356223      10.65128545       0.19585715      -1.07576487       1.00914700
O        4.80293196       2.51810461       9.53717736      -1.67746757       0.54464792       1.58299754
O        9.65357167       7.39491071      17.77342216       0.43182009       0.45445412      -0.70834840
O        2.20685584       0.53980724       2.64514357       0.16469898       1.27395000      -0.80987304
O        0.58219874       2.80099959       9.78000332      -1.47848609      -1.91366437       1.33847341
O        8.00734346       9.40408375      24.80155431       1.68881177       1.54976992       0.19309251
O        9.34301719       8.47181809      22.64622875      -0.71917239       1.07037491       0.73723016
O        1.63125380       0.86374097      11.65724640       0.92845043      -2.01367624      -0.33294905
O        0.95956911       1.57689627       4.82982035       0.05999535       1.15193851       0.50945484
O        8.70998503       9.44111307      16.02461820      -1.15334868       0.28262377      -0.33803535
O        3.40558166       3.95515346      11.80092463       1.98793587      -0.30416580      -1.81586034
O        6.08778820       6.95417876      22.89510980       0.92752205      -0.84758158      -0.57167129
O        6.46552989       5.94072724      15.67772916       3.04830212      -4.66557414      -2.76990041
O        4.36228682       3.36224785      18.50144000      -0.37169603       0.45481273      -0.03433600
O        8.81126508       3.46060589      12.08093711       1.12370160      -1.42804789       0.72501746
O        6.99223808       1.61905420       8.25021581      -0.12728187      -0.94573887       0.71711293
O        1.40408137       6.62405031      15.59610058      -1.32224339       0.15664487       0.41683598
O        3.64511635       8.49947226      18.69949026      -4.31560420       4.52760610      -1.08807986
O        8.59661242       4.15823767      15.43139796      -2.72353327       3.11729491      -1.43614611
O        6.41279321       1.57699083      18.94174670      -1.46762214       1.54727535       0.56638455
O        1.85332605       6.05319820      12.12177740       0.87337191      -0.61081689      -0.42169838
O        4.00361665       8.32725837       8.77981648       2.56248191       0.00706681      -0.46673294
O        7.38345185       5.53551809      13.14907654       0.35992947      -0.33962446       2.27343266
O        4.67251363       1.98729373       7.12138978      -0.09065659       1.72075379      -0.71411273
O        2.72017207       4.77164964      14.23156388      -0.29336329      -0.18427037      -1.55699559
O        5.49758470       7.85572939      20.38873065       0.18637202      -0.18043511       0.28054775
O        0.66418202       2.64763026       7.21212248       0.27761354       0.49816169       0.46296230
O        7.67931642       9.43090228      13.56054349      -0.36578668      -1.66965575      -0.07394367
O        0.28633557       7.60613681      13.43579072      -0.87883064       0.20578028       0.61865157
O        2.99777561       0.08775089      13.90118237      -0.78255030       1.26183678       1.08790837
80
Lattice="9.77192453 0.01751879 6.90363604 0.24348012 9.76890588 6.90363604 0.01370155 0.0133883 13.86910312" Properties=species:S:1:pos:R:3:forces:R:3 energy=-577.62161739 source_file=vasprun.xml step_index=715 time_fs=29430.0 time_ps=29.43 file_index=14 pbc="T T T"
Na       5.98608825       1.59933840      14.58063765       0.07990646       0.46203091      -0.32373096
Na       7.19964634       3.89190003      19.51651847       0.17732644       0.07067464       0.08783544
Na       1.42182327       5.47593759       7.19445221       0.26434646       0.66753524       0.57657221
Na       1.33649477       8.99058476      17.18198504       0.17277665      -0.05932796      -0.17325589
Na       7.87059038       8.47808436      18.80925840      -0.55755832      -0.12111618      -0.11111150
Na       1.16360866       2.39512502      14.75139238       0.13880077       0.16350979      -0.23178762
Na       8.34203200       7.53344966      11.56916469      -0.61349283      -0.30108591       0.24597046
Na       3.85264030       8.66853461      13.53724209       0.06616971      -0.06648027      -0.02673988
Al       6.73450392       5.24446945       8.79977765      -0.70082460      -0.06232879       0.84231134
Al       4.75879180       2.67859774      11.44365596      -1.46699324      -1.76921798      -1.50240325
Al       3.09231240       4.67997496      18.52206612       1.81505078      -0.50817183      -1.17231501
Al       5.39366330       7.04596582      15.83703852       0.38958738      -0.83659587       0.89933524
Al       0.83092515       2.35089514      11.31031789      -2.44330055       0.92671445       1.92009457
Al       8.33694090       9.35893303      22.65828407      -2.11681100       2.78301633       0.47880130
Al       9.58422712       7.65944724      15.99518003       1.08419974      -0.13158563      -1.90094421
Al       2.06124287       0.60273833       4.34134131      -0.08107436      -0.93996765      -0.25265277
Si       2.68823301       5.51733467      15.44186544       0.30347587       1.48818731      -4.35126274
Si       4.33095307       7.42035178      19.00303349       1.63171879       0.34449479      -1.36084430
Si       7.29874621       4.10984090      11.83545843       2.97044276       3.71079785       1.33541212
Si       5.53307904       2.24642932       8.33392124      -3.43112081      -0.48334559       0.87267959
Si       0.88742370       7.43214376      11.99051261       2.39524874       0.88605339       2.16731991
Si       2.49743136       9.08617376       8.21892852      -1.20747768       1.63032436       1.08405469
Si       9.37229611       2.57271200      15.27751527      -0.03206467       1.69839920       0.75344657
Si       7.71935508       0.90164957      18.89699590       0.95078888      -1.04281732      -0.59833322
Si       0.53002203       3.10434920       5.51396352       0.61931059      -2.04563519       1.57081766
Si       7.31359695       9.40895419      14.80113524      -0.26061093      -0.14958863      -0.68812627
Si       9.47605389       6.70760509      21.76612864       0.46229847      -1.56129832      -1.86129235
Si       2.91689484       0.37581441      12.43858649      -0.80521589       3.53116308       1.52928163
Si       7.80713130       5.34349662      14.73100214      -2.18206681      -3.02540556       0.26682483
Si       4.70967141       2.06536392       5.32045080       1.11902996      -0.19725327      -0.22757239
Si       2.31986224       4.61017939      12.52365492       2.50406683      -1.22403502       2.37009333
Si       5.50511971       8.03736175      21.71157340      -0.98503677      -1.86975842       0.58367842
O        8.19578813       5.70446227      21.84037112       1.54939846       0.43390422      -1.15465089
O        4.23718756       1.22227055      12.35120600       1.63952466       0.88765259       0.03130492
O        1.54037142       4.33174932       5.35761185       0.76289916       0.51057204       0.03946580
O        5.99377627       8.36545530      14.75914964       0.87423533       1.06232476       0.38106213
O        1.06486964       3.64416843      12.55603490      -1.24202326      -1.21656177      -1.30384330
O        6.66618628       9.15295943      21.80641102       1.85510305       0.81367086       1.08892813
O        9.11465298       6.25212482      14.96255110       0.07666258       0.26629221       0.04053719
O        3.76010113       0.93138213       4.74532863      -1.23481086      -1.51707606      -0.27081007
O        3.55352806       6.10642019      19.46113573      -0.65142433      -0.68429220      -0.36987869
O        3.76231992       6.78790251      15.22585842      -1.14564536       0.19056980      -0.67211518
O        6.13767668       3.70867075       8.18449461       0.51683601       1.56152005      -0.26332911
O        6.40065228       2.86052963      12.09566195      -1.75006220      -1.07038433       0.11300147
O        1.28957169       8.02388973       8.04527205      -0.63009433      -0.91093924      -0.12762733
O        1.65990659       8.92818997      12.09060732      -0.26627890      -2.18402961       0.40119136
O        8.99762313       1.88188065      19.01408491      -0.67942951       0.11445823      -0.00860191
O        8.64807025       1.20592617      15.12268034      -2.33921197      -4.77055358       0.07182184
O        3.08227994       4.92444379      16.77436292      -0.11010143      -1.67498418       4.04203100
O        5.24276360       7.45230869      17.63603808      -0.38684966      -0.39080592      -1.01210171
O        7.13028886       4.96477112      10.48913594      -0.27842982      -0.05868165       0.15945343
O        4.51948603       1.93439731       9.70270061       2.55172133       1.58332091      -0.92872738
O        9.77934113       7.07742475      17.62878215      -0.60370807       0.67161874      -0.73029264
O        2.10735619       9.75420549       9.65187466       0.39425148       0.91017652      -1.37049923
O        0.48795979       2.63578790       9.69338247       0.59096467       0.55733308       0.20198945
O        8.10805679       9.68119135      24.43557331      -0.04288941      -0.03621995       0.43266775
O        9.29858763       7.94272962      22.74810047       0.18779086       1.36860240       1.38893171
O        1.65570552       0.91213164      11.62182820       0.30163537      -0.38227000      -1.30619546
O        0.91495917       1.86423249       4.57893694       0.12603531       0.21483207      -0.05614373
O        8.37506801       8.91701093      15.97044882      -0.53930366       0.07057502      -0.70406504
O        3.52409301       3.91117613      11.66116247      -0.06656035       0.85645018      -0.12549386
O        5.70969083       6.66549948       8.71140515       0.32436254       0.28765834      -0.29449578
O        6.46095493       5.58043776      15.62131048      -0.05743123       1.90349211       0.09735357
O        4.45859158       3.47404120      18.47966921      -0.91735634       1.53212361       0.64913852
O        8.90236611       3.73526400      11.99633285      -1.29884846      -0.39093135      -0.14480431
O        6.78613977       1.24627833       8.15494577       0.42501758      -1.35805342       0.59760108
O        1.08335252       5.96074727      15.35431063       0.06390353       0.28092670      -0.02556591
O        3.21038469       8.65841170      18.94823506       0.65888635      -4.37604418      -1.03666870
O        8.11200623       3.67172256      15.35176563       0.76115689       1.84126385      -1.83022525
O        6.36808992       1.82703770      18.87993582      -0.24386694      -0.34924969      -0.16168735
O        1.89602472       6.14426527      12.31574899       0.44063736       1.29138303      -0.73711551
O        3.98168189       8.50760203      22.17311550       2.11303739      -0.61353990      -0.48998472
O        7.28926050       5.34830515      13.09116222       0.50917330      -0.86378603       0.36090786
O        4.60357975       2.00295720       6.91979425       0.05636276       0.00206571       2.21907749
O        2.84306406       4.39400897      14.19175162      -0.34811774       1.15259887      -0.32897185
O        5.52663156       7.69571142      20.09038120      -0.01238126       0.55859967       0.50027454
O        0.71358788       2.56091673       7.19726483      -0.15959546       2.08186586      -3.37076016
O        7.92178633       9.52397319      13.19913623      -0.27003836      -0.43971980       0.33914228
O        9.67459919       7.45689614      20.23341768      -1.02707915      -0.66866479       0.90748081
O        2.40370086       0.54403435      13.99214480      -0.78548541      -1.02296555       1.96304749
80
Lattice="9.77192453 0.01751879 6.90363604 0.24348012 9.76890588 6.90363604 0.01370155 0.0133883 13.86910312" Properties=species:S:1:pos:R:3:forces:R:3 energy=-575.87741533 source_file=vasprun.xml step_index=185 time_fs=20370.0 time_ps=20.37 file_index=10 pbc="T T T"
Na       9.19278042       5.19223699      18.09552670      -0.27251398       0.33706072      -0.33208796
Na       9.17842355       2.71550839      22.17289711      -0.21636789      -0.02349154      -0.25715206
Na       1.83764402       6.52058220       6.71010787      -0.50583073       0.20173890      -0.12237841
Na       6.40328598       7.85509525      10.85459548       0.40712239       0.42717008       0.76689712
Na       3.71974804       2.60570478      15.16591100       0.18706626       0.17746376       0.36715604
Na       7.06831847       0.64674393      12.02399661      -0.28315922      -0.00261064       0.21940310
Na       3.10648786       3.63018159       8.60887700      -0.90240037      -0.38967508      -0.21839330
Na       3.99247757       8.85849966      14.23504133      -0.83178719       0.14705999      -0.58074359
Al       7.38232598       5.69650764      22.77621823      -1.62532613       0.25653903       1.59717311
Al       4.83521426       2.98937025      11.46582205       0.62156970       1.09888479      -0.61846682
Al       3.27254171       4.76979851      18.53062216       1.04481664      -0.85125725       0.28083487
Al       5.66570413       7.22502822      15.96199625      -1.87758072       0.59491179       1.28289916
Al       0.79600836       2.47062373      11.46858752      -0.90098669       1.16851987      -2.20091587
Al       7.81195372       0.11009908      15.80823161      -1.49978295       1.33904241       0.08626054
Al       9.79317941       8.21316715      15.82810103      -2.88406414      -2.17176786       1.55323012
Al       2.39965977       0.87032510       4.33280533       2.16684135      -1.40645850       3.60002614
Si       2.71756826       5.70340472      15.57853703      -1.11062737       3.20886025       1.83668215
Si       4.84224336       7.69780008      18.96567850      -0.54789956      -0.32243667      -0.58852382
Si       7.64134670       4.67916202      11.78543606       0.37861205      -0.19505275       0.84028465
Si       5.85192507       2.75068258       8.49566118      -3.99109485      -1.82321600      -0.39994466
Si       1.40876623       7.71274270      11.97674899       0.28399938       1.11921801       0.81242391
Si       2.76055272       9.54339607      22.29049960       1.35470390      -0.79006826      -3.01180734
Si       9.29577124       2.69159637      15.13446944      -0.05937006       0.78457457       1.32381517
Si       7.80461084       1.06917762      18.96829418       0.90419635      -1.64131166       0.77740491
Si       0.72328232       3.16293838       5.50988858      -0.07199601       1.39825329       2.89321014
Si       7.25199820       9.62801287      14.70518303       2.43128238      -1.50078659       0.21461734
Si       9.60184905       7.31215453      21.56216158       3.18924231      -2.86863968       1.77685143
Si       3.28159130       0.75204244      12.35176452       1.34504929      -1.81535297       3.38397594
Si       7.93844931       5.63377564      14.73041622       0.74452716      -0.29309641       1.26907194
Si       4.91916948       2.22982205       5.67203682      -2.51499785       1.19272947      -0.05129743
Si       2.48952251       4.88616315      12.67394152       0.03094197       1.23467243       1.72682009
Si       5.50006685       8.09914337      21.95036145       2.77503446       2.29525413      -1.46435125
O        8.59208320       5.98648849      21.59869798       0.65233404       0.58140430       0.28056828
O        4.76509463       1.48578223      12.43184314      -0.84194064       1.30049174      -0.45141520
O        1.83390459       4.32732477       5.63444297       1.05963288       1.56315638       0.21613417
O        6.13390719       8.48295923      14.76006536      -1.23841557       0.02882312       0.12564682
O        1.20651244       4.19008314      12.05893091      -1.97708802      -2.28459187      -0.40001686
O        6.35404906       9.48820343      22.36243402      -0.35385338      -1.39832122      -0.47709993
O        9.29639218       6.61487784      14.95860940      -0.94634514       1.14143458       0.68458392
O        3.96656903       0.96355255       5.44310408      -1.33058883      -1.08555069      -0.31875137
O        3.86506645       6.41360688      18.89058595      -0.49705932      -0.93631367       1.35320874
O        3.94988366       6.73596628      15.54391708       2.10853591       1.15414205      -0.19002324
O        6.75740647       4.01501601       8.61098365       1.78613851       1.33326121       0.25827789
O        6.56699532       3.45468336      11.52373273      -0.17140733       0.74938034       0.37823326
O        1.41320247       8.62586584       8.13812332       2.39741182       1.68935583      -1.27934967
O        2.15226624       9.15303760      12.02150488       0.08718951      -0.68623281       1.09659472
O        9.14470674       2.00472932      19.21469321      -1.25921635      -0.17869889       0.49380200
O        8.17983278       1.53220691      14.78427328       0.65712208       0.13901073       0.66983670
O        2.76942115       4.80626047      16.92573293      -0.88959985      -0.11415545      -2.19325501
O        5.72752939       7.88775924      17.67860461       1.94648052      -0.98448029      -2.93019313
O        7.75363618       5.91488827      10.73273062      -0.45830804      -1.09154364      -2.26501143
O        4.69055095       2.43455407       9.71075456       1.41806726       1.22155183       0.14154114
O        0.83518443       7.75970540      10.50277222      -2.20697856      -1.19213625      -1.62059047
O        2.76507917       0.77770509       2.70070174      -0.23701319       0.45760720      -0.73988378
O        0.30765690       2.63929475       9.67440578       0.21219577      -0.20121666       1.99604571
O        7.78076203       0.23178929      17.57573420       0.04955674       0.66087673       0.43955708
O        9.03888273       8.58842254      22.27545306       0.64757973      -0.62390085      -0.05521552
O        2.09551870       1.38701968      11.57627031      -0.13250596       0.65504304      -1.10880396
O        1.20280436       2.03356124       4.51804013      -1.41570090       0.32977954      -0.44888173
O        8.30800371       9.29049277      15.93098809       1.80107827      -0.62709032      -0.07752938
O        3.75104811       4.42590910      11.89626297       3.49310945      -3.02077990      -1.50766283
O        5.94769512       6.84841214       8.97576927       1.08362976      -1.79431843      -0.39284185
O        6.53574022       5.82599819      15.62035376       2.87304502      -0.72710110      -0.70231404
O        4.38173402       3.35162249      18.53740707      -0.30960890       1.92734363      -0.61824478
O        9.06957852       3.90868236      11.99069796       1.44515061      -1.69953509      -0.27694912
O        6.65769937       1.38380542       8.11120381      -0.37309557       1.92746298       0.97496879
O        1.46343749       6.82677264      15.42543262      -2.55286893      -0.27000961      -0.82970850
O        3.92264355       9.01862044      18.78878648      -2.06029762       1.12012055       1.01531497
O        8.57268309       4.18748643      15.15254705      -0.04224988      -1.05021712       0.20390251
O        6.43412159       1.85589836      19.31381093       2.17605334       0.29665823      -0.77556420
O        2.39856451       6.46439995      12.36205349       0.22063268       1.20550783      -0.31520308
O        4.01371089       8.40768767      22.40547833      -2.92419232       0.53192278      -0.57274443
O        7.58025065       5.52730097      13.17139277      -1.28505944       0.50208674      -0.27859056
O        4.73686031       2.92293339       7.19249561       1.25525216      -0.20919591       0.89974260
O        2.70024092       4.66130007      14.35976173      -0.37828316      -1.60586519      -2.74392488
O        5.80106808       7.81862600      20.28228992      -0.61503061       0.04429359       1.90045066
O        0.84364414       2.65388631       7.25671365      -0.85640914       0.34125315      -3.35824897
O        8.02352231       9.64182005      13.24521854      -0.15091887       0.43826192      -0.51381179
O        0.22695831       7.43147079      13.12204059      -0.13586541       0.98081646      -1.97573534
O        2.70662983       0.85558267      14.04459715       0.55164459      -1.40793888      -0.43757678
80
Lattice="9.77192453 0.01751879 6.90363604 0.24348012 9.76890588 6.90363604 0.01370155 0.0133883 13.86910312" Properties=species:S:1:pos:R:3:forces:R:3 energy=-575.64266847 source_file=vasprun.xml step_index=135 time_fs=80270.0 time_ps=80.27 file_index=40 pbc="T T T"
Na       8.85615168       3.34337220      21.50355487       0.09805255      -0.13744941      -0.34144510
Na       8.26190694       0.65295593      11.08011051       0.16564687      -0.04408726      -0.46740091
Na       6.70749918       4.66670915      18.51858777      -0.26599907       0.06587484      -0.41650417
Na       1.84044603       0.09688651       9.48382598      -0.53917231       0.15336236       0.51734692
Na       3.27317013       2.00587579      16.55228179       0.11199065       0.51514753      -0.33723676
Na       5.76396165       1.10400003      13.77968611       0.23067184       0.16713451       0.02838005
Na       4.62916408       7.16369906      12.73540834      -0.37346052      -0.24679537       0.25680288
Na       0.98800890       6.35364464       7.04149210       0.74393165      -0.36414795      -0.93495087
Al       7.07101311       5.19944756       9.22103425       0.72601273      -0.85037570      -0.86992438
Al       4.17183798       2.97935221      11.50192670       3.17238363      -2.56780791       1.62006218
Al       2.78539584       4.74396256      18.51958184       0.34500702       1.04428116       1.65454178
Al       5.19793035       6.95116084      16.03082478      -0.39475605      -2.34529651       0.23224081
Al       0.16920642       2.16476473      11.60374787      -0.61232419      -2.95404563      -0.36260598
Al       7.58716354       9.44275163      22.91852539       1.10487335       1.39280453       1.14353031
Al       9.45534367       7.71896409      16.08688098       0.76197020       3.43328898       0.07659920
Al       1.98372714       0.52649101       4.82157489       1.07071602      -0.76010312      -1.36807185
Si       2.34944388       5.61032115      15.53489064       3.22710648       0.32371818      -4.41874148
Si       4.03553787       7.33167807      19.05758113       0.71589320      -2.33077206       1.56619017
Si       7.06528452       4.23532690      12.26400656       2.17586856      -0.04890869      -1.60357319
Si       5.53625194       2.37563472       8.77476022       1.06455995       2.12670500       2.00294572
Si       0.83694434       7.53668256      12.18184642      -1.27418161       0.41506015       1.18399726
Si       2.62298668       8.93362311       8.55223437      -0.60909005       0.48279617      -0.45581968
Si       8.89192015       2.43927853      15.33064483      -0.35865868      -2.40041694       3.58422056
Si       7.12694316       0.90757312      19.16208544       4.30037219       0.14548168      -3.14516843
Si       0.36055539       2.98545757       5.67398472      -4.08815740      -1.54230719      -0.21412911
Si       6.84056043       9.36857575      14.98687370       4.41048139       3.34245965       2.21364446
Si       9.41772132       7.09341055      22.02913573       0.39940030      -3.58030334      -1.76986145
Si       2.68102368       0.38006501      12.68886538      -1.09858735      -0.63224832      -1.45613898
Si       7.72935576       5.34047386      15.10893429       0.49316329      -1.06505716       1.24252145
Si       4.66603925       2.58057421       5.77915533       0.39371449      -2.16674833      -0.68666837
Si       1.86881607       4.62037895      12.65044130       3.22684225       0.51482363       0.05751538
Si       5.39319040       7.56530537      21.77409073       0.61985308       3.50471345       1.55215907
O        8.55628514       5.58956201      22.12203087       1.05872213       1.50254691       0.09895443
O        4.00038766       1.31731580      12.39244192      -1.42791034       1.34729539      -0.46742160
O        1.32842482       4.18637979       5.49077982       1.10451779       0.60525703      -0.06960007
O        5.83230095       8.23636347      15.12438032      -2.12074430      -1.65205087      -0.16434641
O        0.74245050       3.72161706      12.06394922      -1.35954359      -1.16102765      -0.11295541
O        6.05921604       9.06223520      22.21402815       0.13966780      -0.06686911      -0.75477049
O        9.04702669       6.29376364      15.22312565      -0.55169551      -0.23630448       0.65172453
O        3.44587606       1.54827161       5.40752959      -1.15026186      -1.22694242      -1.06767366
O        2.76602488       6.25466106      19.47891027       2.50622493       1.51366214      -0.65913697
O        3.83811265       6.40309020      15.04231265      -1.87679374      -0.65490426       0.09244434
O        6.73746098       3.55152353       8.56079742      -0.32431722      -0.56768263       1.03801719
O        5.88077569       3.18204925      12.29220889      -1.14078790      -0.74309240       0.53265238
O        1.32522414       8.04788928       8.45653311      -2.52992595      -1.45219031       0.21251456
O        1.97563178       8.63321114      12.37422141       1.55249198       2.75337485       0.37853003
O        8.51372411       1.75179960      19.51952907       0.62874423       0.63706160       0.19015800
O        7.76634424       1.21914766      15.07767952       0.61254289       0.20144635       0.17710622
O        2.66214459       4.78781947      16.80132098       0.37906578      -2.43194944       2.37317484
O        4.62804191       6.90033156      17.64165693       0.64657725      -0.22294520       0.33250259
O        6.94788027       5.10040067      10.90436893      -0.06653222       0.44788511       1.56724732
O        4.33474343       2.74720752       9.83949710       0.89383608      -0.63459667      -1.37446551
O        9.66189829       8.02829017      17.86985765      -0.64877035      -0.82416155      -1.81153174
O        2.30575127       0.03195999       2.97666810       0.68811869       1.47607617       2.82120003
O        0.08371517       2.10253239       9.83024206      -0.96530149       0.10673218      -1.26819783
O        7.45209087       0.18732748      17.70647558      -1.42511503      -0.13473272       1.49351959
O        8.89496492       8.23842416      22.96749114      -0.41227894       0.89152694      -0.50176589
O        1.17279951       0.56801305      11.99520674       1.47926211       2.29009047      -0.33344535
O        0.67681118       1.73145187       4.60295440       0.29434623      -0.33902628       1.16015845
O        8.39447717       9.19624555      15.55561965      -0.13054244      -2.06576906       0.59340460
O        3.39664482       4.32408708      12.02205642      -2.83616105       1.77018417       1.17183500
O        6.20251620       6.61720732      22.73901105      -1.64026182      -0.41544577      -0.58301806
O        6.56319151       5.76032902      16.15388488      -0.36266384       0.56336066      -0.44755350
O        4.35310311       4.02979777      19.05979799      -0.39104221       0.94565575      -0.88890998
O        8.53050926       3.46987267      12.19342634       1.92452026      -1.91413658      -0.37001545
O        6.20146193       0.90584604       9.12094708      -0.58021860      -0.03562704      -0.90910728
O        1.17666286       6.62429877      15.72323535      -2.04725927       2.18468357      -0.23932357
O        3.38698146       8.72652884      18.78566036      -1.05307200       2.81500540       0.96012248
O        8.09581964       3.81754281      15.62100631       0.13593671       0.17198099       0.13774401
O        6.17541334       2.15812337      18.88869776      -4.02282373       2.02918715       0.57314823
O        1.62458637       6.15911365      12.30127013       0.40223473       0.02305057      -1.23156614
O        3.83671499       7.95548107       8.22440098       0.18439531      -1.68395419       0.47950148
O        7.53843093       5.15285206      13.53586458      -2.14980586       1.41943367      -0.40310811
O        4.86855143       2.52141658       7.36546967      -1.38434848      -0.61732555      -2.07088969
O        1.97651066       4.50322431      14.27627926      -0.05931662       0.40357716       1.59009726
O        5.48902035       7.49445728      20.16804293      -2.15699171      -1.35609882      -2.58810225
O        0.19336146       2.39498189       7.24840706       1.60706603       0.63415084      -2.38098488
O        6.93763211       9.78204899      13.44975590      -1.04362798      -0.48195448      -0.63266150
O        9.56902083       7.44457253      20.34511201      -0.83420360       0.19236854       2.73276621
O        2.44878524       0.30314142      14.30757303       0.48951176       0.41344781      -0.15188410
80
Lattice="9.77192453 0.01751879 6.90363604 0.24348012 9.76890588 6.90363604 0.01370155 0.0133883 13.86910312" Properties=species:S:1:pos:R:3:forces:R:3 energy=-576.52877687 source_file=vasprun.xml step_index=190 time_fs=20380.0 time_ps=20.38 file_index=10 pbc="T T T"
Na       9.23395162       5.12284544      18.10345354      -0.96967484       0.92080146      -0.61457132
Na       9.10484062       2.64703025       8.29257332      -0.27112369       0.21632802      -0.12853505
Na       1.85677193       6.39190506       6.78989556      -0.48767545       0.49273004      -0.07559958
Na       6.36285993       7.86973740      10.86258816       0.22346877       0.01720654       0.33061898
Na       3.80370218       2.58450312      15.17947320       0.11377793       0.15483501       0.39608497
Na       7.17979187       0.65919307      11.98881870      -0.17990236       0.00563355       0.27182576
Na       3.08705341       3.56472120       8.58544233      -1.08801069      -0.10708052       0.17293598
Na       3.89897712       8.84208833      14.22561474      -0.65615972       0.04419318      -0.43851636
Al       7.33551208       5.75079533      22.78701378       0.10342595      -1.58799032      -1.58428443
Al       4.93551485       2.98569667      11.46718758       0.14967552       1.88263120      -0.18098493
Al       3.28075799       4.80972804      18.51528554       0.80682376      -2.09305733      -1.03755468
Al       5.67505587       7.21004274      16.02343732      -1.82044005       0.36335561      -1.03528857
Al       0.68480754       2.54620250      11.42413319       2.16076174      -1.73227948       0.16516606
Al       7.72298754       0.11669664      15.94422324       0.07346920      -0.37591738      -5.75703655
Al       9.74738380       8.20884483      15.80738443       1.92270637      -1.36113791       0.21192181
Al       2.49818195       0.85867488       4.44117314       0.84589237       0.57896717      -1.04841378
Si       2.65511662       5.71002397      15.55450007       0.42498373       3.28060643      -0.65285216
Si       4.85341165       7.72757105      18.97088430      -2.16924692       0.11131438      -2.72392923
Si       7.74502045       4.69079325      11.76183075       0.57861189       0.05497130      -0.12811571
Si       5.80227278       2.69399837       8.49133319      -1.20225559       2.29636228       0.42307795
Si       1.42450452       7.77731853      11.96341387      -1.04020598      -0.41548137      -0.61787182
Si       2.86876149       9.54246163      22.14903290      -2.06578874      -1.18391797       1.38839397
Si       9.28625397       2.68315419      15.22731986       0.78433392       1.39687269       0.47231662
Si       7.81578077       1.01909392      19.08797469      -0.24843016      -0.78274095      -2.52508975
Si       0.77135848       3.07595491       5.61255599       0.24865966       2.70850942      -1.10711098
Si       7.27935096       9.55812174      14.77068922      -2.02585442      -0.80729694       1.11414507
Si       9.65535741       7.36812422      21.54661517       0.06107990      -2.62201932       2.78280858
Si       3.23986327       0.81589261      12.46111708      -0.53393687      -2.57092200      -1.27729837
Si       7.92871329       5.63974826      14.76173319       4.23986681      -0.86152458      -1.65391461
Si       4.90357103       2.22781067       5.71298365      -0.67126302       0.20323631      -0.12639539
Si       2.49064804       4.89725485      12.68089015       1.70163859      -1.71087240      -1.97279732
Si       5.52280811       8.12278177      21.82013391       1.10398452       0.32798685       4.95286518
O        8.59688060       6.08975499      21.61968376       0.19943985       0.10532558       0.15365515
O        4.64712403       1.58262052      12.50552873       1.35360024       1.27484972      -0.46222198
O        1.86544490       4.26882000       5.50710674       0.92640399       1.43740316       1.25494848
O        5.98794147       8.47587971      14.71528122       1.59699011       1.20833162       1.00254569
O        1.10056161       4.15581607      12.01596541       2.08951477       0.49487765       1.49258302
O        6.28733157       9.50927496      22.32819125      -0.05906930      -1.09244659      -0.24612474
O        9.37610377       6.66196417      14.99256772      -2.70556167      -1.08679576      -0.40339856
O        3.94373077       0.93553586       5.47569868       0.19803560      -0.24752632       0.52821202
O        3.74386777       6.42869339      18.94338844       1.91441937       1.28396502       1.21437866
O        4.02771589       6.68044703      15.56976366      -0.82299818       0.14974723      -0.62327521
O        6.81086782       4.02013996       8.52899286      -0.33138119      -1.51486432      -0.06796948
O        6.62441431       3.56969189      11.43205257      -0.51177159      -1.01774273       0.62566054
O        1.47350889       8.60300098       7.96862414       0.17214303       1.46769537       0.68491638
O        2.21698530       9.16080815      11.95277919      -0.33615244      -2.03928517       2.00017193
O        9.08548060       2.01536679      19.17893296      -1.00805798      -0.56907086       1.26243728
O        8.27743691       1.47282233      14.85680532       0.25982799       0.29162900       0.63711808
O        2.76306164       4.84489921      16.85505598      -0.59338425      -1.04590581       0.34855743
O        5.82112564       7.84381263      17.62037080      -0.22200521      -0.43707947       1.63891761
O        7.73124510       5.84384816      10.56563381       0.78460858      -0.86100797       2.22802670
O        4.69483131       2.55175355       9.74975736       1.41573554      -0.05644202      -0.32765053
O        0.74785625       7.78810959      10.47846597      -0.94412153      -1.00976892       0.36810311
O        2.73371955       0.79092112       2.66686149       0.02526153      -0.82782082      -0.58291896
O        0.27896734       2.72323750       9.79088572      -0.50959524      -0.11429390      -1.77750493
O        7.70154466       0.29350952      17.51450751       0.26477663       1.18175709       7.63139087
O        9.01707257       8.61280536      22.27430976      -0.01968824       0.56059279       0.27204013
O        2.02858942       1.33143798      11.56431577      -0.61308282       1.56630422      -0.18958551
O        1.20612884       2.01045024       4.50751732      -0.64838474      -0.72127393       0.48332823
O        8.35285031       9.26843993      15.94201815       0.44142043      -0.10869683       0.25821458
O        3.91326226       4.39017821      11.91306157      -1.56620118      -0.55942821       0.42193174
O        5.94726091       6.76549007       8.90326039      -1.13534323       2.23840414      -1.62620954
O        6.68173896       5.91332463      15.63192769      -0.41810026       0.04125807       1.38243094
O        4.44057603       3.32667107      18.54540289      -1.09434719       2.96364574      -0.97215006
O        9.19185315       3.87790231      11.94668211      -0.78746858      -0.48143698       0.15094960
O        6.62446161       1.37036678       8.07013199       0.07073857       0.08157309       1.21641509
O        1.31687354       6.87379072      15.44313295       1.39727743      -1.72984005      -0.52426145
O        3.83235244       9.04046182      18.77303340       0.15827603       0.26021059       1.40533582
O        8.51078514       4.15568248      15.23695902       0.06798149      -0.32217754      -0.27261869
O        6.46572787       1.87757290      19.24854709      -0.33046427       0.52246271       0.33358998
O        2.42729644       6.49140122      12.37482829      -0.29584221       0.88602826      -0.33422421
O        3.95371887       8.30908254      22.25000591       0.01806697       0.18262524      -0.77110855
O        7.46552195       5.48042588      13.16928160       0.24915844       0.67251869       0.66704003
O        4.63223711       2.87200788       7.26805027       1.59328461      -0.72604820      -0.69731061
O        2.77822194       4.52012202      14.29525163      -1.29655100       1.49976660       0.00366991
O        5.79765942       7.91285489      20.29637244       0.06800928      -0.79636737      -2.82651859
O        0.85390559       2.77969709       7.22965255      -1.79682837      -0.89648480       0.77057927
O        7.95988880       9.66536684      13.34906975       1.48196722      -0.40656275      -2.67398970
O        0.22282638       7.48822000      13.10898015       0.88568440       1.33007474      -3.06226113
O        2.75416518       0.83680445      14.02465215       0.30199115       0.07806590       0.04050762
80
Lattice="9.77192453 0.01751879 6.90363604 0.24348012 9.76890588 6.90363604 0.01370155 0.0133883 13.86910312" Properties=species:S:1:pos:R:3:forces:R:3 energy=-575.45627599 source_file=vasprun.xml step_index=685 time_fs=21370.0 time_ps=21.37 file_index=10 pbc="T T T"
Na       8.04213311       0.10789200      13.18823808      -0.13355064       0.24207520      -0.03352613
Na       7.88011704       4.49465034      19.75194464       0.24279747      -0.14198340       0.19140068
Na       2.13432657       6.61402057       6.87807039      -0.11964148      -0.11817312       0.03369595
Na       8.94619923       7.29506119      25.05825516      -0.10310566       0.54599387      -0.11838233
Na       3.87377243       2.86311422      15.66872086      -0.06596215      -0.44066024      -0.01687229
Na       9.52900727       3.22373458       9.50407003       0.05652018       0.36411358      -0.04617728
Na       2.65979824       2.05746137       8.82921989      -0.09363905       0.07315688       0.01116507
Na       4.30824956       8.27944539      13.63111927      -0.12268529       0.07309652      -0.26634146
Al       7.12303458       5.47770050       9.00468650       3.45042873      -0.42435279      -0.58976014
Al       4.93511210       3.18461563      11.37663164      -1.83806635      -0.07418052       1.08178576
Al       3.20749024       4.60487067      18.42946129      -2.82695455      -0.14670439      -0.29621500
Al       5.61303231       7.16066309      16.09904437      -0.83361074      -0.54094637      -4.50269985
Al       0.74777490       2.25307583      11.42551884      -0.26973044      -1.14935339       3.55725763
Al       8.11621764       9.71597907      22.95770044       0.14972155      -0.89180280       0.60937431
Al       9.64952476       7.96619146      15.84915169       0.93832801      -0.02170544       0.08773102
Al       2.34636283       0.50020603       4.52778447       0.31511793       1.29364123      -0.23784049
Si       2.56151138       5.82407150      15.56439641       1.46914187      -1.12069581       1.80612443
Si       4.82981111       7.43930899      18.96223803      -1.28480855      -0.10773107       1.74918458
Si       7.83865784       4.47554819      11.89080695      -1.44214825       0.35258815      -1.96490601
Si       5.69542935       2.81459305       8.30975276       2.80095030      -0.04031353      -3.09728507
Si       1.00814848       7.50128641      11.88902402      -0.17251714       0.23567942      -2.85377849
Si       2.91204232       9.51447379      22.25630707       2.99060649       0.47078075      -0.60354410
Si       9.19837073       2.76942289      15.43741237       0.04480300      -1.29911634       0.68367635
Si       7.55573068       0.84737319      19.10984173       1.46341290      -0.55522958       0.38249045
Si       0.63313205       3.02460047       5.73506538       0.94284827       1.63257494       2.78942443
Si       7.11351491       9.55262886      15.05580850      -1.43260726       3.01646819      -4.79203413
Si       9.66027300       7.13148375      21.80928198       2.42694961       0.47328365       0.45363681
Si       3.51050476       0.82967795      12.45321394       2.32756996      -2.27339498       0.45387647
Si       8.03329848       5.56098472      14.63773996       1.31257400      -1.15569923      -0.93122045
Si       4.61699648       1.95465195       5.51404129       1.68514412      -0.01940043       3.04388579
Si       2.22188131       4.79368617      12.51069450       4.17243393       0.55314167      -0.17957907
Si       5.68803201       8.06451347      21.95400718       4.05386726      -2.12258615      -0.72495797
O        8.52692822       6.04019350      21.72945850      -0.34560875      -0.82148691      -0.89753854
O        4.94851168       1.63662275      12.17594467      -1.82136411      -1.35919995       0.64797979
O        1.54661420       4.32417478       5.45042112       1.11035387       0.32502031      -0.59109550
O        5.73094233       8.82938756      15.31624736      -0.48250491      -2.26314001       1.04670874
O        1.13579418       3.70840219      12.33075075      -2.30080099      -1.29799755      -0.25599805
O        6.60655805       9.40385832      22.06238385       0.25636879      -0.24665532      -0.32095953
O        9.31530534       6.54053845      14.74407658       1.34037279       1.23621967       1.43147325
O        3.75169786       0.58511344       5.67855179      -0.34025730       0.43345637      -1.21767730
O        3.68192871       6.12875228      19.05029746       1.53373881       2.03612448      -0.07356263
O        3.87564135       6.84374382      15.64229220      -0.25002428      -0.82648820      -0.07702196
O        6.82131843       4.16360483       7.88247029      -2.52800580      -2.85303530       1.72016871
O        6.36530224       3.91265502      11.72522026       2.38431115       0.86197481       0.35999273
O        1.44068713       8.87219933       8.21368040      -0.91455865      -1.65147248       0.37228760
O        1.92917797       8.75668961      11.58513391       0.47612637      -0.24582606      -0.00814672
O        8.92760419       1.82028340      19.25896575      -0.33391118       0.02433810       0.37520651
O        8.37937048       1.37471080      15.27178573      -0.01459861       0.94764614      -1.16280755
O        2.61263322       4.50794160      16.74207291       0.78707452       1.81555947      -1.92661651
O        5.82130181       7.27849126      17.68940446       0.13648579       0.03332584       4.28299585
O        8.31050611       5.21809226      10.47473514      -1.13303683      -0.77956303      -0.76629606
O        4.97739143       2.92525983       9.68046542      -1.64301203       0.51389334       0.08697893
O        9.66349022       7.49464674      17.56886088       0.20074218      -0.00962028       0.18277106
O        2.93087406       0.71391148       2.76757146      -0.92133299      -0.10656209       1.32840339
O        0.42791314       2.41925311       9.81773185      -0.81423727       1.32628926      -2.02271903
O        8.02996278       0.04946828      17.77435621      -1.26028249      -0.75685246      -0.08301559
O        9.31333723       8.41603709      22.69817977      -0.95865063       0.85276076      -0.38991576
O        2.33167241       1.26348173      11.48696171      -2.06638628       1.06014559      -0.61773335
O        1.10688191       1.61415479       5.27510723       1.25287597      -2.06452656      -2.12556576
O        8.47010014       9.23611297      15.71838973       1.52254889      -0.89942916       1.04228884
O        3.70294666       4.25115262      12.00428197      -1.16897828       0.12155190      -0.09419539
O        6.36157781       6.94071997      22.98915667      -1.97824668       1.93627704       0.03857493
O        6.72253484       5.92844315      15.33791969      -3.79679930       3.01343492       1.99395870
O        4.10001444       3.15784265      18.51321033      -0.23311789       0.10691727      -1.44396449
O        8.87031814       3.25774647      12.16387053      -0.20126106      -0.60756390      -0.43153862
O        6.57374405       1.41053696       8.28757748       0.53097633       0.65923704       0.47276309
O        1.15340706       6.50096018      15.89238915      -1.36864846       1.02429462      -0.72258228
O        4.00953333       8.88894215      18.99207370       0.08729989       0.44986223       0.23425809
O        8.09507281       4.00031735      15.29733068       1.81551281      -0.10056428      -0.26204124
O        6.21140624       1.78173091      19.02574880       0.05533542       0.46824879      -0.81076178
O        1.94218082       6.20862959      11.77200976       0.21619221      -0.90150966      -0.45690862
O        4.20388987       8.24318061      22.24348460      -6.98477400       2.64667405       1.25331320
O        7.83460744       5.64743722      12.97563623       0.59213287       0.11206376       1.27272905
O        4.61389098       2.66269839       7.07236095      -0.28701558      -0.13502828       0.31618173
O        2.44936870       5.20966187      14.08397535       0.04331461      -0.71270095       0.10957931
O        5.61567747       7.30945406      20.44283072       0.75590686       0.40467656      -0.96491381
O        0.59441887       2.91157762       7.42715193       0.50476528       0.37211134      -1.51106609
O        7.21810933       9.41832200      13.22193835       1.37599527       0.59988673       1.75251580
O        0.56579637       7.66122151      13.40156195      -2.40086316      -0.46363667       3.17659995
O        3.15317168       0.86581011      14.10944496      -0.54934699      -0.98190593       0.05099319
80
Lattice="9.77192453 0.01751879 6.90363604 0.24348012 9.76890588 6.90363604 0.01370155 0.0133883 13.86910312" Properties=species:S:1:pos:R:3:forces:R:3 energy=-575.87109537 source_file=vasprun.xml step_index=645 time_fs=19290.0 time_ps=19.29 file_index=9 pbc="T T T"
Na       6.85726433       9.37405539      18.55908059       0.33066482       0.08912460      -0.21017074
Na       8.98641164       3.70830296      20.86631190      -0.41197476      -0.14248363      -0.02528992
Na       1.74649918       8.73001160      17.66829705       0.01263604      -0.36702384      -0.47957651
Na       7.84510552       7.62114090      10.93348007      -0.20792764      -0.48855658       0.35971439
Na       3.56783024       2.75206899      16.13096257      -0.01532217      -0.04081769       0.02731571
Na       6.71563008       2.77477750      14.06840121      -0.49633493      -0.71622110       0.02902711
Na       2.73236553       4.39847849       8.84649119       0.01687236      -0.35695697      -0.06016182
Na       3.76028537       8.53754693      13.59259852       0.35897762       0.27194834       0.02059396
Al       7.43735027       5.50489147      22.79848059       0.26368168      -0.97631152      -2.32339413
Al       4.71278388       3.04386085      11.45582938       1.58917876      -0.49301641      -1.07535906
Al       3.15667994       4.70721592      18.48457325       0.30171346       0.57374913      -0.16343316
Al       5.63032517       6.96887655      15.85154738      -0.22591693       0.63094278       0.66857419
Al       0.67120714       2.32806695      11.46305553       1.21138873      -0.66134692       0.83334608
Al       7.90454466       0.04070627      15.89842784       1.10953776      -2.09207240      -0.82258137
Al       9.82827070       7.85028798      15.99147073       0.23738398       0.00165761      -2.47790162
Al       2.52406148       0.61708961       4.45818476       1.31600514      -2.12420998       2.16671391
Si       2.82584983       5.86123627      15.41197457      -0.92091793       0.99999198       0.42398436
Si       4.86353688       7.37279873      18.95439520      -0.86430522      -0.95050285      -1.91853149
Si       7.88464914       4.45509919      11.90897176      -2.41918438       0.48773665      -0.57683481
Si       5.75915313       2.63177331       8.54483277       0.01272250      -0.84829124      -1.55461923
Si       1.32286408       7.53586180      11.69551478      -1.34246053      -4.89877911       5.94345248
Si       3.03354201       9.34728953      22.31322657      -0.93722338      -1.29397721       0.32686942
Si       9.44048020       2.72529752      15.27609547       0.89904679      -0.57702918       2.63803729
Si       7.74750373       1.04720343      19.10188861      -0.74020380       0.14180294      -2.19974635
Si       0.75690652       2.97468607       5.67019153       0.71933768       3.78164697      -1.14880543
Si       7.36045075       9.40931102      14.87654190      -2.12833673       2.23267589       0.98849642
Si       9.82945650       7.03590301      21.72010988       3.41572988       1.67658630      -3.71111183
Si       3.34321600       0.55282576      12.51673636      -1.93956216      -1.60753279      -2.08357797
Si       8.06463292       5.40511080      14.75690008      -2.73919030      -0.83479786       1.16340309
Si       4.93134750       2.07421931       5.54965327      -0.76498930       1.98722992       2.08242043
Si       2.17648614       4.67412771      12.62246289      -0.03655301       0.12881307      -1.33276556
Si       5.72396502       7.89300580      21.78992776       1.00869456       1.80074177      -1.37903864
O        8.90669203       5.79354227      21.70350844      -2.79281433      -2.71134520       0.99163111
O        4.64713553       1.41655117      12.30086570       1.42629215       1.92246207      -0.73804810
O        1.65821708       4.40091719       5.48899705      -1.13863251      -1.22385094      -1.10394894
O        6.13610196       8.34517560      14.95420950       1.24267478       1.24532617      -0.92170078
O        0.75181448       3.77583006      12.42434943       3.46865953       1.95530304       0.35911240
O        6.70679512       9.24815253      21.90442762      -0.99815589       0.88243969      -0.21292434
O        9.24049660       6.16941229      15.39863462       2.33832652       3.10865522       1.11366215
O        4.12180456       0.70622396       5.36892435      -1.02186622      -1.13938311      -0.55473089
O        3.74676279       6.19196740      19.22659732       1.05328465       0.66253979      -0.89383378
O        3.98067470       6.97507078      15.17155961      -0.20441681      -0.51129143      -0.12003150
O        6.73658305       3.95878382       8.28188991       0.25163085      -0.34594805       0.98504789
O        6.37549216       3.60527835      12.05112861       0.94740294       0.96081847      -0.64958325
O        1.60083091       8.58263505       8.33087928      -1.11340116      -0.65528605       0.85125142
O        2.10536352       8.80471657      11.90977449       4.01232119       4.19187982      -0.37403603
O        9.15415076       1.80968119      19.34798145      -2.13958733      -1.19666317       0.22057987
O        8.71248211       1.34410954      14.96563404      -1.63465722      -1.66814789       0.61186474
O        3.33155382       4.93675210      16.62389274      -0.61000199      -0.69438328       2.05678374
O        5.83478978       7.55977120      17.57579726      -1.28785857      -1.46121482       0.36567484
O        7.98899271       5.34453313      10.51848086       0.30529782      -0.67573550       2.32940993
O        4.52177215       2.81009466       9.58925924       0.81924473       0.81036233       2.93471841
O        9.91772656       7.64289665      17.64866726      -2.06552399      -0.20174135      -1.90403747
O        2.96450245       0.54836760       2.84224077       0.32616211       0.06125884      -2.50722684
O        0.36595076       2.72395577       9.86189534      -0.10777571       0.15269874      -2.01753766
O        7.96425501       9.77601016      24.67579040       0.82438901       1.14474000      -1.65544816
O        9.34185791       8.32588447      22.41031352      -2.80951214       4.10950109       2.83712769
O        1.98009874       1.04628988      11.64054237       0.88319316       0.10318624       0.69569178
O        1.41239708       1.73950090       4.96438392      -1.14251421       0.41250910      -0.10950084
O        8.65008301       9.12018683      15.75185447       0.21701428      -0.59422638      -0.01733342
O        3.56998670       4.23060322      11.86380349      -0.85033291      -1.46644458       0.65728403
O        6.51224791       6.97228446      22.78510015       0.03057945      -2.19189754       1.36915247
O        6.48793980       5.59827573      15.25580589       1.27932286      -0.38029616      -0.06879185
O        4.10611980       3.27181992      18.68377253       0.44685658      -0.35476671      -0.86528223
O        8.93547652       3.22901980      11.99197711       1.71641216      -0.53431557       0.83603550
O        6.47195814       1.12990523       8.58620907       1.01000028      -0.05105534       0.74703625
O        1.45237660       6.80103176      15.68125176       1.72515164      -1.57246520       0.64213710
O        3.91695188       8.76127896      18.74168299      -0.37341246       1.35444170       1.58331009
O        8.25570055       3.80173856      15.19898446      -0.55550861       1.07609825      -0.62671347
O        6.47119506       2.13563316      18.78870564       1.10429580      -1.07486653       0.91884042
O        2.16505491       6.06477610      11.74176129      -0.87107637       1.75893421      -0.43512528
O        4.13393260       8.09037826      22.28206414       1.61107412       0.22672524      -0.74669346
O        8.06714399       5.61215674      13.14189162      -0.11047677      -1.37386119      -2.15358921
O        4.84610439       2.44837929       7.21991534      -0.16590596      -0.00806127      -3.17225135
O        2.50574456       4.72382145      14.24968801      -0.25424558       0.37109493      -0.64371377
O        5.99777565       7.27746217      20.13068926      -0.98741657       1.86121358       2.71681499
O        0.81202740       2.98919907       7.28984558       0.33281904      -0.42296228       0.41583922
O        7.69677554       9.77987123      13.32415241      -0.20515629      -0.82732483       0.46554834
O        0.57499378       7.39130130      13.24159340      -0.43375245      -0.69712353       1.11149649
O        3.05863488       0.51943116      14.10003913      -0.04537892       0.35256093       0.53459085
80
Lattice="9.77192453 0.01751879 6.90363604 0.24348012 9.76890588 6.90363604 0.01370155 0.0133883 13.86910312" Properties=species:S:1:pos:R:3:forces:R:3 energy=-575.38618895 source_file=vasprun.xml step_index=945 time_fs=57890.0 time_ps=57.89 file_index=28 pbc="T T T"
Na       7.08931892       8.36028510      18.81887897       0.29876134      -0.06805151      -0.53041212
Na       8.87251213       3.66323675      20.61761945      -0.64121836      -0.09373335       0.02247591
Na       9.24727886       7.26417984      12.31139548       0.00275781      -0.20494387       0.49221014
Na       3.65737856       8.38609460      13.63993302      -0.09144863      -0.15680731       0.09261804
Na       2.57044744       2.35702580      16.15206637      -0.25596419      -0.48086194      -0.13488029
Na       5.84755268       1.55110924      14.32595249       0.06578005       0.16413685      -0.31082372
Na       2.48398792       1.82890807       8.82414638       0.07567403       0.26702460      -0.17906254
Na       4.05234012       5.50178167      10.67790714       0.23429285       0.08330134      -0.34454088
Al       7.10299572       5.06287543       9.14184399       0.05844046      -0.31331453      -3.12771261
Al       4.70845837       2.19468974      11.54350006      -0.86344027       0.09237263      -1.94586459
Al       3.03070908       4.35363873      18.41315289      -2.19195004       2.53819025      -0.50333380
Al       5.37264546       7.02257663      15.67795067      -0.61933886      -2.52958962       2.39683901
Al       0.34580381       1.84810411      11.57248599      -0.67933130       2.50770713      -2.16612586
Al       7.81454197       9.34778227      22.58831518       0.10491211       3.48282341      -0.26365078
Al       9.59192857       7.60943048      15.77370620      -2.37415508      -0.57286878      -2.16088289
Al       1.90719897       0.16081078       4.65514987       0.45134583       1.02143150      -0.47598135
Si       2.49252388       5.56980776      15.29573593       1.97344459      -2.18153315      -0.35673060
Si       4.38164417       7.10884709      18.80584107      -0.04042580      -2.69373186       3.17050423
Si       7.24368639       4.08676248      12.19422266       0.36837140       0.67040793      -1.22978780
Si       5.73706239       2.29344121       8.23733049       1.50506495      -0.26078950       4.30534675
Si       0.80998656       7.09201384      11.87907503      -2.19432522      -3.38197604      -2.08089723
Si       2.63349548       8.96018430       8.45661680      -2.22097193       1.65972580       0.09761468
Si       9.12837709       2.36013936      15.29659570      -1.19886482       3.01155444       0.28324117
Si       7.29267656       0.63924922      18.75568175      -2.76790679      -0.14094517       1.53605210
Si       0.39549196       2.89031339       5.61646313       1.40298025       1.60185999      -0.65575038
Si       7.01405555       9.14286890      14.74987395       2.86750583       2.98148724      -0.20338204
Si       9.47292528       6.85683840      21.62860320       1.77387072       0.22207799       0.92245195
Si       3.06544297       9.69584538      19.48414774       0.91558280      -0.41760608      -0.37537991
Si       7.82466838       5.31822965      14.92426228      -0.17383232      -2.95161696       2.68295991
Si       4.39358346       1.93481215       5.57472903       0.60537132      -4.13381265       3.03014607
Si       2.14314191       4.26115849      12.52822817       0.73735379       0.03762489      -1.25242932
Si       5.47783653       7.65422007      21.80251525      -2.23724433       1.43750937      -1.69970567
O        8.63593224       5.50881599      21.92602395      -1.53127417       0.29627096       2.09127172
O        4.41110577       0.48179629      12.26210407      -1.28027120       1.22859248      -0.44330502
O        1.40033261       4.21677495       5.37728002       0.24492395      -1.02868962      -0.55203201
O        5.59934291       8.48048036      14.86472816      -1.40144840       0.06186739      -1.36232865
O        0.78411400       3.57132750      12.22610243      -2.84689535      -4.00014813      -0.90662984
O        6.27768013       9.10469514      21.83970729      -0.21935135      -1.20170808       0.44694963
O        8.95047599       6.33828006      14.51684499       2.36854779       1.81405803       0.27187856
O        3.40279775       0.50580170       5.61660969       0.77800207       1.30657554      -0.09172417
O        4.19502613       5.46733875      19.13980824      -1.18200811       1.37163023      -1.19044904
O        3.73494808       6.61203370      15.04983668       0.88124215      -1.09781235      -0.15634451
O        6.91919848       3.45209743       8.24736380      -1.10516236       1.25601663       0.44206775
O        6.14133933       2.96688822      12.07880925      -0.88019804      -1.60846427       1.16936929
O        1.12481566       8.41783432       8.20608491       1.12001155      -0.82530006      -0.94599019
O        1.80311904       8.26686566      12.06466007       1.22989470       2.51323087       0.68244278
O        8.41411862       1.68876312      18.97672231       4.01931882       1.50112772       0.24247926
O        8.03353340       1.26179094      14.88227700      -1.11807098      -1.59018746       0.58107210
O        2.59213371       4.48087508      16.52347301       0.38876155       1.50695016       1.63744890
O        4.93312368       7.39414247      17.37131641       0.96807014       0.86003629      -0.27812135
O        7.09719180       5.02032394      10.83499970      -0.02159325       0.56720525       0.97320671
O        4.83820909       2.20117028       9.69546497      -0.30650027       0.36701966       0.96237719
O        9.68841454       7.13247401      17.35182123       1.73302351      -0.70660725       4.39723688
O        2.16173466       0.07676011       2.89348685       0.97427934       0.74475380       0.82985857
O        0.26973508       2.09853022       9.64976613       1.67220808      -1.56440297       3.56824603
O        7.53442929       9.71781669      24.23088650       0.01165121      -0.70470367       0.72131465
O        9.06224894       8.33164010      22.20929441       1.08408168      -2.62839386      -0.32158302
O        1.64301781       0.76278861      11.85919593       0.15678315      -0.63157802      -0.77469208
O        0.82289740       1.52341056       4.90614334       0.30166400      -0.98095248      -1.12558280
O        8.00440514       8.41919901      15.84352290      -0.26282027       1.15145804      -1.37205148
O        3.47842947       3.46734058      12.05176954       0.55791348      -0.23803538      -1.55561673
O        5.73558001       6.30232666       8.72471104       2.06997103      -1.65687316       1.32082514
O        6.66918632       5.81771598      15.92427679      -1.17521451       1.10782530      -0.37930242
O        3.69956484       2.82784473      18.38978078       0.34125107      -0.17168554      -1.40977547
O        8.67715760       3.38770230      12.07672474       0.69879180      -0.37698789       0.23250596
O        6.69431579       0.95855191       8.36051108      -0.57734842      -0.55128735      -1.06497412
O        1.32793896       6.63721900      15.20813020      -3.32737350       0.90667965      -0.14611973
O        2.96229652       7.96291510      19.11734662       0.79057883       2.53441925       0.67066101
O        8.38645721       3.88553128      15.72383148       0.10471539      -0.26243203      -2.22802437
O        5.97155835       1.56928989      19.13594005      -1.50972913       0.49623707      -0.60912309
O        1.83949044       5.73477294      11.85347121       0.90507411       1.21712969      -0.37693564
O        3.91447367       8.00567282       8.59029132       1.07841992      -0.75859394      -0.83031202
O        7.06695923       4.96654154      13.54528895      -0.76235968      -0.56272064      -1.86347481
O        4.44606191       2.44206758       7.30193377      -1.02749474      -0.41420476      -4.12936623
O        2.36140911       4.35721563      14.07338082       0.25499475       1.77407161       3.68685420
O        5.54200383       7.41344572      20.14348405      -1.42136964       0.19016627      -1.09963460
O        0.45071683       2.47811863       7.17782355       0.01246181       0.27743139       1.07186604
O        7.45133665       9.37550775      13.07692127       0.55826510      -2.38645017       1.32301615
O        9.46651075       6.89283504      20.01080235       0.58105994       0.68405009      -1.87582409
O        2.51959239       0.32625195      14.15661462       1.13526431      -0.97922465       0.74361656
80
Lattice="9.77192453 0.01751879 6.90363604 0.24348012 9.76890588 6.90363604 0.01370155 0.0133883 13.86910312" Properties=species:S:1:pos:R:3:forces:R:3 energy=-575.33481716 source_file=vasprun.xml step_index=350 time_fs=22700.0 time_ps=22.7 file_index=11 pbc="T T T"
Na       1.88773138       2.65393294      15.53871535       0.17976557      -0.27222225       0.29993397
Na       5.23406817       4.35512109      16.89142313       0.20082528      -1.18304722       0.49837259
Na       8.21693280       7.47740885      11.73704264      -0.46385473      -0.51670404       0.05475942
Na       1.02982453       9.03590337      16.40018739       0.59206012       0.33787640       0.04945371
Na       8.51518357       4.00295821      20.11525868      -0.08918892       0.21021932       0.10799560
Na       6.04878204       1.08916343      13.56731563       0.58081522      -0.31513375       0.17604577
Na       1.88911926       5.76219808       7.83475037      -0.15140963       0.23981406      -0.21835716
Na       4.17937607       9.23173470      13.75205258      -0.15857015      -1.19525450       0.71351820
Al       6.97310878       5.23441633       8.98997994      -0.06867023       0.28188683       1.42281571
Al       4.70207111       3.06764758      11.68312447      -1.17636443      -0.26209103      -1.59886648
Al       3.06014240       4.74408476      18.65001349      -2.03461257       0.16888343       0.76505679
Al       5.41686071       6.97365100      16.19041770       1.24853739       1.05059961      -1.11629147
Al       0.57272180       2.08524012      11.68110969       1.45651602       0.58198617      -3.08391225
Al       7.84401502       9.45846166      23.11920077      -0.20943745       0.77825195      -2.14035283
Al       9.80156349       8.01543550      15.99596675      -1.38743660      -2.15493873       0.25386969
Al       1.91721913       0.44598472       4.53060568       1.93120785      -0.91708033       0.53992302
Si       2.71543815       5.64935272      15.60465742      -3.10422251      -0.87190153       0.43588938
Si       4.60551724       7.34197939      19.15819919       0.29779445       1.24078735       2.11875690
Si       7.41280850       4.36060382      12.19342007       3.66229591       1.30835648      -1.31205022
Si       5.45757675       2.46650210       8.67022092      -4.39052475       2.36565893      -0.08564638
Si       0.88601800       7.47017685      12.17743385       2.26596026      -0.28443056       4.80778272
Si       2.78452009       9.20783960       8.42592814       0.73135561      -0.83288503       2.20717080
Si       9.33297819       2.51846422      15.44171934      -2.20034608      -0.24561984       2.67557219
Si       7.44323727       0.85192119      19.24832818      -1.24642638       0.16615858       0.78579387
Si       0.57067200       3.06852134       5.57945034       0.21830978      -0.44915505       1.52254246
Si       7.19108439       9.59395595      15.21012220      -0.68624006      -1.95164401       1.32141980
Si       9.49680475       6.81524699      21.97888649       0.06392977       0.17688633      -0.04575146
Si       3.11500932       0.56982747      12.45438144      -0.44185190      -4.30006487       1.64231889
Si       7.91734501       5.26392026      15.07144922      -0.10157014       2.16440698       0.44363181
Si       4.49533480       2.09178053       5.77053692       0.26355594       1.12823746      -1.13192422
Si       2.37622123       4.56272031      12.63175092      -0.05755256       3.19214685       1.62234114
Si       5.56467869       7.74488239      22.06484529      -1.71581027       0.77738156       1.06095630
O        8.64804413       5.39558319      22.02757522      -0.56468809       0.64939862      -0.02942124
O        4.12089482       1.70465529      12.78442696       1.17321553       3.85445355      -0.72007895
O        1.47125785       4.35251843       5.35326805       1.66685163       0.39226861       1.22680829
O        5.98415041       8.44264164      15.48594663       1.00016601       2.36052163      -1.07277855
O        1.24600502       3.45044612      12.59511667      -1.03320021      -2.40822673      -0.38021053
O        6.32728216       9.21075425      22.16187179       1.50171060      -0.10314136       0.22920743
O        9.19408398       6.28506977      15.43198188      -0.33681010       0.44140066      -0.02804070
O        3.55623032       0.81506246       5.29345148       0.78764489       1.83343473       0.14731292
O        3.29870655       6.32980690      19.19709208       1.22174687       2.34315010       0.99563214
O        3.86014012       6.65667867      15.51247902       2.18979172       2.32653081      -0.42108985
O        6.13534453       3.87451329       8.27658172       1.00079718       0.13333084       0.19352866
O        6.30401451       3.23902902      12.33792584      -0.66193403      -0.84309421       0.86016409
O        1.51201309       8.25661833       8.28644501      -1.43866711      -1.15962656       0.36101845
O        1.95198919       8.71918110      12.55498174      -0.31890035       0.46496130      -1.24357249
O        8.76634303       1.81127451      19.19667456      -0.41598642      -0.71190168       1.43731894
O        8.61823606       1.03311601      15.47586991      -0.81348549      -1.24762890       0.15380971
O        2.92468326       4.73510243      16.96678838      -0.57664529       0.21599578      -3.35598558
O        5.50019563       7.08943559      17.88197076       0.47220522      -1.17032714       0.12030186
O        7.27172126       5.08580323      10.72758719       0.43360151      -0.27202373       1.36814709
O        4.52510030       2.29795917      10.01899790       0.43098380       1.84594907       1.13886060
O        0.33830388       7.79326173      10.79687360      -1.47937147       0.25774720      -2.35388378
O        2.55712994       0.48675822       2.82623715      -1.16080825      -0.70754085      -0.96117513
O        0.20119252       2.74811904       9.98018398       2.12098150      -1.12896175       2.13800585
O        7.31152414       0.07308181      17.85884189       0.41066598      -1.31801722       0.51380462
O        8.72935269       7.90066904      23.05418929       1.26010142      -0.28515886      -0.53392770
O        1.85584650       0.71400472      11.46243029      -1.57869041       1.13610999      -0.07478351
O        0.89989897       1.84422691       4.61162095       0.18391819      -0.88437844       0.01361997
O        8.60523794       9.22867231      15.86249695      -0.24785715       0.50958237       0.21918596
O        3.73227450       4.65727966      11.75992503       0.22994291      -2.40882965       0.58347227
O        5.85317640       6.59276132       9.29214873       1.37080130       0.10012305      -0.96551931
O        6.41343373       5.62326639      15.70251760       1.40733484      -0.17493910      -0.10574643
O        4.21487455       3.56137970      18.88254926       1.65177044      -2.33256896       0.61046524
O        8.99152990       3.76151367      12.20263271      -5.52799123       0.64560114      -1.15363214
O        6.43873818       1.28930709       8.92789619       2.86327522      -3.34916593      -1.70376842
O        1.32875121       6.70910063      15.60464770      -0.12840017      -1.29875257       0.42191784
O        4.37670788       9.04250026      19.03910309      -0.86446234      -1.30259831       0.06222283
O        8.21584564       3.76078457      15.59740008      -0.70525187      -0.33854576      -1.28860578
O        6.17958709       1.92627017      19.28190778      -0.80621671      -0.49712877       0.86539990
O        1.51096761       5.94909574      12.40655109       0.47470487       0.26744222      -0.74996374
O        3.99511808       8.14121243       8.51049289       0.03387666      -0.04687164       0.19884143
O        7.64557563       5.49201708      13.43928946      -0.68404254      -0.77070943      -1.12146876
O        4.28557466       2.34632135       7.37925371       1.29902393      -1.27949205       0.79520053
O        2.68574949       4.55072234      14.37313222      -0.23644502      -0.01616885      -0.79411399
O        5.56163000       7.04171915      20.61249538      -0.78192628       0.25659514      -3.06784352
O        0.35827298       2.65843275       7.20960519       2.34914636      -0.04391705      -2.01930655
O        7.51700663       9.42063846      13.57911215      -0.06540820       2.43351718      -2.48273417
O        9.66942102       7.42520086      20.46809312      -1.04055604       0.35232735      -0.24736699
O        2.54375323       0.12460531      13.98177450      -0.06250661       2.84606483      -2.58319568
80
Lattice="9.77192453 0.01751879 6.90363604 0.24348012 9.76890588 6.90363604 0.01370155 0.0133883 13.86910312" Properties=species:S:1:pos:R:3:forces:R:3 energy=-575.90619472 source_file=vasprun.xml step_index=425 time_fs=76850.0 time_ps=76.85 file_index=38 pbc="T T T"
Na       7.80126068       3.71436573      20.69550428       0.56409214      -0.04741045      -0.08578378
Na       8.54729060       9.60840075      17.97190286       0.06817073       0.41875600      -0.02720366
Na       6.38274366       3.40961174      17.35329135      -0.52032730       0.54714442       0.23292166
Na       1.01485948       9.39419731      15.63154924       0.41274549       0.08836340       0.18907170
Na       2.26749585       2.91992069      15.95306649      -0.40255748      -1.04196137      -0.74587090
Na       5.81077824       0.95096007      13.76869011      -0.38672007       0.48453642      -0.40889516
Na       5.87592576       7.31485811      12.10816536       0.36788910      -0.16417256      -0.07963157
Na       1.24403071       5.90785782       6.86053418      -0.01691871       0.16538210       0.40798183
Al       6.85385102       5.43840488       9.26899177      -0.64943216       0.33628825       0.06356447
Al       4.43958873       2.93402410      11.59385627       0.99199104      -2.00715069       1.00239742
Al       2.88599373       4.53910899      18.39509887       1.04591249       3.20895162       2.60530509
Al       5.11386338       7.08747213      16.19171967       3.29502878      -0.49934252       3.20977171
Al       0.35313995       2.25936268      11.70624944      -0.69998357      -0.45105031      -0.35160726
Al       7.82855782       9.54175353      23.27635997       0.04187415      -2.51757970      -2.65202198
Al       9.48973393       7.50751913      16.20110699       1.47331960      -1.33489440      -0.93908512
Al       1.89568692       0.51643118       4.70133273       0.38663923       0.31057251      -0.77413651
Si       2.57807680       5.76535050      15.50534579      -1.83826308       0.20122542      -1.09379604
Si       4.08556156       7.37185084      19.21645874      -0.59940112       0.03647615      -2.77349647
Si       7.14656231       4.31291508      12.27446191      -0.85383314       0.39562812       0.17088792
Si       5.62569145       2.51507508       8.57089268      -0.09993537       0.26644847       0.52571592
Si       0.87706276       7.42602654      12.22186447      -1.18926136      -1.04986085       0.08739146
Si       2.41567143       9.25912878       8.62358249      -0.42660972      -3.04195228      -0.08484569
Si       8.94374488       2.65392963      15.70393411       2.39247055       0.78418560       0.11827054
Si       7.41982569       0.82746711      19.26727802       0.07831888       0.73595677       4.07566629
Si       0.27390678       2.95642277       5.74801216      -1.04775822      -0.74917313       0.36913845
Si       7.24789454       9.39687986      15.04663210      -0.26393568       0.71625163      -0.56262555
Si       9.45186329       6.80765858      21.98814588      -2.80933892       2.78587832       3.02292753
Si       2.59784904       0.25548752      12.46625372       1.53049875       2.93669158      -0.34322358
Si       7.41733253       5.28808616      15.16071638       2.00772931       0.11700403      -5.21590825
Si       4.49376266       2.23495435       5.70183503       1.65242742      -0.69449733       1.25605525
Si       2.23653198       4.58604652      12.62184618      -1.45422934       0.58456354      -0.83910405
Si       5.21965807       8.10155887      22.14564207       1.04596492       1.04163401      -0.85323991
O        8.30423922       5.74332462      22.17874077      -0.21936008      -1.53417839      -0.51490996
O        3.88814155       1.48176178      12.58104671      -1.56049222      -1.47891848      -0.37050204
O        1.54786065       3.82774970       5.30312083      -1.17188931       0.07264902       0.67636665
O        6.07048320       8.45479477      15.74608414       0.93550897       2.02956810      -1.60580257
O        1.05438451       3.49464253      12.60100687       0.56015746       1.03249186       1.08092097
O        6.26064135       9.38291985      22.44657453       0.39799699      -0.16866151      -1.12375642
O        8.82406971       6.00682211      15.34338806       1.96595298       1.84976116       0.11800776
O        3.47594334       1.07897031       5.29760836      -1.06373954      -0.38494306      -0.81949095
O        3.05613253       6.14981282      19.38725040      -0.87946297      -1.73096697       0.27045090
O        3.65343598       6.90309514      15.44959757      -0.83736145       0.92936262      -1.56367045
O        6.25282912       4.02547806       8.35696378       0.05497157      -0.37227712       0.45406233
O        5.99166429       3.14444682      12.47045774       1.25029492       0.52086636      -0.18053899
O        1.46969587       7.84763430       8.88396402      -0.81082451       1.25774240      -0.38022348
O        1.89116632       8.73388315      12.44865726      -1.19683993      -0.55320826      -1.28405950
O        8.72811775       1.73830269      19.70852401      -0.41381419       0.03710207      -1.75906364
O        8.62534116       1.04449324      15.88007221       0.01764831       2.58496908      -1.37258434
O        2.87724613       4.80851867      16.73609280      -0.08869475      -1.03179553       0.08056039
O        5.05690994       6.91746318      17.99468034       0.12981873       0.75827196      -0.07997778
O        7.16432185       5.36874207      11.02593628      -0.96903686      -0.34813587      -1.13719833
O        5.01703405       2.42906097      10.06186682      -0.20361107      -0.43767405      -1.45307712
O        9.38574093       7.43610255      17.94590589       1.80094651       0.85154537       1.82998257
O        1.92271651       0.72032589       2.79456179       0.07347072      -0.69898888       0.37911096
O        0.13076578       3.03638061      10.10247827      -1.88925690      -0.67420497      -0.68904564
O        7.25149924       0.07854595      17.94916414      -0.22237155      -1.24768581      -1.03328631
O        8.89292415       8.21612322      22.76838673       0.30840416      -0.84192336       0.14383459
O        1.41981298       0.92757437      11.61623071      -0.25337723      -0.44749555      -0.66022495
O        0.41853008       1.53181230       4.92673206       0.29727276      -0.51053071       1.04857969
O        8.64744221       8.91482263      15.72737070      -0.96456248       1.42278297       0.14172343
O        3.53645583       4.36686719      11.74283615       0.31083296      -0.25333849      -0.32249135
O        5.74283745       6.83300438       9.08453165       0.68499952      -1.37667823      -0.15490875
O        6.33405001       5.71766673      16.08485037      -4.84832055       1.77484835       3.01297147
O        4.27675472       3.67262148      18.86095193       1.07357280      -0.86147266      -0.42350629
O        8.63668541       3.60588326      12.11868667      -0.39301261       0.28869106       0.59215618
O        6.84696507       1.39230492       8.30490573      -0.01261675      -2.13791172       0.52310413
O        1.07436639       6.44588235      15.72902087       2.78310750      -1.28631740       1.08724617
O        3.15149712       8.63493986      18.65018624       0.59234602      -0.54956835      -0.92641696
O        7.65733625       3.72464888      15.45989825       0.58757768      -3.63188718       0.76889055
O        6.16339753       1.94609523      19.22033052      -0.51022939       0.20134203      -0.19636572
O        1.66008547       5.99755544      12.04540410      -0.35486291       1.60044912       0.05084241
O        3.88995263       8.58068447       8.96315844      -2.49451794       1.34019873       1.25482974
O        6.76375645       5.43797986      13.49518743       2.04376522      -0.85670357       1.73176802
O        4.58649470       2.21752162       7.33396618      -0.75459106       0.45473733       0.48443561
O        2.57384710       4.74480645      14.19939085       0.38842737       0.47292081       1.97011124
O        4.70399395       8.12202571      20.50143020       2.50144469      -0.72045187       2.24000615
O        0.09640043       2.94653073       7.43143213       0.37109557      -0.75976230      -0.87261921
O        7.51634774       9.22952957      13.35329030      -1.23959717       1.15854585       1.33616070
O        9.79517925       7.34080102      20.58117234       0.82724437       1.04336652      -4.52112015
O        2.40859973       9.60630047      20.86424722      -0.70816676       0.65823505       2.64173410
80
Lattice="9.77192453 0.01751879 6.90363604 0.24348012 9.76890588 6.90363604 0.01370155 0.0133883 13.86910312" Properties=species:S:1:pos:R:3:forces:R:3 energy=-575.52460931 source_file=vasprun.xml step_index=840 time_fs=1680.0 time_ps=1.68 file_index=0 pbc="T T T"
Na       1.75663690       2.27284260      16.22947218       0.30979893       0.14191711      -0.07007781
Na       7.66232737       8.66308932      18.48396004      -0.29602555      -0.43264339      -0.12347826
Na       9.20580238       7.44099275      12.33010906      -0.65589527       0.09054323      -0.01365023
Na       2.63463071       2.34345798       8.58329098      -0.13521843       0.04571738      -0.21877535
Na       8.79181562       3.75915051      21.07124598       0.23333767      -0.63778117      -0.85653864
Na       5.91876064       2.53015688      14.80643026       0.09884073      -0.30572739      -0.34925888
Na       2.08992097       6.50364047       7.14962395       0.03901072      -0.57256760      -0.26691655
Na       3.82993185       8.46886043      13.87692891       0.06281923       0.15633987      -0.11362136
Al       7.11825432       5.42922394       9.15027582      -1.42920047       0.28944719       0.68873698
Al       4.52303007       2.72310420      11.34726417       1.43131296       0.96689646       3.61159208
Al       3.01832577       4.40610215      18.47390256       1.21921026       1.23839532       0.63776550
Al       5.45080471       6.92089333      15.97216009       0.72716783       1.88976362       1.66246793
Al       0.15709884       1.82679417      11.63752044       1.25956689       0.09770916       0.01328491
Al       7.65346658       9.39404013      22.88551041      -1.49735001       2.11568708       2.64545904
Al       9.79286382       7.88418156      15.93558632      -0.20674376      -0.17072346      -0.79153905
Al       1.94857378       0.21059546       4.76119276       1.76644198       0.78442959       0.53021119
Si       2.29402776       5.48110161      15.60126473       1.35336323      -1.21812545       1.07984181
Si       4.47401093       7.25324346      19.15222799      -0.82384223      -1.72486448      -4.21162675
Si       7.40554830       4.20878625      12.16042114      -1.48258919      -0.29956703       0.89726376
Si       5.79642384       2.74520987       8.39842091      -3.86032259      -0.39541122       0.15371162
Si       0.97835518       7.08485609      12.09604617      -1.55046603      -1.57516913       1.26041649
Si       2.73925620       9.08752675       8.49969111       1.04751175       2.28958913      -0.28825647
Si       9.16494206       2.37856445      15.41971272       1.46059037      -2.75405755      -0.79243759
Si       7.17418285       0.42383886      19.16369710       0.33532669       0.13317312      -2.42916231
Si       0.54887913       2.82139013       5.67332862       0.59812792       0.39043341       3.27385196
Si       7.20918393       9.59473810      15.08651568      -1.59976380      -2.78962976       3.87107309
Si       9.40527359       6.96891589      21.83477803      -1.48976428       1.02929910      -1.40972065
Si       2.79986670       0.26530685      12.69851348       3.86386267      -0.01129233      -0.94795128
Si       8.18144836       5.40887652      14.87750091       0.69171554       0.52285903      -0.49120695
Si       4.39350455       1.97865539       5.59764688       2.27757439      -0.46935564       0.58421656
Si       2.08110352       4.13929117      12.83274518      -0.33432754       0.62478043      -0.59320864
Si       5.37876897       7.80797944      21.83270169       0.40061110       1.53531494      -1.73552686
O        8.53683228       5.62536053      22.03256073       0.15039269       1.08909379       0.10732536
O        4.04875415       1.26924980      12.10052299      -1.41944063      -2.43385318       0.38046112
O        1.85930940       3.90484738       5.75443439      -4.10614185      -1.03985591       1.79133640
O        5.78325872       8.76676538      15.24766539      -0.61905485      -2.80548593       0.64437981
O        0.73154310       3.26231578      12.54405202       0.23386021       0.01972758      -0.30936218
O        6.09074739       9.23897534      22.09578716      -0.04224176       0.17664150       0.00651323
O        9.55325307       6.42246277      14.88024289      -1.02792254      -0.51516544       0.22588077
O        3.36053492       0.79943915       5.81847415      -2.62121648      -1.85500442      -0.32373937
O        3.57460251       5.89125476      19.30523448       0.23497228      -0.42148479      -0.48332748
O        3.81948241       6.31346160      15.55199516      -1.80138055      -0.94855062      -0.86552872
O        6.82830173       3.93380042       8.28969919      -0.32170719      -1.03231362      -0.35399819
O        6.01348192       3.32897225      12.46689726       1.13715880      -0.01229126      -0.55629890
O        1.24660320       8.77600341       8.00975416      -1.57052995      -2.20182496       1.28819481
O        1.82285817       8.37640247      12.20459245       2.64955052       3.00574482       1.10125683
O        8.40109411       1.51114297      19.33335149       0.07293943      -0.10435641      -0.89661773
O        8.04399575       1.25767730      15.69082729      -1.76908056      -0.34496317      -1.17595405
O        2.14715987       4.54477556      17.00325478       0.16683696       1.43090335      -2.08721742
O        5.26548844       7.38137732      17.71365563       0.38444196      -0.51290782      -0.43977037
O        7.16620730       5.18650378      10.90407652       1.00941985      -0.31345777      -1.47178492
O        4.77646647       2.96910234       9.72954677       0.80854250      -0.34868168      -3.19862112
O        0.36931295       7.22501381      10.60741413      -0.56638343      -0.68491660       0.01256501
O        2.77530404       9.76646080      10.02894995       0.20470998      -0.73242714      -2.44795547
O        0.20870630       2.25454429       9.86588731       1.86898965       0.32815112       2.43265730
O        7.34855815       9.17813352      24.74392558       1.51061251       0.69431441       0.43610482
O        8.79167972       8.25812983      22.57371266       1.82827029      -2.12368107      -0.65123715
O        1.39306205       0.56464742      12.14687206      -3.41377795       1.10626292      -2.03814613
O        1.07667069       1.74832107       4.66178741      -0.23975040      -2.31357348      -2.08332681
O        8.40420941       8.93721242      16.10162088      -1.25242959       1.14017447      -0.55548287
O        3.42839211       3.90193006      11.96767703      -1.82349836       0.23588331       0.88515296
O        5.87089818       6.60549077       8.76350866       1.86404065      -2.80669356       2.49203279
O        6.99553959       5.95002758      15.85025344      -0.61028516      -0.05038453      -0.53542271
O        4.16804419       3.10650112      18.36314783      -0.14770996       0.41493067      -0.84644053
O        8.69141965       3.11041499      12.31028131       0.67506913       1.15824852      -0.74717229
O        6.47000971       1.28740834       8.61004966       1.12829654       1.18857792      -0.02950570
O        0.99764253       6.47219417      15.53183690       3.95458676      -0.16710572       1.12492716
O        3.36032330       8.38071736      19.25889084      -1.85204908       3.46373076       0.66077438
O        8.52252253       3.77514153      15.04119748      -0.92216816       2.43607546       0.49398386
O        5.76624332       1.17431341       5.17645766      -0.53302710       0.94178063       0.50783980
O        1.79978921       5.75120472      12.59003100      -0.67764339       1.15948407      -0.97818388
O        3.74154407       7.78674256       8.06047416      -2.35465591       1.78714920       1.91630808
O        7.74896136       5.42577774      13.28799672      -0.15133503      -0.25110200      -0.10152928
O        4.60437830       2.64360438       7.10178601       1.63617208       0.45330225       1.98389074
O        2.03513454       4.16169361      14.52348226       1.21295779       0.83077163       0.36703504
O        5.55987436       7.42021381      20.24398077       2.70334570       0.54386183       1.63743714
O        0.53668572       1.95785683       7.25408178      -1.11069701       1.90277395      -0.38552000
O        7.57797379       9.35932197      13.60445726       1.40752642      -0.87486024      -3.05120567
O        9.62238996       7.37450263      20.24999792      -0.49524302      -0.49990458      -1.18697174
O        2.80383342       0.59604416      14.31127893       0.75403326      -1.07961049       2.08529946
80
Lattice="9.77192453 0.01751879 6.90363604 0.24348012 9.76890588 6.90363604 0.01370155 0.0133883 13.86910312" Properties=species:S:1:pos:R:3:forces:R:3 energy=-575.98940374 source_file=vasprun.xml step_index=910 time_fs=81820.0 time_ps=81.82 file_index=40 pbc="T T T"
Na       8.54946761       3.93061170      20.57262729      -0.28191081      -0.01970927       0.08856188
Na       8.09347097       0.23028647      11.49721042       0.57012040      -0.09803133      -0.83330217
Na       5.75502907       4.21341284      17.21423469       0.16451732      -0.07408173       0.07968509
Na       1.21912529       7.60848065      17.88365513      -0.14818346       0.26504155       0.24518418
Na       1.96866864       2.58843603      15.58340954      -0.06553410      -0.23842135       0.52266886
Na       5.65359737       1.19244215      14.31143382      -0.12047555       0.38134183      -0.45200501
Na       5.09469523       6.65439966      12.75932611      -0.21989402       0.53452838       0.17837951
Na       1.88357307       3.95719589       8.30010743       0.50247678      -0.05720867       0.01494414
Al       6.93711112       5.32991902       9.19840386       0.79728662      -1.57178793      -1.14666894
Al       4.33870777       2.81076678      11.55054510      -2.64746070      -0.30111620      -0.44522722
Al       2.89725751       4.68473766      18.57817969       0.13293564      -0.78398353       2.89092914
Al       5.33431082       7.31149011      16.06424581       0.92468120       0.52480399      -1.88285737
Al       0.34059679       2.38739601      11.31838933      -1.89463595       2.30723456       1.64941416
Al       7.93877057       9.56910616      23.04335962       1.99478188      -1.12741368      -1.92553715
Al       9.62850190       7.65704202      16.13491376       0.26056156       1.21091938       0.08573564
Al       1.99229210       0.51620981       4.74237355      -1.50770543       1.39371510       0.15990443
Si       2.70591068       5.53187012      15.67970843      -1.74112498       0.87624465      -1.66853634
Si       4.05598044       7.68860377      18.97119553       0.47493390       1.71615315       0.37139252
Si       6.83082961       4.41862117      12.24862870       3.58276980      -1.47545826      -1.54375188
Si       5.49883805       2.40619346       8.69522809       0.43103502      -1.15049841      -0.70196516
Si       0.98643330       7.50842926      12.32540900       1.54873783       0.55738293      -3.06250795
Si       2.62213260       9.18215506       8.63591348      -1.31419533       0.31389153       1.93538314
Si       9.05295927       2.68743962      15.40395197      -0.55016792       0.91063532       1.83228639
Si       7.29295213       0.91140654      18.82804483      -2.04790666      -2.82344605       4.38591235
Si       0.15072981       2.98525269       5.42973446      -0.48247304       2.43070682       1.19938246
Si       7.25298958       9.43827643      14.83931270      -1.17965963       1.23965323       0.41396260
Si       9.65699205       6.90952276      22.08878770       1.55856123      -1.90016223       1.22210752
Si       2.39239582       0.59464405      12.77529051       1.65922000      -1.31379901      -0.06508579
Si       7.73907560       5.44363826      15.13620025      -0.48127323      -1.86694323      -0.20604159
Si       4.51762010       2.30174083       5.82467470      -3.41335337       0.55849989      -0.77237230
Si       1.99269150       4.73825605      12.58006514       1.43815109      -1.22746959      -1.70391325
Si       5.38884286       7.92681554      21.93794316       0.73475383       0.09097361      -1.57997589
O        8.70988901       5.58685282      22.22595531      -2.15762353       0.26039886       0.93920707
O        3.73150835       1.34258277      12.38768398       1.82919948       1.50694030       0.13033620
O        1.30028686       4.17806722       5.42617019       0.47508530       0.08803676      -0.56745881
O        5.85367810       8.47177365      14.66365421       1.52648184      -1.07532997       1.05537390
O        0.54529340       4.11555235      12.10760219      -0.17298819      -1.36752029       1.64200631
O        6.65047343       8.98851175      22.03295301      -0.72916747       0.23890237      -0.72603220
O        9.13174558       6.21288886      15.17698241       0.47229296       0.58231916       0.53459103
O        3.07035104       1.71091668       5.28407752       1.57616143       0.01658097       0.60240010
O        3.17254433       6.38833754      18.88377224      -0.94509139      -1.51850315      -0.17076817
O        4.01444580       6.36377412      15.46135258       0.60103764       0.88306094      -0.88656191
O        6.74986007       3.53818578       8.53287513      -1.31608984       0.89561884       0.26222463
O        5.68767241       3.29484072      12.45245745       1.26959170       0.13071268       1.02057885
O        1.42208390       8.17241079       8.70190136      -0.34658626      -1.66569630      -1.52985573
O        1.69620557       8.92371838      12.53185836       0.68753362       0.12851800       1.19015950
O        8.34446293       2.00154496      18.60533482       2.63089685       2.97267558      -0.92815367
O        8.12731829       1.39522839      15.32884388      -0.99133076      -2.95538698       0.98040629
O        2.89195188       4.55815183      16.91401736      -0.06509526      -1.98901144      -1.65263909
O        4.89208819       7.97480518      17.57384399      -0.19111428       0.12112125       1.89502628
O        6.54973193       5.35861367      10.92252314       0.27067220      -0.26926541       1.42373319
O        4.41923124       2.57965178       9.86594714       1.01694946       0.15475509      -0.10968326
O        9.78762208       7.88817710      17.93329775      -0.71906637      -1.61287188       0.37629483
O        2.26558754       0.16249552       3.13444188       0.46462694       1.43586978      -0.93834532
O        0.36748616       2.94357940       9.73651900      -0.34243248      -0.84770449      -2.53759463
O        7.41590072       9.51907266      24.64522238       0.02351191       0.07298506       0.26465046
O        9.34403238       8.22852215      22.89593498      -1.96273839       2.42271580       0.51076215
O        1.10094350       1.11766902      12.09450958      -1.17572151       0.37563615      -0.38085878
O        0.49667128       1.72506222       4.52081697      -0.26035256      -1.20195251       0.50422870
O        8.54288838       9.02031064      15.76778332      -1.20672206      -0.77466929       0.02478645
O        3.05509993       4.03355208      11.46243344      -0.42190593       0.06553578       2.60318589
O        5.83197169       6.51230611       8.60698064       0.29086392      -1.08620920       0.61840970
O        6.55359712       5.96618105      16.05744474      -0.68183866       1.42643823       1.29837116
O        4.49556276       3.84790050      19.05939723      -0.40816349       0.32030657       0.04215255
O        8.36997311       3.59983946      11.84840551      -0.28868189       0.03936437       1.40045015
O        6.25277826       0.91272158       8.89148472       0.76645822       0.44652614      -1.08565288
O        1.35425706       6.46452444      15.95057129       0.43250225      -0.53959021      -0.02028516
O        2.79616104       8.83971450      19.16223256       0.98823497      -1.81801505      -0.45552658
O        7.87420959       3.83883233      15.64970774       0.31695837       0.90079877      -0.50659721
O        5.75443426       1.47459296       5.27542815       1.61576617      -0.25433287      -0.90420888
O        2.12501052       6.26201508      12.02903897      -0.63715637       1.94246774       0.41255547
O        4.11801300       8.62066513      22.63460158       1.20195331      -0.79112619      -0.40715958
O        6.99265036       5.24206814      13.65314739       0.07451977       0.68171857      -0.97951394
O        4.32654501       2.26270658       7.43579142       2.00473306       0.77758162       0.86772786
O        2.47858635       4.58352709      14.28910531      -1.00479192      -0.22092392      -1.49179068
O        4.98765101       7.65879998      20.34761718      -0.10445211       0.74188918      -1.02799428
O        0.16823136       2.75813891       7.18817588       0.34133267       0.26438783      -2.81052446
O        7.71096124       0.15809086       6.49615497      -1.26684302       0.28294472      -0.67876006
O        0.40760647       6.92604785      13.67075561      -1.89886841       0.06378427       0.28443686
O        2.32848172       0.56638516      14.40665456      -0.25506834       0.45507429       0.61398183
80
Lattice="9.77192453 0.01751879 6.90363604 0.24348012 9.76890588 6.90363604 0.01370155 0.0133883 13.86910312" Properties=species:S:1:pos:R:3:forces:R:3 energy=-575.42736833 source_file=vasprun.xml step_index=445 time_fs=30890.0 time_ps=30.89 file_index=15 pbc="T T T"
Na       3.48777700       2.22721902      14.85676660       0.11116427       0.34361844       0.34054016
Na       7.82211330       4.24500158      17.71895652      -0.38248352      -0.08048022       0.15356328
Na       2.74265760       4.35346518       9.18001094      -0.21768821      -0.08727493      -0.30384295
Na       1.55429744       7.95780304      17.76337806      -0.16213433      -0.19750094      -0.27942637
Na       8.66280638       0.53990661      10.50451916      -0.01631004      -0.07414025       0.49449592
Na       9.24230795       3.41225063      21.52548816       0.11302544       0.03435750      -0.28096380
Na       6.29310331       7.82031372      10.81265795      -0.39375078      -0.97225835       0.25450946
Na       4.30646232       8.75641922      13.40402176      -0.76451707      -0.42301672       0.21664836
Al       7.40023528       5.25253847       9.01644543      -4.42777023      -0.72050872       1.53890299
Al       4.60062196       2.84872404      11.47979796       0.68743475       2.21686737      -0.83688137
Al       2.73946704       4.53221101      18.14176967      -0.49148453       1.03995941       0.33561768
Al       5.45887357       7.05177098      15.83112195      -0.38666004      -0.54169753      -0.61341372
Al       0.80479262       1.89572315      11.34081882      -1.96914542       1.26106923      -1.28520216
Al       7.92211262       9.31763056      22.58298656      -0.35288746       1.67388859       0.65581527
Al       9.83464230       7.69349144      15.96019547      -1.25959716      -0.87745239       0.92393148
Al       2.23195438       0.34776112       4.68174375      -0.35241332      -0.45166867      -0.29213107
Si       2.76607566       5.58637738      15.11739068      -0.37346275       2.39993295       1.55951628
Si       4.32544723       7.18271439      18.86685524      -0.07892025      -1.99887081      -1.83029870
Si       7.43384725       4.19889897      12.17825615      -0.23280363       0.92743413      -0.87861985
Si       5.99563077       2.52022488       8.42402052      -2.71847993       4.31147322       0.27413922
Si       0.83325908       7.48370539      12.04113393       3.30525903       1.33143414       1.44181772
Si       2.84628518       8.87717064       8.55022606      -1.86255382      -0.79692167       1.79929621
Si       9.33299361       2.40813955      15.49621024      -0.35441542       1.34467881      -2.59150614
Si       7.37647049       0.90249302      18.58309704      -1.97694727      -0.72165574       0.41625142
Si       0.29714382       2.78132138       5.53079247      -0.99522721      -2.85922411       0.34386312
Si       7.25117558       9.52566958      14.70737236       1.67223666      -0.34389822      -0.66561942
Si       9.81672114       7.04503098      21.94874185       2.02051876       2.24729938       0.65727672
Si       2.88925156       0.29899340      12.64712332       2.71265163      -0.66255526      -3.38796427
Si       8.06136470       5.31452648      15.08485184      -0.36471636      -2.79907843      -2.13198416
Si       4.78903129       2.29291895       5.51870471      -6.46463263      -0.89966324       1.63529644
Si       2.09328351       4.58153997      12.29937325       0.58912433       2.40905935      -3.63279486
Si       5.66888760       7.49446562      21.63971686      -2.64174105       2.07011415      -2.46797805
O        8.81246282       5.86752835      22.32254357       2.81505325      -0.54120809      -2.21414746
O        3.86284128       1.70779482      12.54348904      -1.86805132      -2.93744078       1.03183618
O        1.31843537       3.86225638       5.11662021       1.87317075       2.07806275      -2.15912193
O        5.96922968       8.54481288      14.77627343      -0.37460258      -0.49022034       1.66769634
O        1.23189148       3.29044364      12.37696605      -3.35157003      -2.90225526       0.67887614
O        6.76524708       8.64536279      21.48000439       0.58555837       0.33693302      -0.15569710
O        9.34799423       6.08930622      15.46053054       1.59088844       1.44682773       0.91858238
O        3.77922291       0.83837189       5.34514414       1.16137498       1.93601330       0.25796133
O        2.97842996       6.26451117      18.70049041      -0.78430576      -0.28927418      -0.01587814
O        3.93993365       6.64893206      14.87501636       2.51556297       0.41440699       0.61085675
O        6.98544953       3.82874125       8.01400172      -0.12455866      -0.80384456       0.66810427
O        6.01494198       3.42915517      12.32877000      -0.07499131       0.46340007       0.53968872
O        1.71211785       7.59740283       8.52792867       1.66237211       2.61092619       0.39352735
O        2.28348872       8.39532926      12.04226988      -1.24397657      -0.44545952       0.43833591
O        8.78811704       1.60430717      18.48797452       1.13694766       1.00707380       0.54179385
O        8.40777428       1.09210721      15.57134445       1.07443445       1.68867206      -0.95465132
O        2.62914561       4.50197495      16.29729567       0.45915654      -0.90755226       0.75038080
O        5.15980262       6.78267963      17.52838797       0.41047342       1.13156576      -0.10361662
O        7.57459337       4.92252456      10.68913845      -0.75458332       1.01253912       1.07434880
O        5.04523487       2.79764719       9.74180709       0.39828105      -0.62245385      -0.22722821
O        9.59105135       7.88965439      17.83584817      -1.51459492       1.42914321      -3.39709361
O        2.44681696       0.22157878       2.92558739       0.15842556      -1.05611543      -2.66128585
O        0.69416728       2.68884886       9.70139813       1.07888639      -1.21249276       1.54751504
O        7.24267695       9.65867481      24.26398842       0.07116803      -0.09857870       0.24569142
O        9.27424358       8.34006514      22.70453507       0.99277719      -0.84128566       1.60500843
O        1.63439905       0.37599908      11.54716508       0.70781216       0.45997882       1.10589389
O        0.72329463       1.19165649       5.06727418      -0.30637633       1.37858002      -0.42228617
O        8.58078303       8.85260329      15.38608228       0.18807604       0.61964473       0.20008275
O        3.32388465       4.14997192      11.35490148       0.80387778       0.09725490      -1.01659021
O        5.95167448       6.45784906       8.89151976       2.15433938      -2.87934996       1.91412043
O        6.72445593       5.85637259      15.72900346      -0.50629562       0.06670662       0.26039854
O        4.06487418       3.56813821      18.64392361       1.00277292      -1.00710758       1.06386835
O        8.51264289       3.02837196      11.85775128       2.03549665      -1.73287200       0.69070891
O        6.93614906       1.29174064       8.55928273       2.09674948      -4.04479301       0.03576030
O        1.64319243       6.82540019      15.66902150      -1.96706788      -1.70826320      -1.82915106
O        4.10472560       8.76502124      18.85670550      -2.29287842       3.58268233       1.13027981
O        8.31458862       3.70695463      15.57656021      -1.42074123       1.15200115       0.79914249
O        6.07078767       2.10411407      18.56022325       6.11733074      -1.81047807      -1.47648323
O        1.27173391       5.97597401      11.62946892       1.42505537      -3.67706300       1.54367145
O        4.32338439       8.30816537      22.19234527       0.36846363       0.07259922       0.76360172
O        7.91632876       5.22997804      13.43290654      -0.86755412      -0.93445038      -1.65464784
O        4.92375010       2.28120386       7.20483868       0.21853128       0.36210692      -1.56539968
O        2.73888377       4.73883170      13.71712520      -0.26168910       0.87894744       2.95005879
O        5.09052178       6.85324933      20.22134444       1.73702399      -0.65299056       1.89865883
O        0.33021965       2.86016178       7.13501454      -0.59711857      -1.44112195       2.21479951
O        7.50220104       9.74940766      13.06822810      -0.34302963       1.00030059      -0.59618435
O        9.92784161       7.65124615      20.43183828      -0.02198514      -1.48569778      -0.55392097
O        2.58308124       9.75823982      21.02829752      -0.14072620       1.21662308      -0.12047770
80
Lattice="9.77192453 0.01751879 6.90363604 0.24348012 9.76890588 6.90363604 0.01370155 0.0133883 13.86910312" Properties=species:S:1:pos:R:3:forces:R:3 energy=-575.58341884 source_file=vasprun.xml step_index=355 time_fs=46710.0 time_ps=46.71 file_index=23 pbc="T T T"
Na       7.72093754       7.19418837      18.63322276      -0.04648975       0.14252161      -0.03508870
Na       4.11470864       3.03091937      16.03857247      -0.28128054      -0.51901115      -1.16771819
Na       5.20814954       6.35983360      11.35865078      -0.11049499      -0.04917999      -0.02749587
Na       3.04209660       9.12382306      14.38559237       0.41160239      -0.21126470      -0.28906142
Na       8.71135097       3.38390721      21.09680732       0.44652028       0.34670494      -0.16273179
Na       8.87728957       1.17570362      10.51647240      -0.29841734      -0.22350384      -0.02075221
Na       0.55811591       8.42780240      17.91183118       0.02423405       0.23614496       0.23028909
Na       2.45505878       3.43624183       8.42366472       0.44995016       0.02539801       0.16063120
Al       7.30388700       5.43562952       9.11959273       0.98900568       0.05077896      -0.36055918
Al       4.80209786       2.92820202      11.31644147      -1.62498631      -2.22309401       0.47602452
Al       3.28718083       4.62849234      18.41040899      -1.68156399      -1.09724020      -0.95698780
Al       5.64747458       7.06581355      15.91577186       1.44495354       3.32643745       2.22719213
Al       0.48758037       2.03009115      11.58261463      -0.09064343      -1.99079091      -0.28411568
Al       8.20124255       9.77083556      22.74764118      -1.97522489      -1.76622083       0.03010844
Al       9.72103150       7.81848014      15.73828385      -1.10309239       1.95650761       0.16724251
Al       2.27828881       0.45841529       4.62812664      -0.67017015       0.87567448      -1.34043986
Si       2.69627025       5.76079982      15.40854362       0.88463564      -0.55296763       0.23636814
Si       4.46794438       7.38327131      19.00964229       3.17552301       4.69130538       1.11128904
Si       7.59036296       4.25716114      12.14507785       0.22268864      -2.53125708      -1.28493314
Si       5.64777424       2.74582874       8.31512198      -0.71788263       1.45743231      -1.38564759
Si       1.08216167       7.40758519      11.86040399      -1.50863393       0.08679637       0.61715523
Si       2.78955535       9.20644640       8.57950876       2.87953939       0.57111464       0.40707812
Si       9.25271724       2.41757989      15.33162496       4.94643806       3.62808114       0.99348466
Si       7.59086972       1.04726705      19.00603744      -2.94653299      -5.55376037       1.12281342
Si       0.77441544       3.08438046       5.68869784      -3.02387910      -4.51631756      -1.17146040
Si       7.21919372       9.65717977      14.85047542      -0.04570433      -1.37433966       0.63445641
Si       9.65317274       7.10170079      21.58659726       0.17665579       0.28503645      -0.86767505
Si       3.06185910       0.30866579      12.57116873      -3.79368442       2.50623776       2.53076366
Si       8.02234828       5.29925913      14.95720453       0.06829994       1.18035929      -1.80398869
Si       4.68291146       2.05750815       5.48673886      -1.84183347       0.10396751      -0.93480576
Si       2.37485380       4.42078189      12.60717586       2.09959142       2.16038668      -1.02407571
Si       5.57602584       7.98584459      22.09728516       0.87409870       1.07842881      -0.17024016
O        9.01530293       5.66336917      21.83197003      -3.75752769      -1.22633032       1.79181855
O        3.90633099       1.55609980      12.14849829       2.16824580       1.01999287      -1.65750040
O        1.83226120       4.17924648       5.46907271       1.75569649       1.15502403      -0.22845379
O        5.89598202       8.70715109      15.04894328      -0.10821094      -0.84855927       0.50864546
O        1.22101753       3.33534681      12.31066099       1.38712008       3.27951137       0.93089336
O        6.76706976       9.13383430      21.89974347      -1.22363898      -0.26072494       1.36322429
O        9.17653833       6.51574183      14.85055862      -1.49906794      -3.27403298      -0.63403155
O        3.68242351       0.78632174       5.65236794      -1.18218523      -0.02327812      -0.33702087
O        3.97635450       5.97157579      19.13301585      -2.11872122      -3.66789100       0.66497398
O        4.18516675       6.51197941      15.45681472      -4.54467456      -0.74423036      -1.23894342
O        6.72873326       4.00339842       8.07774544      -0.71145080       0.35471280       1.71466187
O        6.30429445       3.31550961      11.94547609       1.15114769      -1.26817199      -0.06670647
O        1.51594155       8.29524042       8.45300915       0.35844000       0.18813953      -1.25902615
O        2.02687696       8.70667882      12.21735841      -0.46630222      -1.33874431      -0.33939352
O        8.64423858       2.08070171      19.30272768       3.17097989       3.68995954       0.75906497
O        8.37823910       1.32198819      14.83581530      -2.65596517      -3.78819812      -1.29394679
O        2.51354690       4.97679946      16.83361486       0.57941258       0.15261612      -0.59462359
O        5.62725835       7.40174434      17.87613303       0.10659570       0.43777652      -2.11693905
O        7.57274319       5.21852322      10.91040262       0.15940474       1.82025190      -4.08050560
O        4.56417599       2.75264804       9.52426089       0.67348802       0.40561974       0.51964558
O        9.90617598       7.46844300      17.38815667       1.02902911      -0.69070777       3.56495019
O        2.48576820       0.57716746       2.82057038      -0.43333223       0.18300416       1.93923436
O        0.35527338       2.08268623       9.80293176      -0.05451665       0.35341688      -0.10293940
O        7.87674847       0.33545561      17.63006563       1.31123452      -1.62980450      -2.64076931
O        9.26450080       8.37720131      22.47051155       0.52183972       0.30227745       1.17053732
O        1.41693205       0.70503324      12.33274661      -0.17293743      -0.52817899      -1.35476669
O        0.82120412       1.49865334       4.89730045       1.70683803       2.22485085       0.92560463
O        8.41109293       9.16451727      15.85386212       0.89111260      -0.17299124       0.33786982
O        3.89131708       4.24987107      11.87055315      -2.94509638       1.47242939       0.34327357
O        6.19599004       6.81316856       9.25122015       0.29257300      -0.89877301      -1.05991004
O        6.75672250       5.81364150      15.79073721       1.00945111      -0.66317370       0.74493284
O        4.23292731       3.11836085      18.12119752       0.21621050       0.22674383       2.11768103
O        8.97855967       3.39240488      12.17568375       0.03344439       0.36120531      -0.34194943
O        6.63574826       1.47791088       8.30586865       0.37823651      -0.69736596       0.19726764
O        1.40991553       6.72195943      15.06605690       3.01356047       0.65993798       0.54501591
O        3.30953345       8.65000991      18.74631721       1.78226813      -2.98348328      -0.16777262
O        8.39141830       3.76137764      15.40322768      -0.25908515       2.17884370       0.70497685
O        6.02977203       1.36130189      18.86678645       0.28759770       1.34825617       0.33946592
O        2.04124802       6.08704945      12.10967587      -0.60968347      -1.37538849      -0.00940389
O        4.13260835       8.22385328       9.05515109      -0.29117149       0.48894419      -0.96606818
O        7.37884907       5.12565276      13.40224527       0.40033960       1.89181033       3.60248658
O        4.56000392       2.75324697       6.97187171       1.57237445       0.45755033       0.98121886
O        2.79760637       4.60255732      14.20079757      -0.65132206      -0.08749508       0.50287538
O        5.30173340       7.64120159      20.49936624      -0.96541741      -0.24541280      -0.88098078
O        0.70457303       2.73624105       7.27281490       0.00897233      -0.23547783       1.91321141
O        7.83872598       9.62858297      13.36416648       0.16068301       1.29466567      -2.36694971
O        9.55740495       7.46377793      19.96626633       1.24803090      -0.22930068      -0.76779164
O        3.12088818       0.35075202      14.27504176      -0.02431692      -1.16437562      -1.36718604
80
Lattice="9.77192453 0.01751879 6.90363604 0.24348012 9.76890588 6.90363604 0.01370155 0.0133883 13.86910312" Properties=species:S:1:pos:R:3:forces:R:3 energy=-576.0288672 source_file=vasprun.xml step_index=790 time_fs=81580.0 time_ps=81.58 file_index=40 pbc="T T T"
Na       8.69360764       3.90403612      20.59734189      -0.38666773       0.04971706       0.04651831
Na       8.53188638       0.56647395      10.84123619       0.22607322      -0.29773958       0.06876739
Na       5.63925902       3.34560553      17.55733301       1.36113094       1.00514269      -1.82778048
Na       1.08883098       8.61991800      17.57121667      -0.37091460      -0.13230916      -0.30786665
Na       2.07412663       2.57476700      15.71593433      -0.02738498      -0.27470308       0.05972646
Na       5.79909069       1.72768160      13.89600092       0.58474262      -0.42813672       0.40342651
Na       4.43854987       7.52943387      12.65825010      -0.13325329       0.01111532       0.24616309
Na       1.60041837       5.23057612       7.91037463      -0.02487359       0.55352221       0.46281122
Al       6.88288696       5.30167226       9.03577110      -0.07260921      -1.75927020      -1.83111597
Al       4.39895838       2.74650204      11.56969769      -0.29542854       2.23420844       2.75013109
Al       2.90944821       4.72756971      18.82350256      -0.06261478      -0.82312253      -0.93697615
Al       5.30672293       7.13928368      15.99870183      -1.93098647      -1.02145793       0.70625941
Al       0.41058452       2.26087226      11.55872733      -1.31724603       1.64278412      -1.18144196
Al       7.81298883       9.55910618      23.14624139       2.17876280      -0.78878261      -1.03473636
Al       9.54382465       7.55417985      16.17451386       0.93611737      -0.14895205      -0.69700178
Al       1.97941734       0.77664011       4.65692713      -0.94825631      -2.17961002       3.24642216
Si       2.49825516       5.55902147      15.57959565      -0.20752473      -1.06303925       1.69201350
Si       4.34045605       7.56609033      19.04980422      -2.32395787      -0.89347460       2.43313938
Si       7.32080224       4.31167682      11.87471051      -3.18129482       0.51895558       2.71939849
Si       5.61508774       2.26146868       8.70727866      -0.93853139       2.34366191       1.41847506
Si       0.61140587       7.63711163      12.54134758       0.87750395       1.69269016      -4.35299510
Si       2.49151046       9.03288604       8.77336065      -0.02697757       0.01044839      -0.70588633
Si       9.00047722       2.45109103      15.34310580      -0.42058105       0.58907636       0.43610426
Si       7.45893807       0.91232775      19.11888588       0.10642172       1.62697780       1.69733860
Si       0.25468245       3.44561946       5.48734266       2.68107811      -2.71332766       2.56012459
Si       7.08479775       9.40021149      15.00813508       2.77423292      -2.86026455      -1.89329289
Si       9.47275592       6.91195877      22.12865992      -2.50635659      -0.50468435       0.67777157
Si       2.52859745       0.33929576      12.70481890       0.05368183       0.18676064      -0.28806462
Si       7.65822763       5.38687640      14.91489991      -0.99107273      -4.07145979      -0.57927636
Si       4.56346008       2.05966372       5.84447435      -0.07752133      -1.01639478      -3.52781161
Si       2.16707256       4.83756031      12.70458148      -1.42583194      -1.70717962      -1.39775642
Si       5.32224307       7.86325221      22.02882690      -1.38639149       1.35500282      -0.24129629
O        8.49040846       5.56215779      22.13124747       0.70310180       0.66545097       0.67843590
O        3.73616094       1.44983582      12.69945565       0.69092403       0.87172121      -1.04101211
O        1.34696646       4.61663307       5.85131473      -0.28083437      -0.65672528      -1.07533529
O        5.81993270       8.39363592      14.95998784       0.01214597       0.75059668      -0.32757245
O        0.80896509       3.94618053      12.36650691      -0.15557690      -1.25265931      -0.70145009
O        6.31420149       9.17215394      22.44424892      -2.01504198      -2.09520926      -0.20695560
O        9.06588204       6.04808058      15.33033969      -0.03051089       0.95689242       0.28179241
O        3.53408928       0.89357481       5.39225030       0.61718988      -0.06910711       0.30867151
O        3.52525137       6.15920563      19.43945717       1.33579187       2.29728083       0.20954542
O        3.84227490       6.28855296      15.30969764       1.27485908       2.38910293       0.08092264
O        6.61422577       3.54625003       8.38913655      -0.43376086      -0.21670042       0.92424142
O        6.08962622       3.26239554      12.15525233      -0.41247269      -1.57702247       0.42387280
O        1.43384625       7.83356886       8.63484190      -1.79406181       0.07776335      -0.12641274
O        1.18744161       9.20107987      12.40253798       0.77111887      -0.63812900       0.71172109
O        8.58433691       2.09582936      19.22953920       0.28444111       0.78699065       1.76866502
O        8.02742308       1.15610566      15.23216313      -0.04699178      -0.46841061      -0.43649104
O        2.49711035       4.70949735      17.05574648      -0.01722956       0.13085184      -1.54685441
O        5.14467393       7.40030676      17.73497848       1.47265357       0.08077448      -2.31778570
O        6.83125356       5.19042982      10.70530905      -0.58550449       2.08050379      -1.00425958
O        4.56262765       2.27277373      10.01843973       1.39640017      -0.49457404      -3.97165732
O        9.75101405       7.61861898      17.85541002      -0.31393343      -1.04161679       2.88710473
O        2.13417500       0.39668174       3.04818997      -0.16875010      -0.45178144      -2.75309587
O        0.28182465       2.26998675       9.73936442      -0.69246204       0.94146995      -0.94635384
O        7.98922512       0.33322203      17.79740786      -0.39170106      -2.43844801      -1.84177180
O        8.93813541       8.07336223      23.10486418      -0.23372578       0.72742387       0.34449991
O        1.19574180       0.73366038      11.79546097       1.47820273       0.36356119       1.61098388
O        0.99324013       2.11826811       4.86626911      -0.62146186       1.86336768      -1.53336110
O        8.46028696       8.86920257      15.83550939      -1.83414937       0.73864454      -0.99905599
O        3.35023549       4.25330458      11.79800363       1.18962436      -0.54384662       0.00658723
O        5.56044916       6.26507039       8.43520569       0.71660015       1.44591892      -0.11090611
O        6.17315745       5.76062320      15.53577340       3.64326492      -1.21788165      -0.22605192
O        4.24715411       3.50009854      19.03187913      -2.12887474       1.04924654       0.26617168
O        8.75248947       3.76727598      11.51469434       1.03341453      -0.92735949      -1.55141418
O        6.50554156       0.91042833       8.96369936      -0.05809286       1.75383338       0.33811729
O        1.26531348       6.64455639      15.57107444       0.02431847      -0.26083760       0.24499666
O        3.08982009       8.68027023      18.80302918       0.53805079       0.23877280       0.75835998
O        7.84696881       3.67326936      15.49430773      -0.16464770       1.93177888      -0.14362531
O        6.05561735       1.78742118      18.90912281      -0.61112720      -0.93233670       1.20812583
O        1.91242485       6.45049974      12.50806183      -0.84050250       1.27356962       0.60592517
O        3.79850392       8.10684526       9.00429062       3.18615418       0.12999988      -1.19038620
O        7.51334937       5.23062130      13.21990002       0.35791618       0.67181089       1.99977431
O        4.67913117       2.15122159       7.37186108       0.30143112      -0.47761995       3.11004340
O        2.34947938       4.48916106      14.30216052      -0.14232822      -0.08695801       1.86456919
O        5.17977946       8.17597698      20.34245774      -0.17624929      -0.63825231       0.91595809
O        9.61427405       2.72178952      13.80464562      -0.27835264       0.51227360       1.73876211
O        7.51586327       9.49711791      13.32035132      -0.51809652       1.26520784       1.60775837
O        9.23864967       7.43570051      20.60696032       1.53518043       0.18493861      -1.84326612
O        2.29772953       0.28645793      14.36115222      -0.34970120      -0.82883706       0.18108638
80
Lattice="9.77192453 0.01751879 6.90363604 0.24348012 9.76890588 6.90363604 0.01370155 0.0133883 13.86910312" Properties=species:S:1:pos:R:3:forces:R:3 energy=-577.22394991 source_file=vasprun.xml step_index=345 time_fs=40690.0 time_ps=40.69 file_index=20 pbc="T T T"
Na       8.58658530       2.31061980       9.46720449      -0.00311325      -0.32589128       0.08314899
Na       3.59320702       2.46582775      15.40433906      -0.19733975      -0.10533026      -0.19515985
Na       7.60511953       7.20559426      11.78303961      -0.45676882      -0.45998560       0.33979978
Na       1.19432013       8.35119356      17.26907954       0.81268632       0.22103299       0.07184416
Na       7.39776250       8.80970293      18.24965571      -0.19985087      -0.28806069      -0.00297500
Na       7.35550033       4.17773102      18.47657814      -0.22696866      -0.23528521      -0.01087507
Na       1.80616979       6.24157056       6.75869931      -0.03119319       0.10876851       0.26297388
Na       2.33800376       2.54659980       8.27469352       1.40492397      -0.22936190      -0.14036564
Al       7.28808000       5.15693229      22.48470806      -2.60159679      -1.89272484       1.37295312
Al       4.78148375       2.70489324      11.27772828      -0.72937713      -2.18034165      -1.04167576
Al       3.36297499       4.57531317      18.27726098      -0.19432893      -0.66363341       0.91715071
Al       5.71257736       6.92825514      15.81315754      -2.18906813      -2.03116709      -0.30366439
Al       0.48951127       2.36721589      11.21296381      -1.72220134      -1.81242514       1.17290107
Al       8.08622663       9.24529729      23.02782737      -0.99340091       0.73236463       0.28156874
Al       9.84782507       7.60461088      15.97173911      -2.98060312      -0.25276948       1.52780238
Al       2.15469445       0.44466997       4.19174145       1.50727369       3.73985874       0.27576756
Si       2.81648864       5.38762106      15.31946703       0.31753691       0.95296149       1.42395494
Si       4.40262506       7.44566563      18.74766293       3.99869225       1.26003423      -3.05909096
Si       7.47324223       4.20032171      11.77934378       1.38718230       1.66230051      -1.28099388
Si       5.62941317       2.38295569       8.33396062       0.08608389      -2.74309312      -1.66767303
Si       1.33149015       7.40299712      12.03591189      -1.33143611       1.21142157       0.71442895
Si       2.80250836       9.03780751       8.35274610       0.22942567      -1.06857139      -3.64976116
Si       9.25066416       2.36548496      15.18421928      -0.42717930      -1.80783335       2.86088096
Si       7.60833462       0.58797966      19.05355725       0.59253253       1.10398644       1.15800321
Si       0.62066810       2.94146934       5.34986470      -1.77676459      -3.20439640      -1.09190875
Si       7.33931445       9.32360245      15.05382058      -2.29871452       0.75017637       2.52217699
Si       9.78352627       6.91043900      21.83294839       1.64503610      -3.10563638      -1.45103773
Si       2.87613376       0.33204903      12.15402350      -0.14428578      -0.34782202       1.36069042
Si       7.97672134       5.16609458      14.75099910       0.86886142       1.78014486       0.70939038
Si       4.78817446       2.11674728       5.29050786       1.33000945      -2.83530508       3.50025640
Si       2.32030816       4.51592909      12.36696552       0.97272626       1.27454890       1.72137226
Si       5.54310889       7.56354229      21.71417942      -2.25039961      -0.26410415      -1.77773972
O        8.75263231       5.58023299      21.83282740       2.72713536       1.99621862      -0.77021547
O        4.27983195       1.10896098      12.17717623       0.77591380       2.13706502      -0.87625290
O        1.88491381       3.85160799       5.23522045       1.85812165       1.65861881       0.73665870
O        6.08461716       8.31122164      14.94001453       0.71670047       0.59065577      -0.58387329
O        0.91693378       3.77243850      12.05344137       0.45123749       1.89661273       0.32847817
O        6.57439956       8.49225964      22.47916892       0.64982963       1.16685444       0.01558296
O        9.11363926       6.38965600      14.83922861       1.12033479      -0.69772329      -0.24021245
O        3.67153389       1.02513679       5.06301119      -2.12217773      -0.00956212      -2.26144713
O        3.47140508       6.20003188      18.94874966      -1.76397641      -1.48605880       0.97575807
O        4.14322322       6.23845567      15.24879123       0.85131692       0.95677270      -0.42833507
O        6.79848346       3.40792409       8.08107880       2.27516612       2.63273066       0.63031121
O        6.50360528       2.94893031      11.53426924      -0.04682457      -0.02843017       1.06942279
O        1.44130199       8.20338145       8.30293617      -0.67603326      -0.61426009       0.37023777
O        1.97835615       8.93227794      11.97907096      -1.25692358      -4.96094397       0.91151940
O        8.62188636       1.84493083      18.87344614       2.40236323       0.35991030      -0.73687522
O        8.32174040       1.07528900      15.53274623      -0.30996345      -0.32176520      -0.66986782
O        3.07507409       4.35663455      16.62011976      -0.85657506       0.01747411      -1.34564132
O        5.51329896       7.09137505      17.49485739      -0.85925872       0.94727332       3.18879198
O        7.33620853       5.22956166      10.48541216      -0.26208307       0.00897707      -0.24027640
O        4.55667913       2.65053467       9.44579216      -1.22598205       0.47890022       2.62416470
O        0.24827210       7.06919475      10.80787789       0.94655929       0.51319242      -0.36406957
O        2.70061320       0.43735588       2.49966188       0.01522258       0.57762470       0.81687584
O        0.57323051       2.43311508       9.49699011       0.06552175       0.14249582      -0.37154347
O        7.96220294       9.17604313      24.85276452       0.49633191       0.12841993      -0.90822066
O        9.34935013       8.10280795      22.74631755      -0.68832085       1.16349648       1.33074417
O        1.51625184       1.04605045      11.60358176       1.68871108      -1.78626009      -0.13966089
O        0.69265465       1.53987679       4.40198747       0.59053384       1.51432534       0.40867138
O        8.45576648       8.87482196      16.15912593       1.15488769      -0.65982376      -0.26792541
O        3.55280207       3.79871330      11.65271567      -0.36200889       0.91298222       0.23717861
O        5.91989780       6.00560070      21.84078893      -0.32486140       0.61642652       0.05327944
O        6.85505817       5.59855148      15.77127203      -0.84040223      -0.09468232       0.26031603
O        4.81165333       3.64833538      18.73782339      -0.43306779       1.64135663      -1.28251187
O        9.09186636       3.80304862      11.63196718       0.04952988      -1.05816181       0.80770207
O        6.46054043       0.97748372       8.82693281       0.70983677      -0.15312628      -0.50397459
O        1.50416092       6.42997465      15.65728986      -0.46245577      -0.71646173      -0.73441947
O        3.52241095       8.69854655      18.09400790      -1.67575850       0.92761260       1.79413804
O        8.46254533       3.73148893      15.35022673      -1.13342136       1.18075507      -0.85153176
O        6.30372008       1.49404351      18.88304221      -2.11143044       0.35574796      -0.70246450
O        2.49670658       6.22989083      12.19947647      -1.41751167      -1.20359062      -0.27038857
O        3.86926192       7.76676255       8.30376327       2.08967924       0.41940858       0.06388272
O        7.50803574       5.17351975      13.16049461      -0.59455280      -1.04260581      -0.78576152
O        4.74111320       2.07152808       6.97589138       0.14109808       0.82738741       0.69291971
O        2.64940178       4.37460272      14.05810609      -0.93092606      -0.51881952      -1.08017247
O        5.41918329       7.91395637      19.96945490      -0.17248624      -0.25140266       1.70301693
O        0.38215478       2.39732999       6.97807409       1.02852886       0.58951629      -3.23219336
O        7.87907818       9.53696652      13.59880480       1.45474117       1.15919319      -3.92748491
O        0.31689664       7.53854553      13.45348657       0.66987856      -0.99513877      -1.13611885
O        2.69708191       9.74244522      20.68749593       1.20098490       0.13069878      -0.91316249
80
Lattice="9.77192453 0.01751879 6.90363604 0.24348012 9.76890588 6.90363604 0.01370155 0.0133883 13.86910312" Properties=species:S:1:pos:R:3:forces:R:3 energy=-575.90106994 source_file=vasprun.xml step_index=500 time_fs=9000.0 time_ps=9.0 file_index=4 pbc="T T T"
Na       6.25996179       4.36305272      17.10755299      -0.40841497      -0.44369524       0.58312589
Na       7.97793955       0.35015603      12.68165010       0.02684879       0.27033567       0.17625425
Na       2.72143296       3.16003669       9.05983343       0.52453092      -0.15447903       0.01707120
Na       7.48859965       7.71477980      11.47652421       0.29523161       0.21350310       0.30868918
Na       8.86341919       3.85719419      20.58630147       0.30792634      -0.11815394       0.17404006
Na       4.58944894       1.92203964      15.09342661      -0.25214202      -0.12125534      -0.17207556
Na       1.72126159       6.64523329       7.02032719       0.19258551      -0.50940409      -0.80195570
Na       4.02671291       8.88090243      13.61516965       0.26127477      -0.75744766       1.01008815
Al       7.50412629       5.64642334      22.74121657       0.89431748      -0.86428420       2.04720052
Al       4.99717448       2.86145383      11.55860554       0.03494104       0.00673414      -0.75079929
Al       3.39304078       4.68150765      18.32964141       4.79528180      -0.10871808      -2.98273695
Al       5.77862111       7.31687300      15.88669368      -0.18724642      -0.60194140      -2.23231745
Al       0.81029638       2.31256011      11.42477261      -0.10729685       1.02535072       0.55201551
Al       8.30275032       9.66528429      22.72489976       2.22346560       1.23401099       1.86909163
Al       9.84680200       7.77298275      16.16820605      -0.59836590      -0.82355542      -0.49512376
Al       2.63630789       0.41564996       4.50043527      -0.15978705       3.87039643       0.46130388
Si       3.27994002       5.83756713      15.12424441      -0.01890211      -3.55588634       1.69427071
Si       4.81052541       7.42205494      18.97642263      -0.99798633       1.33135114      -1.22206586
Si       7.77132275       4.46980296      11.96781733       0.16948465      -2.42733304      -2.18435038
Si       6.18208551       2.65880197       8.54099002       1.78019215       0.33363685      -3.74100684
Si       1.16193479       7.58928333      12.14191709       1.41478491      -6.55138772      -1.72238249
Si       2.91002010       9.20120052       8.50332032      -0.15486596       0.26518819      -3.19790249
Si       9.56959582       2.65836386      15.26436786      -2.01659300      -2.21081316      -3.25775849
Si       8.00443228       0.94106097      19.08636287      -2.28303288      -3.77118773       1.43703409
Si       0.99283715       3.21777927       5.46050125       0.46900319      -1.72148351       2.04830409
Si       7.45159006       9.58585848      15.05649630       1.47478540       0.10336363      -1.66795817
Si       0.32202799       7.05668035      14.84432783      -0.80845179       4.53236586       2.78642556
Si       3.06309988       0.50491757      12.49683557      -1.28303744      -0.63651727      -1.30143248
Si       8.11666425       5.40606105      14.80222491       0.08504236       2.68517450      -0.08439542
Si       5.08788163       2.15072312       5.62672325       0.11738084       0.06572414      -0.56541476
Si       2.60881027       4.57392669      12.54415691      -1.00812510       1.21252813      -4.32363297
Si       5.80873440       8.21611010      21.68926193       1.76623785       0.50647661       0.54251049
O        9.03217315       5.92192422      21.88427156      -0.94065844      -1.45654575      -0.42079415
O        4.35659232       1.47704946      12.50540010       0.91347556       0.96710748      -0.11449044
O        2.05400083       4.42749299       5.32419477      -4.23267522       0.30881360       2.25703564
O        6.03787692       8.83696113      15.03847748      -0.43431828      -0.14435893       0.62876010
O        1.18937107       3.83030229      12.30303911      -0.20051775      -0.92921977       0.53216210
O        6.65925678       9.66008679      22.13867434      -1.47342804      -2.20932996      -0.93872594
O        9.38527223       6.52629049      14.92090596      -0.59952782      -1.78287467       0.17093624
O        4.06938946       0.84863123       5.58274814      -0.22326136      -0.11262965      -1.32514436
O        4.07311000       6.00295711      19.23689822       0.42746259       1.71883613       0.81596228
O        4.31457011       6.98954772      14.82049535       1.10586349       0.39479270       0.58420044
O        7.13517340       3.97971944       8.52864415      -0.04292039      -0.03924717      -1.17499902
O        6.61484813       3.25824379      12.14439382       0.90616591       1.20978524      -0.03747412
O        1.65643732       8.18680175       8.57686592       0.07234023       0.63897225       0.19975693
O        1.92669602       8.86743064      11.89907992       3.46904743       3.51737502      -0.46142270
O        9.17317227       1.93513883      19.21905430       0.97108212       1.75704858       1.29005389
O        8.69419809       1.29857354      14.78202631      -0.15242397      -0.01251939       1.72692766
O        3.70470519       4.79515269      16.51288109      -1.17325459       2.00809929      -1.22437094
O        5.43316989       7.37836420      17.49050679       0.05343376       0.14185459       2.21848944
O        7.69415199       5.60247709      10.77178719      -0.08658656      -0.82267398      -1.49589820
O        5.38512694       2.62665808       9.82798605      -2.94943242      -0.78157243       3.16533797
O        0.32339645       7.15019404      10.87491402      -1.29748336       0.07771353      -1.08961113
O        3.05034569       0.34987037       2.80454401      -0.00883383       1.33516533       1.61604275
O        0.51994619       2.62269759       9.74044830       0.73103337       0.54961150       0.98881628
O        8.11198111       0.07583920      17.75595495      -0.32008964      -1.04412850      -2.26115353
O        9.56726268       8.45375653      22.77016529       0.36434235      -2.94374285      -1.78465159
O        1.86981072       1.00726031      11.39429001       2.88172167      -1.39824171       1.72395372
O        1.73406273       1.97587545       4.84753949       0.39469879      -2.34004408      -1.61621883
O        8.47690558       8.82523835      16.04507221       0.02668946       0.62965205       0.44778010
O        3.63323863       3.99272375      11.36905099       0.03701727      -0.16378095       0.53944558
O        6.42275126       6.88782582      22.37209960      -0.38284547       0.97591296       0.21986872
O        6.88278079       5.87520245      15.80260319       0.60564629       0.67763934      -1.33662224
O        4.72423990       3.43935906      18.53356381      -0.39094771      -0.71242942       0.20343171
O        9.28580289       3.50002661      11.78203483      -2.45526980       1.82162050       0.65735346
O        7.26341550       1.42201661       8.31466623      -0.99084760       1.44569479       1.37650620
O        1.78497002       6.49064671      15.29206221      -0.05562600      -0.04055904      -0.25217868
O        3.78753919       8.74483334      18.99645551      -1.04205621      -0.11673934       0.18204235
O        8.41576473       3.86064823      15.19065637       0.54437075       0.01557061       0.23969173
O        6.61538857       1.71292707      18.96170918      -2.40987279       1.87385701       0.34805463
O        2.28505625       6.16298238      12.29600629      -1.67257253       3.33693351       0.04528594
O        4.28793613       8.31370259      22.17401672      -1.18401542      -0.06049179      -0.37678050
O        7.59994669       5.48809017      13.19337793       0.94847030       0.43561150       2.66075100
O        5.10041829       2.66364639       7.18546659       0.96599989      -0.03279768       1.58638396
O        3.40015308       4.67157901      13.87957610       1.01195846      -0.22060177       4.07600267
O        5.89579233       8.00194852      20.06576262       0.86200973      -0.32382190       0.27659780
O        0.93084598       2.66044978       7.15912184       0.16069980       2.34677036      -0.83264570
O        7.89981470       9.60489744      13.47026594       1.45181998      -0.04889405      -2.71738896
O        0.30816536       7.92482713      13.41750377      -1.21020292      -1.21723119       2.11378498
O        2.49011818       0.53739958      14.06904290       0.46329370      -1.53617539       1.55751838
80
Lattice="9.77192453 0.01751879 6.90363604 0.24348012 9.76890588 6.90363604 0.01370155 0.0133883 13.86910312" Properties=species:S:1:pos:R:3:forces:R:3 energy=-575.44536081 source_file=vasprun.xml step_index=800 time_fs=47600.0 time_ps=47.6 file_index=23 pbc="T T T"
Na       6.55014797       0.69362973      13.20347185       1.22465912      -0.67361229       0.70738338
Na       4.87360517       2.44804158      16.05776264      -0.29459747       0.00380670       0.29371656
Na       4.08986414       6.23597519      11.04203196       0.91094668       0.14003703      -0.84484392
Na       3.87250298       8.41192449      13.69879173       0.11547139       0.22706471       0.08379641
Na       7.55344378       4.33514609      20.07137213       0.48231133       0.07982371      -0.58045737
Na       9.39949305       1.68860149       9.72982339       0.19120911      -0.25304819       0.28171259
Na       1.38780842       7.20094233       6.07565718      -0.10491635      -0.44222152      -0.29088248
Na       2.41231513       2.40841601       9.10114960      -0.17720390       0.05447803      -0.30430825
Al       7.09115370       5.47151293       8.90300793      -0.94846499       1.23322912      -0.11872307
Al       4.92473639       2.63413916      11.34104417      -0.25097943       0.99049994      -1.99038297
Al       3.30904749       4.65775273      18.38999076      -0.91440416      -1.84135685       0.14024860
Al       5.43155385       7.06368906      16.08784837       0.26726432       0.38440078       0.91238248
Al       0.41289275       2.31475111      11.56694349       0.48546824      -2.37361830       0.62357275
Al       8.23303781       9.47588677      22.80212403      -1.48700520       0.31961338       1.44146163
Al       9.81634393       7.82976387      15.73223671      -0.21310325       0.54243122      -1.15914171
Al       2.34124409       0.52324431       4.57813952      -1.41032539       0.52938641      -1.32490553
Si       2.76482387       5.43105064      15.32162881      -2.38352653       3.03791153      -0.08262279
Si       4.34185070       7.61190955      19.12272255       3.27345760      -1.71394206       0.17607255
Si       7.62361401       4.32853365      11.74851111       0.86918135       0.53079138      -0.12797267
Si       5.63927042       2.62580115       8.27282245       1.21517190       0.78068785       1.96869767
Si       1.27476010       7.41643112      11.80726665      -2.30263406       1.13373652       2.28491064
Si       2.70874119       9.37388959       8.53910074      -0.23917176       0.03879200      -1.51209244
Si       9.13968571       2.64079757      15.36694574       1.57781296      -4.24691365       1.36476281
Si       7.74758051       0.51532899      19.17796138       0.61990156      -0.30542463      -1.85306636
Si       0.74430025       3.04488715       5.74705156      -0.55991562       2.17060754      -1.87506108
Si       7.26721862       9.53291043      15.16228025       1.72578279      -1.70283406      -1.84330422
Si       9.66562667       6.80370100      21.54554208       1.95686077       6.24766510      -0.52709858
Si       3.16689790       0.64581718      12.60081950       0.92472944      -2.08715017       1.69314108
Si       8.00224888       5.40252550      14.83262385      -1.70134860       2.66780431      -1.92214287
Si       4.92981065       1.98578647       5.51350628      -3.64537708      -0.94914735      -2.39952640
Si       2.25858296       4.49810637      12.43499494      -1.13008688      -0.35129076      -1.20473965
Si       5.41809036       7.91397505      22.28755067      -5.19970180      -2.40738035      -1.98789137
O        8.46036358       5.84407097      21.57163223      -3.88828769      -2.28780776       1.02679298
O        4.79824376       1.14915785      12.28891929      -3.36447716       0.81120015      -0.51538227
O        1.87360180       4.17102947       5.52766204       0.89152460       0.21523390      -0.72751414
O        6.04009168       8.63368490      15.60832783      -1.18744784       0.39592008      -1.13163359
O        0.69200773       3.90314970      12.08763869       2.82692970       1.82428821       0.80806736
O        6.53053495       8.93781932      22.28467140       3.73443059       3.40585199       0.98316180
O        9.20534059       6.49542173      14.69500091       0.66711419       0.61119981       0.63548200
O        3.83191028       0.65339428       5.33236793       3.05136381       2.32511631       0.86698849
O        3.55116510       6.20205068      19.08694263      -0.71905552       0.17964684       0.56000862
O        4.04998838       6.41796190      15.03112630       0.04079820       1.16546790       1.02887430
O        6.44217318       4.08691883       8.10026010      -0.50238883      -2.70506472       0.11912137
O        6.63888355       3.06673128      11.40378724      -1.19359908      -0.25229079       0.78531202
O        1.49140618       8.55538327       7.81692877      -1.56487910      -0.68205045       1.84589519
O        2.27642585       8.71147694      12.06261396      -0.98038184      -2.19091969      -0.56707128
O        9.05970910       1.45841878      19.44555090      -1.42309756       0.37941215       0.52815651
O        7.99085911       1.37259906      15.17221225       1.49106135       1.84351904      -0.58140273
O        2.90658420       4.63105045      16.65505641       0.67887472      -0.94632882       1.35557962
O        5.37294275       7.44163367      17.83697181      -0.76079852      -0.01019966       0.29947926
O        7.31049663       5.46844428      10.59572245       1.53100002      -1.27476592       1.29581849
O        4.56727426       2.42741781       9.46616353       0.42180974       0.55751681       2.57540213
O        0.39965426       7.35329948      10.45084519       1.35908108      -0.18524484       0.64200489
O        2.16064649       0.67701532       2.78746128      -0.59676872       0.25005624       1.07235404
O        0.24286921       2.25473466       9.86275673      -0.65353713       0.27731454      -2.25649793
O        8.18096947       9.66086117      24.56556427      -0.12325132      -0.20883876       0.75734906
O        9.30908247       8.39402242      22.12121795       0.67677374      -2.36691300       0.27357620
O        1.87717639       1.32671223      11.98236893       0.76412981       1.18804675      -0.44185493
O        1.11589598       1.66459901       5.06221353      -0.30970576      -0.92733467      -0.07480233
O        8.64290394       9.15324201      16.00851721      -0.54111298       0.90218160      -0.70557553
O        3.67628132       3.93919985      11.70136645      -1.01905969      -0.20609068       0.14508194
O        5.50525744       6.44244129       9.11179231       1.48131702       0.12547758      -0.47774411
O        6.73710752       6.03886935      15.68484214       1.70511704      -2.12126221      -0.90992501
O        4.56069593       3.23134115      18.28929184      -0.11241784      -0.03355657       1.16251689
O        9.09573494       3.56123090      11.79461568       1.07378539      -0.61107293       0.19574148
O        6.64931812       1.32923303       8.32587735       0.68960449       1.51886591       0.32640584
O        1.14380364       6.16003131      15.39668409       3.09265637      -0.88483585       0.79925206
O        3.30955459       8.83677788      18.92735333      -0.39770928       0.92203620       0.22599438
O        8.55707659       4.05381520      15.47662846      -2.57089753       2.02185360       1.35088260
O        6.35791361       1.41664140      19.03198832       1.39092387       0.64949680      -0.07114713
O        2.18928531       6.13147704      12.18832346       1.26605676      -0.61037149      -1.94604429
O        3.85387179       8.37288470       9.02332578       2.27257142      -1.29797872       0.86128434
O        7.57361084       5.09775747      13.17778335      -0.59019611       0.00692648       2.06281416
O        4.69501773       2.48423040       7.01995242      -0.99168150       0.25232469      -1.43243337
O        2.57719945       4.62802539      13.97454546       0.46245824      -2.77237004       0.78975454
O        5.18009174       7.72995327      20.61282941      -0.93423133      -0.06791121      -1.49803044
O        0.57079113       3.06015850       7.36220963      -0.60119951      -2.10098312       0.70049394
O        7.65724743       9.27171537      13.46015742      -0.22158702      -0.01699118       1.50077444
O        0.26365474       7.39867964      13.15649794       0.32409963      -0.83239994      -1.86174880
O        3.19809896       0.43970144      14.29692131       0.48955778       1.96892024      -2.41545751
80
Lattice="9.77192453 0.01751879 6.90363604 0.24348012 9.76890588 6.90363604 0.01370155 0.0133883 13.86910312" Properties=species:S:1:pos:R:3:forces:R:3 energy=-576.25337239 source_file=vasprun.xml step_index=805 time_fs=53610.0 time_ps=53.61 file_index=26 pbc="T T T"
Na       6.48722147       4.32381826      17.26937058      -0.69719857      -0.33551094       0.80611678
Na       8.27191318       3.73173279      20.76261680       1.23323485      -0.25334033      -0.83894486
Na       0.22283065       6.39708451       6.00471317       0.07809682      -0.07697009       0.36138477
Na       4.72777419       8.54843802      12.82711253      -0.08107789      -0.02903678      -0.55983452
Na       2.50204900       2.29919897      15.64018288      -0.16156035       0.31161201      -0.12623757
Na       6.65983423       0.65112907      12.67749821       0.22710609       0.31505914       0.44781968
Na       1.91810305       9.31305239      15.76344527      -0.46041146      -0.04177546       0.29507838
Na       3.68835067       5.84390545       9.95835509      -0.32946846      -0.65181965       0.33127117
Al       6.80265955       5.22333302       9.05035398       1.63691945      -1.04905999      -0.07010994
Al       4.70661834       2.69264603      11.46453577       1.27136544       1.79226737      -0.62213874
Al       2.59513535       4.41664395      18.55136126       0.10657518       2.79880194      -0.32200072
Al       5.19048710       6.90655867      15.99700900       2.59969354       1.53392299       0.80964687
Al       0.46958411       2.17122024      11.41866208       0.85214188       0.49764125       1.44972512
Al       7.67251069       9.45958697      22.96827989       0.50271085      -0.35728561      -1.07580143
Al       9.51573298       7.51598691      16.01020872      -1.57490806       1.89437281      -0.35375488
Al       2.15840508       0.29759305       4.50584325       0.15676040       1.29481515      -0.14680570
Si       2.43296583       5.47325160      15.71262062      -1.40826223      -2.88928979      -1.89781170
Si       4.22199656       7.15981201      19.12956972      -0.80014181      -0.38151354      -2.33599958
Si       7.50881815       4.22720414      11.97238502      -2.13922084       1.65082207       0.86145547
Si       5.52599075       2.49170068       8.34987819      -0.03522674      -0.71738928       2.21253125
Si       1.33941992       7.27706952      11.97521388      -0.37637185      -0.66558795       1.05183203
Si       2.20380744       9.12355616       8.22784972      -0.19249935       0.04619945       1.56097369
Si       8.73351672       2.33496506      15.49523474      -4.16473615       1.48479562      -3.20137621
Si       7.56677814       0.93071246      19.01701862      -2.20000176      -1.66907038      -0.24456686
Si       0.42335656       2.83901384       5.82513340      -2.27479404      -1.42444876      -1.87081137
Si       6.83712625       9.30232497      14.77808347       3.15828256       0.05367050       1.58813666
Si       9.52319799       6.89000828      21.89112239       0.56692815       0.99661913      -0.50943731
Si       2.99349422       0.40557168      12.52757964       0.78358822       0.48557859      -3.07156521
Si       7.83619899       5.22079748      15.04925465       0.40004782       4.26036449      -5.27885318
Si       4.68253560       2.24189516       5.30720142       1.10346100      -0.11304325       1.87083687
Si       2.31841807       4.49537230      12.66424756      -0.62472073       0.23630057      -1.42551931
Si       5.10218043       7.62670517      21.84226946       1.56588476       2.20270346       0.90929221
O        8.44005139       5.64602335      21.94178280      -0.53335203       1.26591287       0.33824778
O        4.50890773       1.15564594      12.18954940      -2.09546852      -2.15474702       1.19028176
O        1.53488255       3.95290095       5.97052937       0.30544126       0.83211469      -0.21361555
O        5.52896835       8.36428587      14.82911883      -1.63161075      -0.91449079       1.41206578
O        0.91952698       3.72642955      12.21661763       0.32919124       0.01056413      -0.44744096
O        6.18601352       8.82551711      22.36260037      -2.39793527      -1.37457779      -1.06873838
O        9.20701286       5.99062477      15.32362549       0.61780822      -0.38217409       0.04841705
O        3.87400321       0.93472035       4.91198784      -1.59423448      -1.67886826      -1.16100328
O        2.88188415       6.20185178      18.95718627       0.40578313      -1.15156038       0.83707081
O        3.82695067       6.13572204      15.46787041      -1.10376074       0.67599950      -0.42739494
O        6.64743946       3.59174753       8.17148959       0.86123930       2.64932185      -0.39801226
O        6.22333083       3.24821538      12.12746009       1.49434879      -0.86851954       0.58929497
O        0.85369745       8.32153551       8.07295434       0.45270880      -0.32749653      -1.29216392
O        2.45809994       8.44509511      12.06843411       0.14165573       1.66713029       0.40318835
O        8.85650047       1.78174462      19.39241355       0.61087775       0.19474808       0.48487551
O        7.60195538       1.20107215      15.17785440       0.39810688       0.22561011       0.14696148
O        2.27710428       4.28755945      16.80407140      -0.04627076      -0.01646313       1.01957762
O        5.11290044       6.93611918      17.80690493       0.84132107       0.07730290      -1.87874635
O        7.13807359       5.28088037      10.77293180       0.51291509      -0.22359086      -0.64202462
O        4.86082701       3.26112793       9.77960827      -0.64345280      -2.66991387      -2.18822198
O        0.40894860       7.35872610      10.68425123      -0.33912253       0.21120245       0.67701147
O        1.85533148       0.18965230       2.75223282       1.08673568       0.37258962      -0.58913419
O        9.63372494       2.18503726      16.70227954       2.40042653      -0.42036618       2.82354814
O        7.79214130       0.04585857      17.68473024      -0.41999628       0.44968610       1.21818234
O        9.02949938       8.40716994      22.46749686       1.09588218      -2.30128993      -0.89852393
O        1.89783119       1.10389463      11.51122445      -0.01602185      -0.30719579      -0.17817803
O        0.95031341       1.42197863       5.19187061       0.60939595       0.08729390      -0.22349399
O        8.05100230       8.52495821      15.62790329      -0.88470384       0.55501915      -0.25675488
O        3.65914651       3.81232693      12.14299753      -1.46853219       0.82301944       0.45082266
O        5.46966196       6.31890246       8.84158714      -0.57886053      -0.44381930       0.16735128
O        6.50245189       5.82511278      15.62673599      -1.01971529       0.89155370       0.82639249
O        4.05908647       3.60179979      18.55161299       2.64926439      -1.38676450       0.60986105
O        8.88889256       3.47022354      11.77211074       2.96131499      -1.70926339       0.02270565
O        6.43893735       1.07288321       8.57167201      -0.97133529      -0.48831691      -0.18888322
O        1.11330960       6.38434710      15.88465668      -1.00041203       1.69062895      -0.34050592
O        3.47395950       8.61057468      18.98283254      -0.14895524       1.26845524       0.80042501
O        7.83124376       3.81685933      15.56848261       0.92122711      -7.16589016       2.88174627
O        6.36140434       2.21633528      18.75879436      -0.47033632      -1.05557333       0.57945436
O        2.43381544       6.05047494      11.79391308      -0.71777027      -2.51223617       1.70375094
O        3.44111334       8.03463381       8.18231896       2.40272127      -0.89654116       0.07360045
O        7.81897034       5.18502093      13.33529203      -0.31094436      -0.08067269       0.26971656
O        4.63096264       2.06637443       7.03199273      -0.18187077       1.27892251      -0.69307059
O        2.29998911       4.46771027      14.29946836      -0.33039266       1.08249996       0.73538200
O        5.43211111       7.16499523      20.28015672      -1.67794768       0.50303959       0.47350893
O        9.52238231       2.55010744      14.13419397       0.88624512      -0.30879794       0.13743829
O        7.22214314       9.39863579      13.12312041       0.07005474       2.41919121      -0.05580484
O        0.52635985       7.13071661      13.43534111      -0.79482782      -0.17516666       0.58549263
O        2.25356531       0.45311479      13.97771068       0.59772445       0.56963307       1.02371028
80
Lattice="9.77192453 0.01751879 6.90363604 0.24348012 9.76890588 6.90363604 0.01370155 0.0133883 13.86910312" Properties=species:S:1:pos:R:3:forces:R:3 energy=-576.30325412 source_file=vasprun.xml step_index=940 time_fs=57880.0 time_ps=57.88 file_index=28 pbc="T T T"
Na       7.07407933       8.30701758      18.75675602       0.53399516      -0.06382667      -0.61297754
Na       8.88323223       3.69865351      20.60688982      -0.97407276       0.03396888       0.42581350
Na       9.27614264       7.18534895      12.22266253       0.01198751      -0.13736973       0.57906783
Na       3.61929676       8.32955117      13.65366660      -0.08746399       0.17298395      -0.15800365
Na       2.54629731       2.30834004      16.19150811      -0.04075296      -0.11427590       0.03458162
Na       5.86460518       1.53922474      14.22249479      -0.01517227      -0.03619802      -0.19162836
Na       2.41564239       1.86052736       8.90855182       0.17443657       0.00491884      -0.35583644
Na       3.98884537       5.42882161      10.64893336       0.52057851       0.53563336      -0.52335624
Al       7.14124695       5.07062304       9.11943147      -1.53033913       1.01085967      -0.67689141
Al       4.67197600       2.18142510      11.49487551       0.17490401       0.27227753      -0.53608658
Al       3.01193224       4.42027809      18.44400426      -1.78700147      -1.64578325      -1.56035793
Al       5.39174390       6.98838079      15.70551414      -1.55785904      -0.53107308       1.47711361
Al       0.32861738       1.89693082      11.60062719       5.03087737       1.58835912      -2.38434603
Al       7.80941025       9.38371015      22.67177433       0.91706185       0.74507595      -2.57996293
Al       9.61173400       7.61541379      15.72161507      -2.81648874       0.09347630       0.22686187
Al       1.84374691       0.18147753       4.60159302       1.90673988      -0.81876357       1.92647535
Si       2.53120015       5.55517113      15.32079204       0.15023373       0.92976474       1.45017877
Si       4.39492410       7.11844704      18.82518495       0.25040123      -0.50560332       2.03858413
Si       7.27778657       4.03265581      12.20095004      -1.80697003      -0.39998071      -1.03747372
Si       5.74329463       2.33226172       8.27717708      -1.27936235      -0.29517288       1.79724543
Si       0.75902834       7.02197903      11.77306824       3.65063017       0.94519018       3.39089540
Si       2.59370537       8.99267389       8.47591944      -0.56591502      -1.11479157      -2.97984447
Si       9.12768232       2.41484497      15.31185145      -0.22966213       0.12191528       1.54337608
Si       7.28584492       0.72323705      18.72717294      -0.61152400       0.72626316       5.07317865
Si       0.41279251       2.86792678       5.61004056       2.37022070       0.76212890      -0.51993824
Si       7.06287336       9.26449231      14.72516966      -0.30997039      -1.98759747       0.01218843
Si       9.45690808       6.79622637      21.64382439       1.50631296       1.01812512      -2.77514966
Si       3.09665710       9.68409974      19.44196002      -1.93064279      -1.05772288       1.02596796
Si       7.85663333       5.28161247      14.97741719      -2.69263158       1.20949325      -0.03669381
Si       4.39852638       1.83349054       5.67808088      -2.07352418      -1.15790048      -2.78349757
Si       2.22007922       4.26776759      12.51834795      -4.44390197       0.34719989       2.06035148
Si       5.47888871       7.71174916      21.78196260      -0.93985749      -2.03032605      -1.13110868
O        8.57792107       5.52434001      22.01945802      -0.85586038      -0.54295413       0.88474368
O        4.29449742       0.50494611      12.20373651       1.79585981       2.18799107      -0.94007419
O        1.31831049       4.24611641       5.27084441       0.45811055      -1.30473269       0.26587922
O        5.61238585       8.45278473      14.86991311       1.05073785       1.55620608      -1.37160442
O        0.69523491       3.57661711      12.35840710       1.89320787      -2.37400527      -1.03368098
O        6.29726211       9.05795282      21.82015638       1.62834331       1.56803439       1.15464790
O        8.97721241       6.36619256      14.65760253       1.10564740       0.18570374      -0.91938854
O        3.45722587       0.46310309       5.60538512      -0.51551704       0.56958465      -0.41471079
O        4.09721086       5.55909251      19.00174014      -0.20415760       0.48971336       0.85089809
O        3.71066607       6.66044340      15.03171403       0.93003756      -1.49869896       0.82836221
O        6.84547902       3.53471415       8.24438452      -0.90627538       0.31195509       0.16093645
O        6.12678770       2.81232256      12.25052348       0.53154567       0.21434465      -0.07917574
O        1.10655160       8.35735875       7.99295071       2.28740254      -0.12632201       0.84659148
O        1.81857372       8.31801731      12.15938293      -1.34578089      -0.67061172      -1.20186257
O        8.60147803       1.65778241      18.95978221      -4.47049176      -1.04687588       1.69377411
O        7.97357304       1.19571877      14.91365283       1.46610411       1.86004677       1.12074338
O        2.65931464       4.44789546      16.59034621      -0.07184764       2.45597686       0.05750974
O        5.04344918       7.34056419      17.41608824       0.83095842       1.26293081      -0.26809923
O        7.09649281       5.04861181      10.89401894       0.09143602      -0.60892083      -0.06304323
O        4.81713924       2.24056918       9.69447986      -0.31253694       0.50997999       0.47716211
O        9.74171184       7.06730033      17.36683690      -0.65924608       0.23714745      -2.36479717
O        2.16201913       0.03366471       2.91333743       0.47331545       0.81206010       0.10815290
O        0.30107237       2.10257540       9.76095988      -0.52189352      -0.24929603      -0.33851143
O        7.57270406       9.78336704      24.27669507      -0.16937335      -1.43538428      -0.91229169
O        9.00160024       8.23447953      22.12078400      -1.06415801       0.69643460       1.34402726
O        1.65213550       0.69222443      11.85900555      -1.66298223       1.39696931      -1.76875210
O        0.78595353       1.48672688       4.85051399      -0.36108609       0.74848434      -0.51686797
O        8.00126398       8.52123792      15.87526345       1.05505212       0.69442589      -1.39999480
O        3.54432626       3.56502112      12.05359202       1.19691766      -1.24485658      -1.85876977
O        5.71402943       6.37294235       8.82171554       2.42019010      -1.50760528       0.34823586
O        6.61566678       5.81881114      15.89907023       0.81410321      -0.48897291      -0.71516174
O        3.76960022       2.82084044      18.38530597       0.16034734       0.02471317       0.83721861
O        8.71691724       3.35136617      12.10712475      -0.62447158      -0.33173065      -0.00151960
O        6.68860565       0.98949203       8.39940858      -0.77209146       1.62280032      -0.83045541
O        1.23375151       6.60869566      15.14651054       0.72405144      -0.93946392       1.34934610
O        2.97568740       8.01949480      19.05569274       1.37606134       1.28640520       0.69126171
O        8.41982273       4.01048339      15.72267162       1.91899987      -4.81953171      -0.47884127
O        5.93547327       1.55300497       5.29380882       1.02477029       0.30828000      -0.81878258
O        1.80939126       5.72266466      11.90405951       1.65220702       0.58387081      -1.45236829
O        4.00128501       8.02124989       8.49596537      -3.94118239       1.45336618       0.28760969
O        7.08380012       4.88681787      13.55337806       0.37002848       0.10854679      -0.15449662
O        4.37751543       2.41664415       7.18816850       1.91897420       0.30557348       1.98980056
O        2.33250176       4.51681265      14.13443995       0.32811395      -1.67403666      -1.33389585
O        5.60334496       7.44093234      20.12806981      -2.15869723      -0.44904079      -1.34405268
O        0.54810714       2.38967358       7.19841935      -1.30356053       0.89953764       1.13976290
O        7.40831719       9.34026067      13.04360301       1.03393654      -0.54877095       0.67135810
O        9.52570348       6.94253165      19.91345389      -1.81019856      -0.61653150       2.17880894
O        2.46686681       0.29555161      14.12831174       1.66783180      -0.49238093       1.11585815
