80
Lattice="9.77192453 0.01751879 6.90363604 0.24348012 9.76890588 6.90363604 0.01370155 0.0133883 13.86910312" Properties=species:S:1:pos:R:3:forces:R:3 energy=-574.13461625 source_file=vasprun.xml step_index=815 time_fs=43630.0 time_ps=43.63 file_index=21 pbc="T T T"
Na       7.40874593       8.15903508      18.73473362      -0.26668725      -0.15884394      -0.21311393
Na       5.98397613       2.87644565      16.09562866       0.06932427       0.53281627       0.02590438
Na       5.36938005       6.39318863      11.12784612      -0.70598297      -0.02435973      -0.06717618
Na       3.44935321       8.77197872      14.39317389      -0.13470859       0.12461250      -0.11610238
Na       9.21681246       4.36930161      20.28985486      -1.35335858      -0.29962514       0.24926724
Na       9.18394865       2.26181976       9.63252771      -0.17310944      -0.09689802      -0.01921182
Na       9.91789277       8.55499357      25.13059865       0.37550145       0.06573790       0.00785909
Na       2.50941375       3.76748075       7.60327351       0.04551504       0.08924475       0.20943061
Al       7.43704911       5.28545299       9.02843877       2.33867475      -1.29441636       1.58731110
Al       4.63392917       3.21851210      11.71872777       1.25842778      -3.12357698      -0.76135689
Al       2.86888298       4.50589578      18.15166157       1.23688422       1.24569961       0.81655569
Al       5.57476625       7.08287308      15.96382975       1.72385693      -2.26719449       1.88514102
Al       0.51131181       2.18923458      11.51621943       0.68244922       0.71961768      -0.00048526
Al       7.99908896       9.26358388      22.75698703      -1.69749498      -0.34221826       0.80258006
Al       9.72432990       7.83381664      15.88385236       0.44539452      -1.57236364       1.11610411
Al       2.25601949       0.42031204       4.69499364       1.54625911      -1.43588154       1.65489938
Si       2.82622188       5.65317845      15.42593568      -1.32917320      -0.32516540      -1.60553788
Si       4.25895033       7.47541946      18.98334546       0.30675093      -2.93023924      -4.85652151
Si       7.53582182       4.49607804      12.20511013       0.30328455      -0.13273825      -0.40166996
Si       5.93611340       2.74548050       8.66019686      -1.62502763       1.51251128      -0.17215392
Si       0.79996105       7.65394032      12.06988493      -1.30621174      -1.68156441      -1.99087878
Si       2.93333924       8.91952307       8.59504057      -0.60423779      -0.88636310      -1.10383682
Si       9.33279689       2.09249616      15.35251420       1.37770724       4.71158308       0.46468126
Si       7.46086407       1.13033708      18.84912728      -1.71834139      -3.03851984      -0.10105826
Si       0.40837538       2.83678967       5.58241362       2.29519037       0.90384330      -2.18818801
Si       7.19025101       9.60223763      14.71581484       1.71383167      -0.17892077       3.99676885
Si       9.89603648       6.81512499      21.84852400      -1.87134377       1.81396151       2.85324414
Si       2.91022414       0.42601296      12.60898460      -3.09791014       3.42415021       0.60356933
Si       8.16727915       5.26269314      15.14866304      -1.43466425      -1.92342489      -1.26119733
Si       4.60530142       2.20882015       5.82330047       1.39611107      -0.56246325       1.30971507
Si       2.18731029       4.99830330      12.38401531       1.06731990      -2.09722267      -1.35497326
Si       5.49088750       7.36030497      21.96293864      -0.10658748       6.42282875      -4.43724237
O        9.13361183       5.40554825      22.21785054      -0.40163310       1.44084150       0.31380321
O        3.84343260       1.62203049      12.07527233       0.74122467       0.45147253       0.65305431
O        1.43979433       4.15330433       5.17882330      -1.95785011      -1.75330586       1.96409603
O        6.12484401       8.49867626      15.18696375      -1.64622275       0.31327204      -1.47860498
O        1.08702755       3.73055091      12.34289218       0.86938767       0.07837390      -2.00991422
O        6.40446124       8.75145068      22.11598855       1.63986685      -0.98079335       0.02848547
O        9.46012796       6.02313763      15.61732502       0.57327108       1.72031148       0.25785429
O        3.65558434       0.85822176       5.94503554      -0.33281827      -0.03526521      -0.81267294
O        3.16334278       6.34018818      18.52590422       0.37523099      -2.06817628       0.51768071
O        4.21379563       6.35474103      15.21095932       0.71765860       1.63073345      -0.16694941
O        7.36215323       3.65925484       8.39603170      -2.12705554      -0.79731964       0.96782361
O        6.15799965       3.66246520      12.54918545       0.55834974       0.70622531      -0.22699246
O        1.61845982       7.96383091       8.33826513      -0.77217821       1.18388784       0.32209791
O        1.63945530       8.91225997      12.61105889       0.62200975      -0.12815718      -0.39406387
O        8.65803171       2.09479196      19.12231459       1.74140474       1.29898882      -0.68719253
O        8.54833461       0.80928463      15.13949164      -2.21518218      -1.38595940      -1.38385047
O        2.83346498       4.38988341      16.41142745      -0.41839984       0.36154927       0.26538116
O        5.47294152       7.33924520      17.71758662      -1.24186633       1.14434068       1.12902619
O        7.38999276       5.47241479      10.83323559       0.17877572      -1.00568046       0.66804542
O        4.93397946       2.91855091       9.97905744       2.02858111       0.39191407      -1.44269079
O        9.40155621       7.75198010      17.74030721       2.25371779       0.96791787       1.37602430
O        2.94584309       9.49669186      10.09124820      -0.07709808       1.31632389       0.28165870
O        0.55506143       1.98774447       9.74434869      -0.76276118       1.07224729      -0.21351074
O        7.48938718       0.02803128      17.54003192       0.14157218       1.86651942       1.95469546
O        9.24110269       8.08095669      22.86943630       0.80940686      -2.70605532      -1.64949942
O        1.30302825       0.77232714      12.05756949       1.85161246      -1.02628290       1.13423708
O        1.08388381       1.58611534       4.68089112      -2.87664006       2.83699285      -0.34751448
O        8.48407983       9.02847055      15.63863319      -0.00480102       0.99804564      -1.59266791
O        3.69489470       4.57579763      11.81196268      -2.31606158       2.35072545      -0.01304767
O        5.97012006       6.06722810       8.72621698       0.76215757      -2.63454528       0.57711176
O        6.71937540       5.56616544      15.93903234       1.01188096       0.85817944      -1.45812618
O        4.04479906       3.22786936      18.64382546      -1.57858944       2.19019212      -1.16022665
O        8.71210936       3.34935519      11.88972293       0.72594736      -1.52281615      -0.18501835
O        6.58724099       1.32926461       8.45033185       0.57630459      -2.80276854       0.26259207
O        1.65075403       6.86400796      15.40651783       1.56161267       0.04759403       1.38833805
O        3.30085217       8.74816977      18.93414455       0.64868232      -0.64696759      -1.01541376
O        8.27574892       3.55318439      15.26350141       1.01561933      -1.72325569       0.89965229
O        6.14464640       2.03967075      19.05973990      -0.91929657      -0.06391216      -0.75700718
O        1.78011233       6.37601660      11.57374965       0.04373148       0.07992243       0.85096479
O        4.14508104       7.78024378       8.77014312      -2.50974612       0.37026636       0.81033655
O        8.29400120       5.37328648      13.37643275      -1.72031549       0.34878416       1.48179804
O        4.83057382       2.94215249       7.36905396      -0.28916011      -0.46306925      -0.87613947
O        2.38937041       5.10569781      13.95261514      -0.18172298      -0.26845493       0.61344346
O        5.17280109       7.44414481      20.25819738       1.60952319      -1.05102028       3.07270465
O        0.56407600       2.25533129       7.11805638      -0.06464366       1.25268637      -0.22223866
O        7.28378402       0.13811543       6.32113604       0.61804124      -1.06218745      -2.01041532
O        9.69664532       6.96854988      20.23880984      -0.26441706       0.67981811      -0.27178506
O        2.90149316       0.28521591      14.27197521       0.23603913      -1.01651656       1.63732203
80
Lattice="9.77192453 0.01751879 6.90363604 0.24348012 9.76890588 6.90363604 0.01370155 0.0133883 13.86910312" Properties=species:S:1:pos:R:3:forces:R:3 energy=-573.48439144 source_file=vasprun.xml step_index=925 time_fs=93850.0 time_ps=93.85 file_index=46 pbc="T T T"
Na       7.94885776       6.56120254      18.42240160      -0.08218871       0.20491526      -0.18913916
Na       9.25890145       1.46056826      10.26421244      -0.16058096      -0.25511104      -0.03958462
Na       4.49293727       7.61198856      11.45211527      -0.00530012       0.00012895      -0.62396299
Na       1.22450450       8.64594288      18.50520252      -0.22807760       0.12478787      -0.32906982
Na       9.27829566       3.79869526      21.11903837      -0.10582543       0.20167263       0.12447350
Na       5.75583117       3.83347968      15.81286525      -0.08543067      -0.24718851       0.20847471
Na       1.92451929       5.41517355       7.43518515      -0.09531090       0.36740838       0.05802483
Na       2.84815554       1.49876130       8.17879804       0.08274441       0.13211209       0.16008740
Al       7.27208844       5.62020125       9.29631567      -1.27132967       2.06416085      -2.02972064
Al       4.90840611       2.95289229      11.53990915      -1.29235070       2.26346745      -2.17546449
Al       2.98686640       4.73068181      18.21821609       2.24041104       0.37711650      -1.00995792
Al       5.67854530       7.27992639      16.25539628       1.67653411       0.70321759       0.52084130
Al       0.67376090       2.49859353      11.75293948       3.98761179       0.76952172      -1.09987366
Al       8.24366364       0.14834897      15.82205173       0.08025051      -0.64642373       0.51325033
Al       0.36846312       7.95937719       8.97315176       0.74907249       1.09822338       0.76938850
Al       2.13798315       0.69574989       4.74340778      -0.67647487      -0.68503417      -0.35791212
Si       2.85011936       5.93201620      15.58438315      -1.20982431      -5.22149155      -0.35427598
Si       4.50588850       7.56196322      19.07703078       0.59997310       0.86977117       2.63480217
Si       7.52769407       4.54538316      12.15342941       1.15982166      -1.78154918       3.78892734
Si       5.84869951       2.72749795       8.59907902       0.33603105      -1.84102202      -2.87738726
Si       1.31444288       7.41864938      12.02498970      -0.20088900      -0.53965560      -0.73957961
Si       2.87127086       9.63949005       8.70594562       3.37414314      -1.60503388      -2.59463786
Si       9.38582188       2.97590138      15.84947677      -3.19977487       0.32476448      -2.61916504
Si       7.78129506       1.22470947      18.87186771      -0.96373275      -5.04687292      -0.15205339
Si       0.44380425       3.15724909       5.79106210       4.85810825      -1.47966248       2.03944310
Si       7.58010909       9.75355399      14.90464548      -1.97972201      -1.76347660       0.88538069
Si       0.25334052       7.27270980      15.01643431      -3.94494328       2.76500423       1.77854606
Si       3.18298413       0.71609208      12.53082738       0.15926516       0.31591674       4.03153917
Si       8.27220437       5.62745139      15.14673180      -1.11426558       1.87253992       0.38958105
Si       4.91164582       2.32196424       5.32672199      -0.25444773       2.37211325       0.11362651
Si       2.57787978       4.79529611      12.67007935      -4.97734706       1.40604469       0.28288696
Si       5.78240890       8.29875758      22.04290379      -2.94759099      -2.70223388       1.24048602
O        8.79065695       6.42885393      22.65970489       0.24721025      -0.20100334      -1.96425415
O        4.56838899       1.54463531      12.28479377      -2.02990944      -3.70493284       1.17993124
O        1.64494533       4.15289534       5.15000870      -3.37540931      -1.35621644       3.20012039
O        6.41963452       8.55051540      15.32328102       1.40514435       1.88419308      -0.60255503
O        1.13211196       3.96811555      12.65828331      -0.39778487      -0.21189807      -0.23078055
O        6.97980723       9.29838974      22.05350147       1.74817259       0.70137801       0.11709807
O        9.61122538       6.52821383      15.13792094       0.28521785       0.00221978      -1.72914888
O        3.59159582       1.36128577       5.29490776       1.71267212       0.21961256       0.60385546
O        3.43423651       6.36663907      18.77503681      -0.22389877       0.26219726       0.53330065
O        4.04792497       6.94087680      15.58635711       2.28472819       0.80381575       0.85540228
O        6.83233550       3.97628492       8.66245254       1.30178602       1.54347451       0.06367148
O        6.26027193       3.62206492      12.33294388      -0.05600215      -0.34783386      -0.32848874
O        2.05824227       8.29657801       8.47285977      -2.97500320      -2.29527713       0.12352908
O        2.28139355       8.73958869      12.09433152      -0.43568805      -0.31465750       0.50173375
O        8.96712539       2.22651969      19.29941675      -3.41136550      -0.26155695       1.57358800
O        8.17902894       1.86076966      15.41059825       1.73185808       1.60827886       1.04141811
O        2.76522450       4.46792236      16.50865791       0.36020926       3.25593615      -0.52190101
O        5.79984955       7.52617573      18.13735572      -0.38918244      -0.28379231      -3.36206716
O        7.52709466       5.45790674      10.93193824       0.40916584       1.29546630       0.40141218
O        4.63384255       2.63712757       9.61803433      -0.32532965       0.64714166       1.81674238
O        0.26723175       7.39710877      10.74500365       0.19329593       1.02936077       0.32171758
O        1.98765344       0.67335562       2.98655204      -0.77919409       1.65717734       1.72222496
O        0.71020939       2.60854663      10.00211928       0.66531904      -0.15724547       0.57486040
O        8.29343456       0.17539562      17.63015063      -0.07458694       1.22512417       1.83574745
O        0.23724166       8.92804142      15.41348261      -1.36667069      -0.92541157      -0.48894187
O        1.77451932       1.11730473      11.87314902      -0.12694283       0.45029284      -0.46232803
O        0.79182182       1.58143853       5.45611498       0.15186193       0.29971860      -0.45854515
O        9.15965082       9.46147104      15.42205968      -1.12798282      -0.26860483       0.32909861
O        3.59130461       4.04773165      11.91937572       5.20357214      -3.79231544      -3.83044621
O        5.92098694       6.83971980       9.09982446       0.89475823       0.50846681      -0.71752873
O        7.12193301       6.15941592      16.19470915      -2.12701220       0.49189566      -0.54641646
O        4.46324848       3.84862974      18.44114082       2.23626737      -3.33136971       1.59859955
O        8.85044387       3.43474060      12.09454610      -4.78986875       2.07329107      -2.14004228
O        6.74920666       1.33745238       8.80475990       1.27863917       0.10498892      -0.02919858
O        1.45219348       6.73612185      15.85815519       3.36898400      -1.17969224       0.64370412
O        3.51631173       8.89005931      19.23404605       0.19671858      -1.43849597      -2.13694651
O        8.68324394       4.49618830      16.18763917       1.32224435      -4.75382300       0.57985326
O        6.31219952       1.72442637      18.40955319      -1.88052768       1.90391161       0.34898984
O        2.42044196       6.15987551      11.73202008      -1.11769069       1.78912090       1.23721197
O        4.42828214       8.96061246      22.86847787       0.27867921       0.75474325      -0.02461750
O        7.62597880       5.35272766      13.67089343       0.56301668      -0.65375064      -0.90884515
O        5.27360964       2.54467042       6.97346451      -0.32022221       0.25691060       0.07129402
O        2.97802196       4.94115214      14.17354140       0.22960327       2.78888175       2.76326502
O        5.41404377       7.81104896      20.49024457      -0.67137755      -0.60710669       0.54849775
O        0.33844164       3.24385985       7.48017401       1.75175352       0.85378045      -1.43028041
O        7.17382765       0.17113578       6.37932360       1.86336119       1.44975238      -1.34225634
O        0.31594394       7.04290989      13.41592832       1.23662718       0.10336910      -2.38770256
O        2.73530141       0.62556675      14.23379177       0.60627770       1.69377328      -1.28012227
80
Lattice="9.77192453 0.01751879 6.90363604 0.24348012 9.76890588 6.90363604 0.01370155 0.0133883 13.86910312" Properties=species:S:1:pos:R:3:forces:R:3 energy=-576.12173372 source_file=vasprun.xml step_index=420 time_fs=66840.0 time_ps=66.84 file_index=33 pbc="T T T"
Na       9.01906259       1.08012031      10.71510184      -0.92744237       0.52308904      -0.34958211
Na       5.68407904       2.06908142      16.34042222      -0.04835930      -0.03653210       0.31772388
Na       4.40989239       5.42769989       9.75558675      -0.69081604       0.68702031       0.36340392
Na       1.69702084       9.44286833      16.46222007      -0.16749479       0.07873535      -0.01418535
Na       9.21806445       3.61628217      21.10163896       0.25861447       0.54447094       0.24609857
Na       7.34204739       8.18758380      18.54405383       0.51888725      -0.08266114       0.26620115
Na       1.19930348       6.90565027       6.74447404       0.08353991       0.08519929      -0.09166552
Na       4.48073306       8.42310812      13.19597649      -0.03209698       0.09389838       0.42074500
Al       7.39078716       5.47259477       9.16849852       0.49440958      -0.04825622       0.37843480
Al       4.78010088       2.81112497      11.59248514       0.17760511      -0.30353642      -1.04468357
Al       2.94909589       4.73062175      18.50825536       1.63155533      -0.16063725      -1.53252261
Al       5.53306293       7.22964405      16.17401191      -0.15117633      -1.15827315      -1.05269796
Al       0.48505657       2.34878156      11.58935045      -2.56378034       0.07669612      -0.36983050
Al       7.93007241       9.68201770      23.21183448       0.75226380      -0.41030369       0.55955554
Al       9.61646824       8.11714957      16.26584884      -0.12398269      -0.53095779      -1.24241665
Al       2.33000268       0.52116558       4.80287725       1.06688924       1.67838761      -0.64110692
Si       2.60136191       5.73346673      15.52904975       1.11092057       1.62894659      -0.31682299
Si       4.38882068       7.55359485      19.14717584       1.76985233       1.02108744      -1.07421426
Si       7.54322884       4.31164202      12.13731075       2.14366315      -0.66084646       2.05968252
Si       5.95676569       2.78187626       8.73113764       0.37049248      -0.57910945      -0.28946494
Si       1.22129887       7.54707379      12.32181396       1.24584464      -1.08886770      -1.93888444
Si       2.76876175       9.39027006       8.67205790       0.48476780      -0.43681875      -0.27301378
Si       9.15282638       2.46515528      15.49324347      -1.07741674      -1.48056293       0.79897866
Si       7.52642598       1.16288278      19.32434819      -1.63581173       3.23136771      -1.20232726
Si       0.60003823       2.87951630       5.74427920      -1.01879496       0.47303216      -0.51756342
Si       7.07345172       9.72504773      15.21555891       1.37247840      -1.07765696       0.68820747
Si       9.76105150       7.15012067      21.99655898       1.43790623       1.97973614       1.72989811
Si       2.65208286       0.58921517      12.63331239       2.23612597      -2.99806652       1.74188321
Si       8.15201623       5.45800865      15.12373196      -3.33603884       2.07770979       1.51441809
Si       4.63760236       2.41658663       5.76597013       1.82048213      -2.19050127       1.59137901
Si       2.43114136       4.64735644      12.65233854      -1.06486245      -0.95923153      -1.22548771
Si       5.51900894       8.07293098      22.01132078      -1.17318522      -0.78791501       0.76074146
O        9.07293765       5.74988296      22.37086116      -1.31231793       0.63465686       0.01896038
O        3.88505504       1.25154375      11.86465710       0.97469143       2.35538276      -0.41721204
O        1.50107335       4.29232151       5.42401802      -2.00671105      -2.07423345       2.34619683
O        5.89575431       8.59105041      15.10386361       0.98357344       1.16719841      -0.61960486
O        1.07471313       3.86391057      12.13840528       0.86870350      -0.21612020      -0.53366445
O        6.33849146       9.16547537      22.79345592       0.23256967       1.58279860      -0.52953488
O        9.20518655       6.72505381      15.20410753       0.82623736      -0.72499203      -0.13079648
O        3.65134738       0.98097281       5.88779519       0.71825559       2.42211941      -0.96408358
O        3.75211825       6.08122806      19.22878758      -0.52470726       2.45136169       0.69162372
O        4.03562139       6.63802838      15.49097328      -1.58247364      -1.33309990      -1.03901181
O        7.27925948       3.80626582       8.48104381      -1.80611185      -0.55660940       0.53674837
O        6.34224717       3.31561247      12.18303979      -1.50957382      -1.78366185       0.41716921
O        1.19333629       8.81204271       8.50379517       2.29748092       0.44760135       0.12116501
O        2.05005141       8.93098218      12.54714528      -0.19231149      -2.77667032       0.82269013
O        8.64487968       2.33941847      19.48535936       1.04977512      -0.48057372      -1.76385413
O        7.81821121       1.41952859      15.43146740       1.09904119       1.83812540       0.00895060
O        2.65453553       4.72004156      16.74741819      -0.27308091      -0.00181815       1.36661611
O        5.38927417       7.78310417      17.78929839      -1.38788053      -0.20073958       2.06686761
O        7.60733615       5.28609978      10.92281846      -0.50008692       1.60583783      -2.01040577
O        4.91397607       3.38392278       9.83739570       0.71678150      -1.36476847       0.25523237
O        0.32365905       7.76146664      10.97601356      -0.29121883      -0.19908195       0.57616895
O        2.95090777       0.41361924       3.15337787      -1.00856563      -0.53352177      -0.77019987
O        0.34533900       1.90710931       9.81547769      -0.04924926       0.87568203       1.13496022
O        7.51238243       0.23561154      18.05494668       1.41354105      -1.76125005      -1.45777932
O        9.27184293       8.61886058      22.63722442      -0.83830934      -1.01791968      -0.17653835
O        1.14187420       0.94004441      12.32791315       0.55848079      -0.52313534      -0.56929379
O        0.99565286       1.65306721       4.74588222       1.20375508       0.39322817       0.59860368
O        8.34792359       9.35967519      16.29910154      -0.18814296      -1.98030482      -0.66510541
O        3.85327138       4.16178932      12.05077556      -1.79746033       0.91660367       1.17344043
O        6.05715596       6.72010740      22.71274334       1.54824181      -2.98532206       0.06430500
O        6.85117649       6.10834531      16.10263221       2.01902672      -1.46945956      -1.35357983
O        4.40738125       3.82987422      18.88476175      -1.46331158      -1.93733708       0.08040310
O        8.86988159       3.22729107      12.02954621      -0.35658268       0.80451083       0.75716298
O        6.46681995       1.21107281       9.21875779      -1.68166881       3.88792264       0.57584211
O        1.57213427       7.19804330      15.72632523       0.06210063      -2.84534700      -0.98759289
O        3.25283563       8.71010417      19.14111805      -1.76540857       0.45258819      -0.01225766
O        8.53178525       4.00881385      15.82145258       1.24956248      -0.79833565      -0.92866870
O        6.07052980       2.01112726      18.91692555       0.75032942      -0.96001008       0.19313288
O        2.29672967       6.16025368      12.11972525      -1.06682099       4.07555317      -0.18315579
O        3.92101566       8.13587598       8.60071239      -1.50094259       0.00799241      -0.00175521
O        7.65265720       5.22508017      13.56810240       0.57329459      -0.55713579      -0.33902239
O        5.10523888       2.49837390       7.38629424      -0.64014790       0.67614225      -0.82591951
O        2.09625520       4.59097073      14.23531966       1.36590965       2.41805789       3.00107092
O        5.51009097       8.01011422      20.37908310      -0.05866771      -0.56318855      -1.10684513
O        0.33953309       2.06827301       7.27867703       0.35257435       2.67360365      -1.61266564
O        7.47872715       0.50347674       6.91133166      -0.70967507      -1.76277781       1.34251384
O        9.93140080       7.24373232      20.37637216      -0.88596016      -0.10540298       0.38631824
O        2.90752794       0.52079230      14.28590133      -0.38893537       0.66164239       0.19751404
80
Lattice="9.77192453 0.01751879 6.90363604 0.24348012 9.76890588 6.90363604 0.01370155 0.0133883 13.86910312" Properties=species:S:1:pos:R:3:forces:R:3 energy=-575.38165108 source_file=vasprun.xml step_index=225 time_fs=46450.0 time_ps=46.45 file_index=23 pbc="T T T"
Na       7.57579904       6.45237644      17.96675743       0.12656543      -0.10544675      -0.13657092
Na       3.36182263       2.55356920      15.66582319       0.22247161       0.18403239      -0.15706977
Na       3.34748392       5.73992908      10.20898799       0.60968837       0.45192461      -0.14997841
Na       4.16617464       8.48929548      13.15086431       0.37357284      -0.50783876       0.52578757
Na       9.16909854       3.67113992      20.65473264      -0.50075798       0.06460197       0.61073854
Na       8.55554569       1.00089880      11.14260151      -0.53471524       0.19933369      -0.27898797
Na       0.86976615       8.65069955      17.96738972      -0.13781964      -0.12877744       0.13115327
Na       3.19709464       4.27696032       7.53110998      -0.24314655      -0.13100777      -0.31595193
Al       7.40697480       5.39726277       8.94767329       0.55548230       0.08907281       1.43986972
Al       4.79272382       2.90289261      11.55593276       2.13477575      -0.63960088      -1.64148056
Al       3.24977337       4.49731118      18.43744785      -0.65882659       2.31717511       0.86031253
Al       5.35159925       7.11358550      15.84494882       3.94877127       1.36952087       2.58547699
Al       0.43146799       2.13718140      11.38323554      -0.17418641      -1.39681697       1.33198096
Al       8.21865878       9.67171399      23.10154318      -0.55141350       0.59828664       0.93856881
Al       9.67287924       7.98814887      16.06802651       0.86732948      -0.38299105      -2.67378048
Al       2.08786337       0.46840222       4.64802991       1.53809696       1.10742643      -1.09228661
Si       2.57734497       5.69884057      15.40879324       3.06333117      -1.23753405       1.93437866
Si       4.63191947       7.48806665      19.00761691      -1.57847067       0.29160375       0.18522937
Si       7.66828521       4.29916366      11.82517628       1.34970879      -0.51781763       1.88384199
Si       5.75352312       2.72822038       8.46302466       0.11720991       2.45113902       0.80347041
Si       1.01149795       7.39934477      12.12122071       0.23915215      -0.35599694      -2.65929154
Si       2.90354616       9.35528987       8.67462280       0.27787933       1.75227189      -2.28114949
Si       9.27768349       2.62845303      15.46761196      -1.47796455       0.13932491       3.34535455
Si       7.61937361       0.80770049      19.13232753      -0.65778971       1.44362850       0.94658906
Si       0.58869341       2.99480533       5.67076001      -0.58340081       2.19602232       1.93485833
Si       7.20070761       9.65067940      15.05355276       2.72275134      -0.39436421       0.93770219
Si       9.74471840       7.31929032      21.74115479      -3.20567813      -1.77910928       0.76395172
Si       2.99256965       0.43472823      12.52566908      -4.74297544       3.37690312       3.00407884
Si       7.90007356       5.44248574      14.92234320      -1.18658148      -2.33263116       1.16976203
Si       4.64591251       1.91384645       5.53726190       0.64839685       0.84140358      -0.01639140
Si       2.45938051       4.47136482      12.64647394       0.40113742      -0.56607102       2.00104708
Si       5.57333579       7.79869641      22.00377954       3.34607371       4.32854087      -0.49144390
O        8.81525404       5.99642398      21.96480984      -0.37864552      -0.14779348      -0.80107083
O        4.24504882       1.34651383      12.20470805       0.71543911       2.14368570      -0.98653751
O        1.75250052       4.09658150       5.51560440       1.39927423      -0.01773530      -0.18068626
O        6.10478369       8.46539569      14.97032217      -0.49814696       0.60251703      -0.35455167
O        1.20051526       3.46206674      12.28901661       1.63575591       1.90940072       0.27557875
O        6.74906545       9.03750304      22.54721457      -3.14636836      -2.78824264      -1.56546783
O        8.93624866       6.64490023      15.03402383       1.03911828       1.68247178       0.95903799
O        3.45485898       0.77282404       5.74369595       0.71164305       1.45175278      -0.80734474
O        3.89371014       6.05391506      19.32417638      -0.45379295      -0.97093642      -1.38609929
O        3.91944531       6.70673708      15.22255812      -4.24048695      -1.13257555      -0.94517841
O        7.11066042       3.77647730       8.34795226      -1.79737043      -1.35713735      -0.47771494
O        6.55452188       3.15076077      11.71560006      -1.93085254      -0.18810062       0.02252906
O        1.66962146       8.38496303       8.66823109      -3.19054150      -1.21125990       0.61587617
O        2.11156455       8.56546057      11.84141451      -0.21302371      -0.96572117       0.95662089
O        8.57244660       2.10644203      19.16805711       1.14076522       1.91615902      -0.93050100
O        8.05975905       1.57616329      15.64822896       0.42506262      -0.95862152      -1.00236145
O        2.56619734       4.89233545      16.89982343       0.04445686       1.30846527      -2.52141964
O        5.66519307       7.61876319      17.75638973      -1.22675708      -0.76132336      -1.53808757
O        8.05425453       5.35810972      10.68382111      -1.68702884       0.17923027      -1.10656963
O        4.74860286       3.31562935       9.74051506       0.40173222      -1.26577855      -2.22925008
O        9.83668375       7.41124876      17.66875017       0.38742699      -1.18207812       1.57912616
O        2.60072681       0.81178167       2.89132345      -0.14467247      -1.54708249       1.61459950
O        0.63443179       2.08060459       9.67712760      -0.45150254       1.04143504      -0.29997432
O        8.48034102       9.68422207      24.92032612       0.09045067      -1.73588661      -2.28227697
O        9.41774038       8.41727848      22.83311943       1.03346356       0.90723324      -0.55264450
O        1.33892541       0.76691584      12.06626028       2.42211838      -0.06344801      -0.49719715
O        0.88850996       1.56577606       5.14302247       0.53694417      -3.10011255      -1.08473540
O        8.53544689       9.32336306      16.07998379      -1.20286383       0.00010342      -0.13045713
O        3.98359794       4.37924807      11.94927690      -3.06055346       0.37559852       1.18580077
O        5.96489419       6.36551092       8.64639289       0.05459569      -1.84908023       0.91959701
O        6.40138906       5.76581388      15.71007243       2.75443721      -0.85491377      -0.64574830
O        4.51997226       3.32532526      18.47703987      -0.60812465      -2.18984381       0.03872630
O        8.94477631       3.20512173      11.84684042      -0.15517333       0.97500594      -0.37021112
O        6.40730066       1.28808168       8.78080439      -0.79258687      -0.43190999       0.14584938
O        1.40581259       6.70961439      15.04988849       2.30429178      -0.43671158       0.45009792
O        3.43395594       8.76326939      18.95432338       1.40194434      -5.30428919      -1.57694783
O        8.56415768       4.08194267      15.80446476      -0.83280611       1.95282504      -0.27841546
O        5.95911323       1.02515515       5.09614598      -0.12065888       0.58991112      -0.00578924
O        2.00345051       6.03877755      12.35188860      -0.64742662       0.61748727      -0.61654923
O        4.14094170       8.22520870       8.73096296      -1.41435065       0.92612683       0.98393986
O        7.63817078       4.95410530      13.37643799      -0.13655599       0.29712827      -0.60140496
O        4.79793995       2.70237462       7.01441385       1.15677442      -0.30454654       1.99584263
O        2.79323280       4.35605652      14.40750443      -1.40690810       1.10717889      -2.38309165
O        5.41899852       7.81939269      20.35653050       1.42056500       0.50506176       1.58135110
O        0.35595741       2.99376979       7.31269717       1.58849138      -0.35541445      -2.92873592
O        7.76776726       0.27080478       6.77818751      -0.81553580      -1.30779773       0.91815642
O        9.62419677       7.58374106      20.12226114       0.12346022       0.95124120       0.67046848
O        2.67613044       0.64763479      14.22638937       1.44140415      -1.75585701       0.73831545
80
Lattice="9.77192453 0.01751879 6.90363604 0.24348012 9.76890588 6.90363604 0.01370155 0.0133883 13.86910312" Properties=species:S:1:pos:R:3:forces:R:3 energy=-575.48629845 source_file=vasprun.xml step_index=365 time_fs=44730.0 time_ps=44.73 file_index=22 pbc="T T T"
Na       8.98940594       1.40192558      10.38592465      -0.17446117      -0.25703953       0.12229950
Na       5.94027803       4.18277041      17.33693271       0.54506253       0.00034714      -0.30300462
Na       4.88854820       6.15277396      11.68399227       0.49748923       0.53588899      -0.36477090
Na       1.09219722       9.09237820      17.30498018       0.04836658      -0.16298999       0.42839329
Na       8.96972265       3.57972434      21.04876203      -0.13232984       0.31335626       0.14042537
Na       6.24487411       1.58458735      13.92420063       0.16742209      -0.36444350       0.31878055
Na       2.25819601       5.84879800       7.88009091      -0.07307861       0.18146321      -0.41527742
Na       3.71835504       9.46973304      14.45859436       0.21587425      -0.24772168      -0.11613162
Al       7.12236804       5.22624209       8.94774960      -0.07468584       0.27833674      -0.10900119
Al       4.73674840       2.64364078      11.51695206       1.27041977       1.35741497      -1.19101604
Al       3.19210812       4.94238087      18.61468446      -0.78365374      -2.47434055      -0.44285889
Al       5.57900968       7.21668044      16.00492441       0.21113896      -0.29887947       0.62674382
Al       0.50488036       2.67051877      11.53224238      -1.94451947      -4.39254773      -1.57570738
Al       8.07633137       9.46430375      23.02352854      -0.13122188       1.06983102      -0.53599783
Al       9.67498902       7.83294894      15.93561493      -0.98173390      -0.38259042       1.78107503
Al       2.28988916       0.49615872       4.67448850      -1.92586723      -0.56034687      -1.22425337
Si       2.88269947       5.57878038      15.46603918       0.59529575      -1.85608371       1.56560822
Si       4.54902686       7.68593841      18.89509818      -0.64343885      -1.89052734       2.86195434
Si       7.33592262       4.24455978      12.13668784       1.60139118       1.04337034      -2.39539939
Si       5.65548614       2.31330506       8.56774996       0.13144452       2.59132215      -1.43618142
Si       1.17494046       7.63860963      12.16630702       1.00775844      -1.24885461       0.93795404
Si       2.68921152       9.00155143       8.47061058      -2.74256563      -2.40498903       7.00219633
Si       9.16856941       2.66586672      15.44572173      -0.67491143      -0.65745538      -2.80218347
Si       7.63048479       0.96266558      19.05748542       4.04131036       2.02426198       2.76599375
Si       0.77219179       3.09877604       5.75330127      -4.82621357      -3.85805555      -0.83552230
Si       7.32911882       9.65233631      15.03441287       0.48772029      -0.80876076      -0.57899281
Si       9.83119091       6.86933496      21.83626014      -4.38177247      -0.17648587      -0.42006440
Si       2.85477008       0.50104831      12.68081307       0.95077354       1.47940309      -2.83023265
Si       7.75832577       5.30669646      14.86345979      -1.50814662       0.74626351      -0.89233222
Si       4.82006623       2.12382119       5.53630006      -1.00459246       0.70018782       0.26499621
Si       2.57026908       4.62508246      12.55686782      -0.43878399       2.42423246       0.79629380
Si       5.54684709       7.97379860      21.95668200      -1.82691557      -2.21895059       0.83730886
O        8.76749709       5.58445502      22.11766564      -0.28827349       0.37437936      -0.39014345
O        4.17090974       1.53473002      12.64985377      -1.41495264      -1.97945730       0.78865741
O        1.88511722       4.13654143       5.72097201       2.13056821       2.97910693       0.01461337
O        5.94726546       8.76077546      15.13416241       0.10082736      -0.92546547       0.20945297
O        1.12289674       3.91865405      12.29290458       3.02671935       3.69284320       2.77483572
O        6.53638138       9.20015720      22.13056379       1.10818365       1.44948239       1.39489940
O        9.02768458       6.27667550      15.11998928       0.40210160       0.43888585       0.44263001
O        3.86334375       1.10977064       4.69391467       1.93194663       0.39670063       1.97303885
O        3.39205521       6.50767188      19.21661753       1.15100091       0.55905027       0.33245492
O        3.95071925       6.75946948      15.54039289       0.56847261       1.37706648      -0.52323643
O        6.52307975       3.67295999       8.24238988      -0.38786814       0.85398114      -0.17454295
O        6.47522054       2.85844028      12.05506611      -1.38666213       0.35651588       0.58101929
O        1.28870018       8.09140491       8.07772686       2.83597433       0.60563591      -0.52991632
O        2.18777886       8.86442674      12.67860263      -0.08354140       0.20886664      -0.34431656
O        8.92915116       2.17627443      19.43100129      -2.21531232      -2.43733982      -1.09835821
O        8.25517348       1.36397837      15.29031374      -0.49687201      -3.74714579       1.32479788
O        2.80711803       4.80412565      16.92584006       0.74332263       0.16752380      -1.16376024
O        5.63813671       7.36191806      17.81181652       0.43450721      -0.16925376      -1.89244780
O        7.08898761       5.06823461      10.68181072       0.11434264      -0.76217566       2.06839409
O        4.72726632       2.24676270       9.81411863      -1.59144693       0.30177667       1.94803646
O        0.41813987       7.88520819      10.80014776      -0.48280325      -0.63874821      -1.40831087
O        2.05467668       0.07103410       3.01637191       0.43331405      -1.33810623      -3.04451015
O        9.65187540       3.07319196      16.85522716       1.92888844       0.00513238       1.92805551
O        8.14753259       9.64697702      24.87311834       0.43861864      -0.69027470      -3.95846635
O        9.20592587       8.13726321      22.72625289       1.26217836       0.16975444       0.10056088
O        1.63353599       1.25255233      11.66266916       1.63255465      -1.84852714       1.62717317
O        0.99625591       1.70825896       4.83798674       0.30087572       1.36461958       1.14607801
O        8.47514030       9.14875578      16.09175222       0.43268378      -1.01344265      -1.42584421
O        3.88563666       4.19157353      11.71139360      -0.62081710      -0.34665802      -0.24872028
O        6.02816814       6.58118640      22.60184952       0.49622262      -0.14350897      -0.22354868
O        6.46929941       5.67999797      15.75670148      -0.40760080       1.29698379       0.97518156
O        4.45859050       3.65158737      18.80444226       0.47648853      -0.44205849       1.59593882
O        8.89426013       3.50804866      12.07338283       1.04414811       1.08022841       1.06629096
O        6.86871611       1.33997922       8.81555992       1.81640045      -1.50938873      -0.00566393
O        1.41282938       6.20154031      15.39330649       0.32429203       1.01714439      -0.23685516
O        3.52074521       8.87331144      18.51030489      -1.52490332       3.66705367       1.69518293
O        7.90890383       3.69222218      15.17613004       0.03096692       1.94187118      -1.17424537
O        6.41889923       1.96689555      18.97092529      -2.34956533       1.08011228      -0.47799530
O        2.25182960       6.27035629      12.06303968       0.22842700      -0.68306189       0.82560436
O        3.96690864       7.96689247       8.91181722       0.23112219       1.26056023      -2.03799947
O        6.95313069       5.50941991      13.29604941       2.17476659      -2.65792151      -0.32690851
O        4.71738229       1.72215218       7.31754184       0.00386211       1.09146455      -3.20131997
O        3.17684408       4.54103220      14.17429158      -1.40941488       0.81022094      -0.71189793
O        5.34023241       7.88502257      20.35814047      -0.92203024       0.36195705      -1.61118033
O        0.53520669       2.57915704       7.31781042      -0.25362805       0.82227714       0.99643269
O        7.53418288       0.01560580       6.49907820      -0.72372103      -0.65842373       3.07614335
O        9.78924342       7.35120703      20.24615053       0.99757897      -0.25442240       0.40121981
O        2.80076904       0.28035809      14.35562583       0.26036513       2.07337661      -5.03330039
80
Lattice="9.77192453 0.01751879 6.90363604 0.24348012 9.76890588 6.90363604 0.01370155 0.0133883 13.86910312" Properties=species:S:1:pos:R:3:forces:R:3 energy=-574.62698498 source_file=vasprun.xml step_index=720 time_fs=77440.0 time_ps=77.44 file_index=38 pbc="T T T"
Na       8.10449982       3.75002383      20.86502645       0.59924757       0.13140201      -0.43220145
Na       8.35902624       1.26938290      10.54041004       0.01320864       0.00620666      -0.58772565
Na       6.08289375       3.42437679      17.22885412      -0.19122088       0.34245602      -0.21141775
Na       1.11861150       9.63104993      15.42506829       0.21772567       0.25044794       0.17452251
Na       2.48400681       2.76713246      15.70631351       0.12909725      -1.39907486       0.17921002
Na       6.16710687       9.58790253      20.11061373      -0.14647657       0.37554043      -0.11241087
Na       6.08224622       8.19512088      11.93013489      -0.20127256      -0.64809485      -0.20926279
Na       1.72590953       5.99563294       7.18896075      -0.34674976       0.38155360       0.39500967
Al       7.16500856       5.45318201       9.37380956      -1.71718823      -1.19623910       0.80778951
Al       4.48061159       2.88977942      11.52957625      -0.44560511      -1.20061717       1.48052087
Al       2.50947070       4.53712191      18.62835918       1.11885854      -1.86829630      -1.43239765
Al       5.29963575       7.08371416      16.28321549      -1.81480593       1.09186174      -0.85467058
Al       0.28991135       2.23804101      11.64374016      -0.26301423       0.26350841      -0.80265617
Al       7.51671972       9.62310206      22.87603483       2.06484633       1.27082388       0.69612459
Al       9.42464360       7.69595118      16.12143520       1.09994125       2.83909439      -0.28327633
Al       2.28138640       0.40889857       4.95331432      -1.31406318      -1.12300003      -1.61787413
Si       2.39100605       5.62946663      15.73146803      -0.48826485      -1.16753865       0.12322508
Si       4.18751418       7.21864782      19.25544659      -0.87315556       0.75509770       2.02766809
Si       7.10036252       4.49182773      12.17240959       3.63931542      -0.07521564       1.07244382
Si       5.46280275       2.63592284       8.65209021       3.89078598      -0.46588662      -1.11423897
Si       1.05631515       7.34592387      12.28860133       0.93950941       1.33322845      -3.35970329
Si       2.60619558       9.10360608       8.75755209      -0.00736475      -0.50996040      -0.29857044
Si       9.01643731       2.56539614      15.44381729      -4.04866910      -1.54149927       3.34485747
Si       7.26372635       1.00621334      19.14069170       1.32279460       2.46180300      -2.20078347
Si       0.22735764       2.90648661       5.55836677      -1.24310653       0.42870552       1.03547126
Si       6.90834747       9.32066048      14.89246751      -1.50432290       0.63645590       0.38456935
Si       9.51893926       7.12589821      22.02330418       2.17048220      -0.58845455       1.19177195
Si       2.81821513       0.43216621      12.75138467      -4.65309338      -2.34969725       1.25410698
Si       7.52025309       5.32286886      15.29647647       1.51345757      -0.45635756      -0.44999125
Si       4.40422604       2.12929881       5.79909192      -1.33972082       1.10223546       1.16244139
Si       1.90994971       4.54869956      12.75679767       2.09430039      -1.28701745      -0.22533688
Si       5.16158234       7.75152064      22.16345010       2.57588899      -0.77879233       0.32969716
O        8.61985318       5.94885896      22.51831088      -0.36935334      -2.21738708      -1.12568210
O        4.12969197       1.18753273      12.40353468       2.75424055       1.45527728      -1.45173022
O        1.12177470       4.22304502       5.73773370       0.21265075       0.70139311       0.02503948
O        5.69573601       8.18590266      14.85693090       0.81766671       0.69194648       1.02912777
O        0.51466251       3.89388041      12.17028843       1.12055937       0.99637920       1.11769437
O        5.85315110       9.19570562      22.64683792      -0.27242576      -0.74662246      -1.83212928
O        8.77101948       6.34548296      15.36632471       0.46810888      -0.95739290      -0.57322404
O        3.63945909       0.66489354       6.00661109       1.12811686       2.09686132       0.09955622
O        3.13278160       5.97301446      19.27919909       1.30048151       0.67210027       0.61828685
O        3.89857671       6.21394358      15.68524842      -1.98312394      -0.14718931       0.10555069
O        6.97551012       3.52500435       8.84929502      -2.11033206       1.38632010       0.43077672
O        5.90676147       3.53297559      12.25820892      -1.78458957      -2.03625203      -0.81782009
O        1.14191129       8.55216469       8.39805488      -2.02689539      -1.72628465       0.93052304
O        1.99766701       8.61720277      12.51709162       0.36702097       2.03891666       0.09416282
O        8.58620043       2.01280614      19.48855520      -2.63147432      -1.54221353      -0.53512815
O        7.79528980       1.34372335      15.05499491       1.01631662       0.01419578       0.97430911
O        2.04776480       4.50204746      16.94925447       0.67311889       1.70142838      -0.91855710
O        5.17527721       7.27418373      18.04621662       0.75799553       0.92166683      -1.92727402
O        7.10708137       5.73613396      11.13730847       0.49069459      -1.02389381       0.54055664
O        4.44130050       2.88208786       9.81402002      -0.37440729      -0.50690984       0.59184988
O        0.25410183       7.64798806      10.81658149       0.42254644      -1.25291656       2.83010118
O        2.69853889       0.18729797       3.20836092      -0.25874666      -0.38417485      -0.01483360
O        0.19793921       2.17425936       9.86921444      -1.34559792       0.14229646      -1.61761720
O        7.37157055       0.21446181      17.70315973      -0.34752461       0.43558007       1.16501156
O        8.86380519       8.45359508      22.54390635      -1.09987765       2.45064378       0.52100242
O        1.40100756       1.00659240      11.99415342       3.12222334      -1.52597827       1.49034715
O        0.96949746       1.72446077       4.68087605      -0.68308867      -0.30104562       1.30177160
O        8.04244402       8.88918230      15.94511587       1.17568828       0.04695988       0.21566347
O        3.25902596       3.74794095      12.25874274      -2.67743413       1.22816561       0.48169187
O        5.87442432       6.58608020       9.10614723       0.53693661      -0.84463572       0.10030943
O        6.32321140       5.78665275      16.24887621       2.09792795      -2.29618119      -0.34240215
O        3.69097347       3.07830381      18.52988176      -0.68158021       0.88034830       1.02168896
O        8.49066986       3.31253534      11.73952493       0.48638105       0.18079401       1.25526257
O        6.22629090       1.07081529       8.54513726      -1.19474909       0.96324943       0.19641767
O        1.24914999       6.83414590      15.88388756      -0.15629230       0.32956108      -0.99601425
O        3.13055599       8.48196029      19.42878138       0.63087610       1.63517625      -0.44530789
O        7.91875908       3.83436132      15.87562187       1.71774496      -1.50518503       0.45349306
O        5.87630873       2.07667066      19.01570708       3.82228665      -2.08813351      -0.34933282
O        2.14671647       6.10751598      12.34461229      -1.34500280       0.14749783      -0.45397470
O        3.62532846       7.70063208       8.58718869      -4.04608953       1.84501929       1.03928325
O        7.36729606       4.91361716      13.73745672      -0.34997741       0.96336777      -1.26696993
O        4.74553976       3.03126337       7.23385358      -0.70732471      -1.16032582      -1.09875013
O        2.10385677       4.47721136      14.44128394      -0.69508340       1.69885418       0.10863856
O        5.30353670       7.29154234      20.58646227      -0.51611253       0.74831255      -1.66872654
O        0.17230892       2.60118310       7.29232602       0.97902092      -0.08774023      -3.44694135
O        7.29555545       9.63060445      13.26854454      -0.44061087      -1.50691620       1.96893543
O        9.89984777       7.35420985      20.48254314      -1.88512062      -0.85177212       0.13924076
O        2.59180575       0.39821851      14.46981769       1.10174337       1.33324565      -1.41107709
80
Lattice="9.77192453 0.01751879 6.90363604 0.24348012 9.76890588 6.90363604 0.01370155 0.0133883 13.86910312" Properties=species:S:1:pos:R:3:forces:R:3 energy=-575.72324773 source_file=vasprun.xml step_index=680 time_fs=15360.0 time_ps=15.36 file_index=7 pbc="T T T"
Na       7.75912283       7.09524281      18.66725184      -0.23849987      -0.13727904      -0.12260941
Na       9.47862984       3.30047652      21.34980095      -0.33182928       0.19609651      -0.11970939
Na       1.69330663       9.74723382      16.52035084      -0.26195052      -0.09565479       0.42264969
Na       8.31059807       7.61981063      11.86757865      -0.17143680      -0.28382247       0.13911484
Na       3.76476162       2.67843508      15.84988818      -0.02644601      -0.31278589       0.18711976
Na       7.37191724       1.48121709      12.95947261      -0.41419818      -0.06783878      -0.27387704
Na       3.69040575       5.43377313       8.79478332       0.06784817      -0.14337306       0.27320917
Na       4.07220923       8.70299329      13.91229531      -0.34883138      -0.06579532      -0.61970883
Al       7.44814694       5.39253142       9.11280845       0.58728540      -0.99162935       0.89603798
Al       4.85064121       3.33948633      11.26356426      -1.04718098      -1.09012759       2.36931687
Al       3.04279691       4.69639609      18.32585549      -1.31893538       0.31977266      -0.91953783
Al       5.67117108       7.07392723      15.83500879      -1.10661723      -2.73176061       2.85330111
Al       0.64896237       2.37593617      11.57079202      -0.48621997      -1.93197568      -0.45032028
Al       7.96178136       9.56485385      22.88553097       1.41967020       0.45080713      -0.56760096
Al       9.83443285       8.07403991      15.91315649      -0.23497029      -0.53744712      -0.49706750
Al       2.47952544       0.65568520       4.84781353       0.03323470      -0.33600145      -2.64674170
Si       2.73962404       5.73025748      15.35549016      -1.56931707       0.71395760      -1.81684803
Si       4.42052894       7.49423827      18.71777213       0.12568522       0.04333823       3.02897190
Si       7.69736860       4.36763841      12.08660230       2.91002487       7.53013184       0.72832570
Si       5.94455723       2.75370992       8.59830618      -0.95090501      -0.88697448      -4.38428296
Si       1.14035591       7.67298096      12.06594490      -2.52018176      -1.34878064      -1.55630650
Si       3.03086056       9.30612232       8.55126170      -1.30324826      -0.35264002      -0.59416379
Si       9.14675104       2.31724413      15.31376156       0.84748056       4.29999358       0.31879250
Si       7.65762381       0.97266558      19.02470939      -1.70697201       1.28969522      -2.04679036
Si       0.67459593       3.05001832       5.67097159       2.36704998      -2.66684821      -0.59740991
Si       7.14156484       9.51508149      14.87579226       0.23059121       0.35297722      -2.27212831
Si       9.74571768       7.09878079      21.70891661      -1.79450742      -0.98688722      -0.28226962
Si       3.32981606       0.71779190      12.50315315      -0.72909426       0.30479900       0.74490862
Si       8.30120484       5.50490855      15.08957682      -2.81949265      -1.55537584      -1.96466098
Si       4.85095881       2.37801668       5.54312049       4.25199455       4.83407285      -0.49541764
Si       2.37257544       4.77116536      12.37744345      -0.92590921       1.43967573       0.15641809
Si       5.56082063       7.78295093      21.81238443       4.55506874      -2.82901212      -2.13780644
O        8.82007229       5.77432705      21.96491465       0.59793890       0.20743933      -0.16113386
O        4.37081272       2.00144367      12.38022128       0.16789839      -1.53226508      -0.25766425
O        1.74108354       4.22590007       5.55396026       0.14049553       0.75780984       1.02527678
O        5.95804507       8.34245743      14.80922811       2.09627626       2.18533290      -0.27681201
O        1.08404846       3.75884936      12.48728949       0.37944808       0.88068545      -0.41652166
O        6.83974056       8.76230080      21.95474882      -2.44241297       0.28992017      -1.24514376
O        9.47526844       6.50456726      14.95201495       1.77829531       3.50643156       1.21702973
O        4.02229294       1.10313214       5.60766218      -3.64796705      -4.16042552       0.80902042
O        3.31264517       6.37831866      18.60658440      -0.60904449      -0.24522423       0.18113870
O        4.03706121       6.59026032      15.18471560       2.71693855       2.31818415       1.04087718
O        7.36140026       3.57397556       8.60778442      -0.98204832       0.50557022       1.24328411
O        6.48382799       3.54865658      11.82515381      -4.50648948      -4.02634256      -0.54743216
O        1.67570333       8.33551183       8.43732237       1.56012990       1.51599168       0.10333166
O        2.24319949       8.75830970      12.42212073       0.94613524       2.80873396       0.02742505
O        8.92802296       1.92021741      19.38883160       0.44865703      -0.53965103      -0.20108352
O        7.72875496       1.49428777      15.15260645       1.59553074      -0.94201461       0.89784236
O        2.73741334       4.61166870      16.45470106      -0.52672534      -0.69418756       2.18441502
O        5.51793319       7.41378357      17.64334441       2.56156870      -0.21321454      -3.86107474
O        7.65416033       5.58858472      10.91832625       0.56195791      -0.71161766      -0.50862722
O        4.69906218       3.08492888       9.60635812       1.69248346      -0.40899658      -2.24992900
O        9.83839935       7.95116401      17.70092495       0.92281190       0.02005563       0.13143999
O        2.93882956       0.55904843       2.87503577      -0.48426928       0.04493565       2.03924481
O        0.27000244       2.27407195       9.80230370      -0.05630734      -1.38380618      -0.30347887
O        8.20283566       9.69670941      24.59473113      -0.29841297       1.12517081       1.45409701
O        9.27438810       8.42718466      22.39945227      -0.18471420       2.68258427       1.46660701
O        1.93720537       1.11692199      11.78201548      -1.22866100       0.68950871      -0.89287205
O        1.30023177       1.90454517       4.63584072      -0.51734954      -0.25091546       0.76099738
O        8.60916529       9.39382001      15.57207987      -0.61486420      -1.27432321      -0.24633687
O        3.49042292       4.41160233      11.30083081       0.34360527       0.20292393       0.07476966
O        6.13150917       6.42567375       8.80992203      -2.35542041       0.65463314      -1.42001262
O        7.04967816       5.99755120      16.02430254       0.38931455      -0.05276696      -0.41462306
O        4.24486494       3.51757429      18.37872440       1.02495253      -1.37011497       0.43422041
O        9.07474258       3.61974719      12.02388596      -0.09794497      -1.70643321      -0.65850224
O        6.10853083       1.06116195       8.49489291      -0.06969011       1.87345901       0.85512157
O        1.39731717       6.87867763      15.47823563       4.11657292      -2.10023668       0.03827112
O        3.84634942       8.98870444      18.72464540      -0.69821574       2.47051536       0.17954453
O        8.80207991       4.02801825      15.32453792       1.19488580      -4.29023237       1.23547343
O        6.34292877       2.00526322      18.75698147       1.27674877      -1.00384600      -0.50540718
O        1.98317502       6.31427073      11.89163621       0.04575801      -1.04553304      -0.25045026
O        4.28201535       8.21331874       8.69248256      -3.07086665       0.74069717       0.95316905
O        7.74802104       5.14917782      13.52839321      -1.15518715       1.07997532      -0.68419693
O        5.30213325       3.19056071       6.93421665      -0.21939689      -1.00061522       2.38990443
O        2.90263206       4.90362233      13.89812787      -0.70959042      -0.29987189       0.95761311
O        5.32704047       7.42029191      20.14124447       0.15885185       0.06925891       2.20936593
O        0.39373819       1.99842933       7.02145147      -1.22069647       1.43599857       1.24012901
O        7.28592263       9.69380573      13.14255586       0.84642965      -1.11743385       2.36592822
O        9.72394659       7.32674937      20.08483458       0.56900481       0.38900684      -0.03645165
O        3.03262456       0.52915866      14.15855307       0.45068386      -0.51613401      -0.11799311
80
Lattice="9.77192453 0.01751879 6.90363604 0.24348012 9.76890588 6.90363604 0.01370155 0.0133883 13.86910312" Properties=species:S:1:pos:R:3:forces:R:3 energy=-574.79197771 source_file=vasprun.xml step_index=235 time_fs=32470.0 time_ps=32.47 file_index=16 pbc="T T T"
Na       0.28338060       3.17452309       2.89674174      -0.10263135      -0.05556645      -1.59196232
Na       5.64852755       3.05244468      16.19392369       0.08454108       0.02479428       0.51612382
Na       3.66811551       5.44645619       9.65450538       0.23617551      -0.26671336      -0.07984183
Na       2.01447760       9.38506914      16.33683395      -0.28039635       0.17929638       0.29971230
Na       7.30540996       9.35089999      18.22875574       0.01565893      -0.15364722      -0.27491539
Na       8.55922371       4.65009293      20.15468371       0.11339171      -0.55054592      -0.54673198
Na       1.06183970       6.90660028       5.98861257      -0.12396269      -0.20990394       0.35938409
Na       4.66599503       7.90656802      13.10537042      -0.50473716       0.14649615      -0.60173987
Al       7.01736046       5.32813376       9.01873920       1.68438692      -2.25375075       2.60564543
Al       4.77286106       2.73223588      11.15719740       2.96189828       2.10385369       0.27857036
Al       3.08578034       4.45380718      18.47733719      -0.30052543       1.27780074       0.56025357
Al       5.58463077       6.81532812      15.77865601      -1.79596324       0.75275095       0.95858667
Al       0.72323524       2.23776089      11.23790282      -1.76975083       0.78105831       0.70098785
Al       8.08196318       9.21435895      22.95702192      -2.99399001       1.17086972       0.87013887
Al       9.64393054       7.63770303      15.91786889       0.45223349       2.00962674       0.42993295
Al       2.12982494       0.29463486       4.45585504       0.45482977       0.99426759      -0.48992294
Si       2.65078699       5.61209729      15.45047910      -0.81987119      -0.72346163      -0.39747522
Si       4.24304615       7.33743852      18.83244558       0.96032986      -0.02735288      -1.54006549
Si       7.58950611       4.33168363      11.94351398      -3.20872439      -0.75978591       1.70688284
Si       6.00809748       2.60878661       8.29158593       0.24305391      -1.30699156       1.47013059
Si       0.94292657       7.20499858      11.90197483      -0.21429019       2.48338479       1.09143309
Si       2.84913151       8.90190578       8.41830816      -1.33611329       2.27952678      -1.67335419
Si       9.11686049       2.43309524      15.31637969       0.83698813      -1.44854903       2.78922982
Si       7.66936667       0.86983563      18.84645134      -1.92242484      -2.92282515      -1.33288614
Si       0.61807838       2.92376501       5.54621357      -1.32549913       1.46781083      -1.53989160
Si       7.15528374       9.33075582      14.87587827       2.95459311       1.09491811      -2.22714675
Si       9.54699882       7.03488071      21.75178974       1.77741873      -1.71352945      -1.70047371
Si       3.19208138       0.45153670      12.45897772      -3.85888133      -2.24229716      -0.37733734
Si       8.06953801       5.28686140      15.02437241      -2.48018733       0.98987463      -1.36067714
Si       4.71518015       1.97404365       5.49107907       0.40135044      -0.48612016      -2.09907480
Si       2.39365047       4.54778659      12.55077433       0.37407914       0.05229879      -2.59294763
Si       5.38716915       7.44407819      21.69294584       0.86286248      -0.27576628       3.63485505
O        8.26299578       6.06242498      21.87025343       0.96883844       0.23523153       1.03625035
O        4.40639792       1.24667274      11.91395182       1.91575282       0.18817727      -0.27519799
O        1.67687396       4.07299331       5.70491369       2.06006216       1.19996397      -0.54770034
O        6.13888866       8.13333098      14.62862402      -1.42361338      -1.49471093       1.60527503
O        1.04282145       3.77110298      12.04288535       0.66358391       0.68793230       0.80153860
O        6.50024625       8.40489235      22.38036961       0.64945942       0.50367674      -0.50195378
O        9.29619204       6.33908038      14.87795399      -0.40743008      -0.52574383      -0.17387470
O        3.51423782       0.69645480       5.54564438       1.95113374       1.84409471      -0.03649457
O        3.15245028       6.18041137      19.18248882       0.56688127      -0.79478177      -1.04783648
O        3.89002564       6.49864896      15.08291624       2.86974641       2.70873240      -0.00708612
O        7.32421180       3.46029447       8.59505444       1.32835886       2.44210365      -0.90466466
O        6.50201097       3.04931357      11.88138855       0.25016959       0.39348379      -0.02340939
O        1.36977352       8.28690603       8.26807708      -1.09288140      -0.67026544      -0.17415681
O        1.53738868       8.75243274      12.20649537       0.46653327      -0.78417317      -0.93998562
O        8.84414445       2.03238270      18.90325240      -1.08013303      -1.34599103      -0.26913802
O        8.02495732       1.14652258      15.57776723       0.91737326       2.87459741      -1.22773976
O        2.99028719       4.71958161      16.72466140      -1.09718942      -0.55259195       0.82557144
O        5.25543153       7.22672347      17.50616858      -0.54988583       0.16551861       0.59569732
O        7.13945936       5.43868664      10.90647506      -0.61351317       1.44718597      -3.43346770
O        5.00786491       3.16157655       9.42433637      -1.67910122      -0.83902880       1.59941803
O        9.60175534       7.35778112      17.64859439       0.99468856      -0.84733767      -0.82188905
O        2.69091746       0.14856531       2.70572280      -0.45545689       0.85712921       3.41555801
O        0.60986985       2.22457280       9.51127761      -0.74018599      -0.43113063      -1.01957846
O        8.04398954       9.17799005      24.69367671       0.58283064       2.95996663       1.30804902
O        9.49622424       8.52079191      22.34673499       1.26827168      -1.04097180      -0.90846870
O        1.80552940       1.04349356      11.73152894       1.57752449      -0.99352892       1.09245747
O        1.16931242       1.88795472       4.43143939      -0.36937311      -1.47649536       0.27201368
O        8.32628695       8.83505902      15.96735041      -1.07284530       0.53390723      -1.23237296
O        3.73206219       4.00672761      11.71112571      -1.65682495       0.88982319       0.73415293
O        5.66837315       5.86248044       8.19982535      -1.97811393       0.42824361       0.30881827
O        6.69242842       5.52091057      15.97627551       1.35022772       0.14108204      -1.12196561
O        4.40749337       3.30898152      18.37329758      -0.98089500      -0.74205453       1.26429620
O        9.09944286       3.94894275      11.51662194       2.31247682      -2.26499996       2.04200706
O        6.50795617       1.02856042       8.46760896      -1.26480604       0.68746911       1.45359081
O        1.17703032       6.35244831      15.53899994      -0.33391325       0.25953342       0.08023680
O        3.37362517       8.72353835      18.51838914       0.38814551       0.08740267       1.05625842
O        8.58539967       3.97345675      15.71540603       0.84806859      -3.78935202       0.09332914
O        6.08465425       1.52504119      18.41219938       1.06970182      -0.34280891       1.36121387
O        2.18714494       6.14945797      11.93925568       0.75741613      -0.70790221      -0.44536984
O        3.83871620       7.68023657       8.45489469       1.93389884      -1.93614193       0.41646636
O        7.46131126       5.09230711      13.50754058       0.61514609      -1.20959998      -1.41914114
O        5.14985299       2.64960751       6.94069617      -0.62440358      -0.60029807      -1.83738133
O        2.66062596       4.64738913      14.12617857      -0.94169536      -1.27021515      -0.25509345
O        5.22433660       7.40030680      20.15961618      -0.01765811       1.24910720      -3.97556372
O        0.17077773       2.44798287       6.98901955      -1.49182624      -0.88569851       0.38854209
O        7.49249179       9.72418883      13.22365479       0.90401451       0.17521199       1.61035406
O        9.76318340       6.81728456      20.06325430      -0.49944721       0.21437090       2.33449211
O        3.12169416       0.12347522      14.07965266      -0.19644715      -0.03301263      -0.94345580
80
Lattice="9.77192453 0.01751879 6.90363604 0.24348012 9.76890588 6.90363604 0.01370155 0.0133883 13.86910312" Properties=species:S:1:pos:R:3:forces:R:3 energy=-575.36326366 source_file=vasprun.xml step_index=210 time_fs=16420.0 time_ps=16.42 file_index=8 pbc="T T T"
Na       7.71227148       7.59434602      19.02447590       0.36972646       0.14720083      -0.65120874
Na       8.61601331       4.01291586      20.48056622       0.61895329      -0.26465967       0.11707667
Na       1.20044888       8.12907504      18.21446126       0.22902433      -0.09123159      -0.08721414
Na       6.70911311       7.75771381      11.56198955      -0.00619018      -0.55099656      -0.10710452
Na       4.09934035       2.19974632      15.93780149      -0.30604468       0.75421681       0.28583311
Na       6.61752913       1.80233173      13.80181379       0.40069103      -0.35543532      -0.10507153
Na       3.02490119       3.78898664       8.69342801      -0.13762223      -0.11169874       0.33879718
Na       3.59120712       9.17267927      14.18341184       0.04672361      -0.03425221      -0.47920572
Al       7.26102883       5.41899081       8.92854453       4.44719717      -2.32639627       2.06838431
Al       4.97912283       3.03545399      11.56404249      -1.39220407       1.26238405      -3.11549738
Al       3.12419774       4.62129914      18.08369644       2.66012214       1.63042942      -0.41195908
Al       5.80724695       7.44156288      15.86435326      -0.52959015      -1.03014858       1.62154399
Al       0.52155124       2.36495899      11.45431537       0.77110337       0.39066266       3.13372337
Al       8.39748712       9.65531072      22.87511950      -1.77925662       0.65336870      -0.28160969
Al       0.29174975       7.74243317       8.97122284      -1.38030512       2.50916638       1.16861924
Al       2.14890473       0.73269633       4.52711131      -0.56542026      -1.87240616      -0.36524899
Si       3.06646959       5.77258307      15.33557297      -3.70913605      -2.52663433      -1.15421387
Si       4.59765183       7.76728479      18.67798266      -2.81625640      -5.10031795       4.74982074
Si       7.77270790       4.67813290      12.07621254      -2.23121929       0.94078487      -0.89904881
Si       6.01824150       2.61253510       8.40734742       1.22430983      -2.10650157      -0.54131846
Si       1.06179159       7.55628713      12.05413605       3.53253647       1.01742653      -0.96771682
Si       3.06851283       9.37336070      22.41511506       1.91368084      -3.99585773       1.02395012
Si       9.48190281       2.85183758      15.36514607      -0.07458338      -2.47607430       0.66020892
Si       7.58018304       0.71732038      18.89383428      -0.40719719       2.24938395      -1.39438791
Si       0.87174937       3.33398349       5.72914159      -0.43319230      -1.53145180      -1.39352326
Si       7.29948061       9.54689046      14.68670890       3.13917909      -0.33034484       1.00925909
Si       9.91524268       7.22057359      21.99804386       2.98001859      -2.08968206      -1.11840987
Si       3.00775274       0.68900969      12.55289341       3.68674281      -1.69889805       1.40022949
Si       8.28619044       5.63449251      14.78042341       1.55364376       3.29818183       3.27663568
Si       4.77401269       2.09336009       5.36785334      -0.15384115      -0.96891660       2.24358037
Si       2.37685474       4.68569545      12.43874149      -0.31107910       0.05709312      -1.45703986
Si       5.89120122       7.93316334      21.58487138      -0.50859881       1.45951616       2.80173896
O        8.93910836       6.00621016      22.24499979      -1.49743320      -1.43867859      -0.66258693
O        4.42368957       1.55186919      12.17476199      -1.86790994      -1.92806189       1.66075422
O        1.92593340       4.54252129       5.42503803      -1.10344544      -1.25716921       0.99268907
O        5.86376210       8.85458742      14.86972795      -0.76353272       0.11574949       0.01269693
O        1.07674724       3.69639452      12.76081221      -0.56518063      -0.68114638      -2.41843422
O        6.98435544       9.23488837      21.86907146      -0.99055812      -1.00280055      -1.26140657
O        9.84218672       6.32300821      15.11399177      -2.75322827      -3.99587131      -2.00458499
O        3.55418283       1.01081853       5.39593514       2.78797869       0.57067883       1.56994105
O        3.82676836       6.35588386      18.28410702      -0.26396784      -0.54558042       0.73433126
O        4.28633594       6.69006749      15.35437830       2.90962215       2.23073099       0.30785254
O        6.97891966       3.90042025       8.15053026      -0.40035034      -0.03102202      -0.25909518
O        6.43629262       3.68636594      12.19050887       0.92941451      -0.39281417       1.64232943
O        1.83918177       8.35760696       8.45203044      -1.09763466       0.19531699       0.20475175
O        2.05492154       8.92448972      12.16667242      -1.11629272      -1.28802093      -0.68800231
O        8.74341523       1.80439459      18.95455184       1.10923911       0.81769217       0.13009858
O        8.46483628       1.49860743      15.28658556       1.12377500       0.88047468       0.16344997
O        2.74623014       4.58244751      16.39374134       1.15708826      -0.92847511       0.25238972
O        5.58502394       8.07305521      17.62840028       5.02519806       1.52294283      -6.37083043
O        7.41400963       5.46732400      10.69295324       0.62623829      -0.05116380       0.54433997
O        5.24636065       2.63040214       9.81296431      -0.16372069       0.50150056      -0.24208906
O        9.86167506       7.46351664      17.69673528      -0.92278389       0.98652708      -1.04288417
O        2.75080687       0.63373788       2.87064051       0.03225556      -0.18708788      -0.39947305
O        0.64349028       2.73439841       9.80908755      -0.57339100       0.69960985      -0.90179083
O        7.79134260       9.55713425      24.52648985       0.88679684      -0.88644952      -1.89716309
O        9.60431671       8.44791676      22.97573213       1.15609769       0.42688734      -0.02248087
O        1.59324980       1.04131680      11.97914595      -0.46615664       0.23083359      -0.63718612
O        0.98261630       1.90412523       4.87291780      -0.48907395       2.43675461       0.69663824
O        8.57670977       8.69627043      15.26347105       0.02984443       0.42320513       0.80182073
O        3.45430432       4.02187820      11.30836914      -0.44479148       0.41383555       1.49701807
O        6.40587475       6.66161405      22.38570057      -2.44181635       2.99611160      -1.14359238
O        7.11630809       6.29452509      15.77665582       0.73440900      -0.85937847      -0.60514736
O        4.35125426       3.24191839      18.19242702      -0.61944296       1.64975453       0.19727400
O        9.14075586       3.88848895      12.22838241       0.41932596      -0.40196489       0.07182035
O        7.16064618       1.32490958       8.30714657      -1.27185787       0.86439777      -0.03075767
O        1.66233752       6.56877579      15.47145614      -1.55244094       2.62379676       0.12999644
O        3.43463897       8.79251540      19.05254307      -1.03347675       2.29237866      -0.17148366
O        8.45970232       4.05024610      15.08224130      -0.81673284      -0.08586021       0.30140889
O        6.24555202       1.60776329      18.71628978      -1.63904936       1.01446809       0.30484327
O        2.00845134       6.22416046      12.00373613      -0.34900542      -0.08705130      -1.13132414
O        4.46122349       8.11299744      22.36793578      -1.97130409       2.94660359       0.31210387
O        7.79222045       5.88250243      13.26757175      -0.43671882      -0.76548767      -1.84795742
O        4.94812823       2.28290369       7.15858463      -0.21714730       1.11121161      -1.35464363
O        2.97544935       5.06954871      13.83917974       2.16278115      -0.79465507       2.33770550
O        5.73608035       7.49197156      20.05085791      -1.22049900       0.68793279      -2.09678771
O        0.89270687       2.89166564       7.33569621       0.41694427       0.44939429      -0.70527203
O        7.57732657       9.43534979      13.06668044      -0.18564305      -1.22893368       1.53371180
O        0.33502661       7.60312498      13.45957697      -2.80777632      -0.07990177       2.76005252
O        3.25800045       0.41281133      14.22527146      -0.30437759       2.90286976      -2.61349109
80
Lattice="9.77192453 0.01751879 6.90363604 0.24348012 9.76890588 6.90363604 0.01370155 0.0133883 13.86910312" Properties=species:S:1:pos:R:3:forces:R:3 energy=-576.55274269 source_file=vasprun.xml step_index=565 time_fs=71130.0 time_ps=71.13 file_index=35 pbc="T T T"
Na       8.10149608       4.16663820      20.17880295      -0.00446732      -0.25968594       0.71342864
Na       8.53279889       1.02678746      10.36374889       0.19965598       0.34171265       0.23144379
Na       9.14932408       4.89269796      17.55120393      -0.00346863      -0.38330190      -0.79785300
Na       4.16363157       8.89485101      13.89315126       0.21306211      -0.36306988       0.45546250
Na       2.61813923       2.25735108      15.69481885      -0.16560620       0.37985646       0.03236204
Na       5.81081263       1.12760401      13.75889235       0.62458541       0.35998075       0.07167197
Na       1.44935604       8.32862887      17.32256126      -0.30585719       0.35830585       0.00215742
Na       2.27933053       5.40091088       7.59328810      -0.26064891       0.23399338      -0.20098863
Al       7.03696730       5.27842777       9.01370245      -1.25591825       0.28525194      -2.02244145
Al       4.46127748       2.80970743      11.60679149       1.61042049      -0.73007288      -0.56649415
Al       3.10684197       4.70636382      18.57981239      -2.40148041      -0.86596056      -1.77216774
Al       5.54030179       7.07208754      15.99564319      -0.25808514       0.60430089      -0.98661321
Al       0.22416112       1.95588970      11.77464149      -0.15591564       1.86713674      -1.75757983
Al       7.99923359       9.61512736      22.97944699       0.82707369      -0.40614806      -2.64055273
Al       9.58047650       7.63437881      15.91105814      -0.71099758      -0.14807494      -4.47727718
Al       1.92653694       0.17405828       4.65948821      -1.59538438       2.38872891       0.42444522
Si       2.71993193       5.83069045      15.22214884       2.53613866       2.44506600       2.90366218
Si       4.44345750       7.46342213      18.98147751      -0.94106923      -1.42112548       3.35826918
Si       7.19319518       4.24072209      12.06272943      -1.17818526      -1.74338353       2.69554442
Si       5.83121971       2.42599029       8.43337682      -1.96811176       0.02371017       4.07433303
Si       0.46682295       7.25695854      12.01090781       0.69479720       0.63099204       0.76459740
Si       2.54751632       9.02112069       8.54617816       0.70556053       1.57271564      -0.80335187
Si       9.24039588       2.42446221      15.37278831      -0.00300010       2.71407525       1.43970237
Si       7.30388906       0.79342464      19.10449178       3.83548412      -0.02902904      -2.64058969
Si       0.45465826       3.07396944       5.71565318       0.50987114      -0.26142707      -0.05094114
Si       7.37930317       9.50692296      14.85031488       3.18274950       0.20493915       2.48087090
Si       9.58574061       6.97749221      21.80404832      -2.08910367       1.64391760       1.02899178
Si       2.63554342       0.39433651      12.74593397      -2.80405121      -1.38753687      -1.07392356
Si       7.77579972       5.37758327      14.73793035       0.73527485      -0.50811202       1.64097609
Si       4.34965372       1.84211688       5.76759951       1.15500890       0.10028290       0.17053632
Si       2.21617290       4.56168945      12.40714178      -2.70980093      -0.86859654       0.46699700
Si       5.52699418       8.00736331      21.70520212       1.51349162      -4.78093920       0.44063754
O        8.62294251       5.72621455      22.28540086       1.54966615       0.63897662      -0.44981581
O        3.72070160       1.52324711      12.71681610       2.10658430       1.66049677      -1.02788751
O        1.39996967       4.32422737       5.27349725       0.51268061       0.48199587       0.64715753
O        6.20464294       8.50915132      15.17168711      -0.86660983       0.00732386       0.38397040
O        0.94132287       3.37290712      12.64232789       1.39472039       1.80760623      -0.90626862
O        6.42110979       9.18405655      22.23355620       1.90813236       1.56504747       0.47083647
O        9.15153358       6.33443881      14.70896022      -0.81863958      -0.30400579       0.93119789
O        3.24103819       0.62637897       5.65744861       2.04530878       0.82216806       0.05559210
O        3.69980062       6.00786151      19.49035161       0.84569793       2.33106520      -0.43156531
O        4.06045907       7.00922271      14.93009403      -1.81537966      -3.02213966       1.55416842
O        6.53795340       3.81003338       8.01808027       0.07965420       0.35105189      -0.17338874
O        5.92619130       3.20300440      12.51532099       1.01373076       0.09149472      -0.16909917
O        1.44832627       7.87525210       8.61094710       2.15109594      -0.20959778      -0.45849304
O        1.33455777       8.58301765      12.18553921       0.47525490       0.41078572       0.17287840
O        8.34864871       2.08322638      19.20463090      -0.54805837      -0.20608364       1.44471176
O        8.25573196       1.26361832      15.07860646      -1.79886222      -2.48996502      -0.24415686
O        2.79389437       5.03904044      16.75631565       0.57403049       0.58244467      -1.73137282
O        5.00605724       7.54698386      17.56113690       0.63264836      -0.36009084      -2.10653932
O        7.02565028       4.66049718      10.55145222       0.35719572       0.37211426       1.77901060
O        5.09662967       2.38403627      10.04865396       0.94695558      -0.26378969      -3.06369623
O        9.55589107       7.27577817      17.48239491      -1.69807167      -1.45827328       3.12976133
O        2.43071066       0.21226319       2.99473824      -0.33059272      -0.64771840      -1.15970647
O        9.83304519       2.38964963      16.90483487       0.19962805       0.65460966      -0.17855170
O        7.86216388       0.11324660      17.71367112      -0.70168713      -0.23751285       1.82088084
O        9.31179985       8.47692521      22.47086931      -0.48916772      -1.37713335       0.43223805
O        1.25141799       0.62790772      11.86130185       1.66369069      -1.36330219      -0.18948284
O        0.91511426       1.75039766       4.91800215       0.00595278      -1.94337215      -1.25093220
O        8.87164946       9.16394262      15.60148624      -2.21603693       0.67563193      -0.30710313
O        3.40829208       4.14538214      11.41999694      -1.38186397       0.75660963       0.56364393
O        5.86042267       6.48626042      22.42751231      -0.44500530       2.37209278      -0.69472470
O        6.84717891       5.91410235      16.08589364       0.62216916      -0.85079265      -1.61144256
O        3.95692068       3.26161246       5.09985213       0.66775404      -1.37735176       0.16022051
O        8.64109051       3.32506039      12.21298682      -1.33387153       1.17097237      -0.08774885
O        7.06322552       1.31544082       8.56085665      -0.87711353      -0.81837264      -0.97055383
O        1.41763643       6.86759807      15.26264521       0.32153132      -1.09209547      -0.20100618
O        3.33549925       8.64182659      19.19813287      -0.83117243       0.79834440      -0.23332709
O        8.29045025       3.79677111      15.13699464      -1.01883838       2.17352042       0.46359289
O        5.91033421       1.43990470      18.91977987      -5.30598305       1.26793970       0.95226140
O        1.45053345       5.96212063      11.89011397       0.72799639      -1.73133848       0.31759521
O        4.06531068       8.50647182      22.00648432      -3.05506177       0.22385177       0.72026724
O        6.89393182       5.42803800      13.32965953       1.78905050      -1.02682020      -0.92507316
O        4.58186803       1.89717204       7.46604415       0.69651858       0.12303599      -1.61389782
O        2.67846519       4.86471324      13.96733865       0.11234240      -1.26782005      -0.55591636
O        5.63263223       7.76454158      20.05708888       0.51936444       0.54395155       0.80393398
O        0.59624436       2.75929698       7.35982907       1.18765885       0.04044608      -1.12692950
O        7.66979082       9.42754886      13.28188695      -0.24423946       0.20907806      -0.67801103
O        9.18861987       7.11250161      20.18941476       0.91936494      -0.65292468      -0.90608249
O        2.01935360       0.44164011      14.24430896       0.22264079      -1.41220541       3.07735578
80
Lattice="9.77192453 0.01751879 6.90363604 0.24348012 9.76890588 6.90363604 0.01370155 0.0133883 13.86910312" Properties=species:S:1:pos:R:3:forces:R:3 energy=-575.49316272 source_file=vasprun.xml step_index=55 time_fs=18110.0 time_ps=18.11 file_index=9 pbc="T T T"
Na       7.90865246       6.11718733      18.66291709      -0.30235814       0.64593203      -0.29064627
Na       9.08712725       2.89653751      21.22793626      -0.24102164       0.36803671      -0.00790186
Na       1.35101559       8.54124417      17.77821756       0.03760695      -0.09714926      -0.29285910
Na       7.39645146       7.54243568      11.62446055       0.21467913      -0.08280067      -0.27471794
Na       2.70676618       2.51809005      16.11367561       0.12715608      -0.10542768      -0.01497328
Na       6.59238939       1.73224635      13.68689159      -0.06464972      -0.42454596       0.03120157
Na       3.07362292       3.91160175       9.17886991      -0.45224297       0.08844629      -0.25349519
Na       4.02131410       7.76849468      13.41361183      -0.10759396       0.62327076      -0.19152871
Al       7.31971784       5.58942306      22.73918029       1.38592114       0.15224030       0.71688019
Al       4.87545906       3.15174833      11.60011571      -1.46517993       0.15134082      -0.74483324
Al       3.21199199       4.92260536      18.33462314      -1.30171345       0.15484768       1.73128600
Al       5.94080841       7.18958489      15.83385205      -1.02992580      -0.61430782       0.07635875
Al       0.62027869       2.22869386      11.38391883       2.15891158       0.35068274       0.42447311
Al       7.93583028       0.07777894      15.95124754      -0.26462378      -3.75937476      -0.94809483
Al       9.80992288       8.01845827      15.63095032       1.33814853       1.61102677       1.28154815
Al       2.40718333       0.58556079       4.67829620      -1.42648267       1.32747278      -1.41868710
Si       3.00086439       5.75476553      15.38884708      -4.16662306      -3.10416149      -0.55992356
Si       4.84320943       7.68000089      18.79095309       4.76573871      -1.63071305      -0.61351825
Si       7.74802623       4.35364173      11.85755520       2.32837227       2.47886185      -0.99032697
Si       5.79934769       2.82578649       8.42550542      -0.59789765       0.43293463       1.40669503
Si       0.86723304       7.92084703      11.99108951      -0.20634532      -2.70546852      -1.62071915
Si       2.95088303       9.20614943       8.46053519       1.32508050       0.97398393      -0.90318096
Si       9.53467496       2.68643826      15.29199656      -1.67819325       1.17145138      -1.04599696
Si       7.60264968       0.92169504      18.92404748      -2.51377824       3.37320357       1.62370373
Si       0.85571153       3.40803938       5.35223901      -1.13737166      -2.13376827       0.64156554
Si       7.33957986       9.76499091      14.78453891      -0.61802375      -2.13503025      -1.09261476
Si       9.83931240       7.13842196      21.74602523      -0.85312566      -0.98816085       2.81269171
Si       3.16007076       0.66985441      12.71986929       2.66264930      -0.55339942      -0.35770081
Si       8.22132395       5.41552313      14.91655122       1.99990447       0.85687405      -1.04697901
Si       4.63340650       2.26746464       5.73278564       2.57255611       0.84844062      -0.16443940
Si       2.30440177       4.88258441      12.42214738      -1.69764273       0.86638799       3.09613635
Si       5.87143297       8.05830630      21.63404347       1.17500414       0.35502611      -0.63470945
O        9.05268014       5.65702649      22.19917599       0.28061545       1.99068676      -2.00705993
O        4.42889035       1.63962813      12.46329887       0.48337673       2.70739208      -0.63385863
O        1.54003334       4.82754735       5.40399219       2.21904204       0.87110825      -1.48025083
O        6.14248197       8.54826525      14.76227533       0.53812833       1.74399759      -0.23646783
O        1.29177225       3.64757728      12.23853779      -1.63122087      -0.47141941      -0.53477563
O        6.87972175       9.33975003      21.67822456       0.11056862       1.24239371       0.98907992
O        9.48284115       6.44136066      15.24272695      -1.30592490      -2.69464892      -2.11604739
O        3.83014508       0.89832761       5.53659815       0.89513346      -0.67293746       0.90469074
O        3.85068835       6.43017039      18.95764587      -0.21771594       0.19995780      -1.18140732
O        4.25557117       6.60708316      15.28091189       4.02136245       2.45293668      -0.33420661
O        6.52092395       4.21016669       8.20836823       1.72437629       0.68739368      -0.38535365
O        6.50165477       3.42856578      12.11063450      -1.24791565      -0.91527719       0.49508330
O        1.49792420       8.75297590       7.98085179      -0.30797474      -1.15855564       0.35329701
O        1.55747418       9.31979677      12.44868545       0.29638020      -1.56102286      -0.27956097
O        8.86059377       1.88670242      18.99390430       1.59609256       1.35290627       0.44981868
O        8.38503126       1.49189964      15.16512541       1.80555301       1.02599927      -0.06622743
O        3.12060798       4.66032064      16.60673270      -0.60066637       1.09747246      -0.09148358
O        6.02926082       7.72978930      17.43763268      -2.79848110      -0.14195204       3.59042220
O        7.63530535       5.42956258      10.57548805      -0.62829629      -0.96990876       2.77723672
O        4.97395865       2.92766206       9.84813291       0.16473199      -0.75048441      -0.27533179
O        0.28952196       7.69800953      10.44977411       0.54258890       1.11370294       2.98221668
O        2.82605391       0.10212984       3.01242064      -0.46581406       0.23427279       1.15255525
O        0.83030015       2.49075782       9.63528067      -0.88456492       0.02858876      -0.12851907
O        8.04857353       9.75762784      24.61885058      -0.58426200      -1.49017360      -3.38409180
O        9.30760387       8.34993339      22.84332201       0.89883346      -0.40549848      -1.63274939
O        1.85169581       0.91056173      11.85614542      -2.10807367       0.44808560      -0.70311210
O        1.64166303       2.19940286       4.50218888      -0.62325956       0.57133175       0.46825985
O        8.61079288       9.26426021      15.58226278      -0.04739872       0.32249631       0.20940160
O        3.58943353       4.68579741      11.59452438       4.47775774      -2.41982665      -1.92525888
O        6.41173596       7.04671031      22.74904687       0.00023481      -0.56558186       0.02683142
O        7.04943977       5.84904670      15.86987500      -2.17313140       1.43110421       0.02358260
O        4.11399334       3.58367457      18.87388990       0.51155857      -0.59862638      -0.86905570
O        9.12693459       3.51959698      11.54122427      -0.11627888      -0.47195582       0.51278267
O        6.89165180       1.60836477       8.20431716      -0.43461203      -0.68820106       0.41480628
O        1.69016815       6.83481346      15.41147194      -0.71728867       0.35633429      -0.70633324
O        4.13899193       9.07523346      18.87680594      -2.39432229       1.72669430       0.90352702
O        8.33699667       3.92016026      15.43573936       2.90403210      -2.99134181       0.95858559
O        6.30843078       1.95388549      19.19245329      -1.14337029      -0.06911919      -0.57314813
O        1.84041241       6.44065131      12.06801198      -0.00062563       1.05510908       0.74170873
O        4.36601835       8.39291584      22.06898454      -1.85958501      -0.54231145       0.16312455
O        7.95810372       5.20065600      13.28230703      -0.25984388       1.19620051      -0.34859668
O        4.69427641       2.89374368       7.26726598      -1.28679159      -1.78275666      -0.28595065
O        2.66032118       4.70031229      14.10715022       0.15938257       1.17078600      -0.55267771
O        6.01246658       7.50035018      20.06767167      -1.26234181       0.01511621      -0.36922396
O        0.61433242       2.99136384       7.01422047       0.04103758      -0.52092945      -0.24688188
O        7.72204478       9.66073158      13.15675920       0.16187355      -1.44772506       1.96594924
O        9.54358699       7.51716038      20.10100836       0.34716251      -0.19452964       1.23481231
O        3.09458206       0.73089433      14.36796655      -1.06846590       0.01099223      -0.37061455
80
Lattice="9.77192453 0.01751879 6.90363604 0.24348012 9.76890588 6.90363604 0.01370155 0.0133883 13.86910312" Properties=species:S:1:pos:R:3:forces:R:3 energy=-575.4940148 source_file=vasprun.xml step_index=775 time_fs=49550.0 time_ps=49.55 file_index=24 pbc="T T T"
Na       2.37684954       2.41267687      15.72091014      -0.29214411      -0.37282896       0.08041650
Na       6.01249523       3.11520881      17.44448606       0.26500240       0.70660164      -0.55244524
Na       9.52610388       6.57660302      13.11955278       0.20843178       0.14255738      -0.07928115
Na       4.51421807       7.77186297      12.70458158       0.06678791       0.28651647       0.00037421
Na       8.59006096       3.66817921      20.49014357      -0.14997075       0.82321582       0.52065906
Na       6.66506790       9.56351695      18.80292333       0.04252371       0.30275388       0.02802852
Na       2.80574060       8.82782350      15.86073051      -0.35755287      -0.04459877       0.25093474
Na       1.61954915       4.57872599       9.12409266       0.22101773       0.30783399      -0.05293105
Al       7.10257354       5.15964033       9.01574666       0.76970104       0.48596333       0.86172767
Al       4.73807953       2.68881950      11.47217497       1.11137726       1.87834856       0.73292301
Al       2.83535030       4.70518977      18.63140443       4.00250545      -0.82228221      -1.18066526
Al       5.55368642       7.30469884      15.92276338      -0.35873488       2.45452393       0.99082784
Al       0.57726622       2.36765346      11.60195330       0.05008591      -1.09146296       1.25380284
Al       8.02867575       9.44975866      23.12398712       0.11603941      -1.61025704      -0.16248115
Al       9.77266863       7.57155229      16.25555738       0.16687774      -1.08952783      -1.15763990
Al       2.15115649       0.51348308       4.68161988      -0.50227409       0.58428672       2.21199752
Si       2.77559487       5.39731565      15.61290111      -0.09839552       3.27436503      -0.50948482
Si       4.50506133       7.61128703      18.88071047      -0.89242119       0.27755563      -2.36369948
Si       7.36074120       4.20631242      12.31275098      -2.40181007       2.95354488      -1.73090947
Si       5.99310929       2.48622271       8.40128207       1.69871783      -2.15897293       2.76507325
Si       1.22473757       7.43475727      12.27615779      -2.65248984       0.78785790       2.65520951
Si       2.58498591       8.89628908       8.53597918       1.42005131       2.08516061       0.98080354
Si       9.32590106       2.51854683      15.61189234       0.37495921      -0.50824407       1.14295784
Si       7.65937497       0.76308270      19.17137970       0.31508033       2.82393186       0.55199082
Si       0.53312110       3.10692431       5.67713520      -0.89693046       1.03277124       4.32088489
Si       7.54323423       9.41371790      14.90792751      -1.31809990       1.35807105      -0.85275543
Si       9.71847116       6.82782164      22.12178715      -0.48523409      -0.20914612      -2.42769916
Si       2.82526630       0.47217551      12.74408757      -2.51232287      -0.36340140      -1.49620225
Si       7.79563020       5.29112414      15.21983410       1.17234963      -0.17237786       2.49885965
Si       4.69804656       1.88003574       5.85266617       0.72173044       2.24644266      -0.65233756
Si       2.36719939       4.72796171      12.69955454       2.81495339      -1.67314996      -3.43627954
Si       5.59459122       7.83983858      21.78106141      -1.20103374      -1.47744253       1.80039643
O        8.71988113       5.53529075      22.08395348      -0.27244772      -0.32350059       1.29336491
O        4.09093345       1.20515483      12.08139181       0.83833886       0.42576277       1.12966806
O        1.45412847       4.49193731       5.74513539      -1.33153073      -0.05219996      -0.03124470
O        6.05532036       8.78208156      14.86218034      -1.89274535      -2.85338466       0.73501946
O        1.03822977       3.90559035      12.41751142      -1.56551197      -0.31036553       0.21404039
O        6.60548698       9.00494818      22.12145592       0.76682484       1.87711074       0.44990956
O        9.30077061       6.02950140      15.43112881      -1.15749526      -0.54832619      -0.54687452
O        3.73137808       0.64505265       5.59656018      -0.91752793      -1.24570853      -1.55886168
O        3.93370283       6.13312384      18.79078797      -1.85470347      -1.85077283      -0.52560866
O        3.99888047       6.53331484      15.68790131      -0.97458554      -0.33503404      -0.98433236
O        6.59444683       3.85645402       7.89878432       1.10644402       0.90814389       0.32502398
O        6.35003424       3.02728181      12.37929424      -3.17129491      -1.67703349       0.65654081
O        1.55882197       7.66177330       8.41559078      -1.81837071       1.16168314       0.24158328
O        1.79936120       8.95260959      12.61162340       0.02776148      -1.13504200      -1.05513917
O        8.77254881       1.94540645      19.21018681       0.83851567       0.35705371      -0.27433939
O        8.51810595       1.17083248      15.90610124       0.48815757       1.15375092      -1.27488952
O        2.63408985       4.32180207      16.76363161       0.53950148      -0.35977084       2.58137365
O        5.42434861       8.08215645      17.55328809      -0.75583270      -0.42226817       0.67042752
O        7.08696633       5.01576216      10.87765290       0.94966398       0.04679291      -0.03246093
O        5.42099123       2.52543706       9.89938193      -0.43379066      -0.01025014      -0.20213501
O        0.30048476       7.14393891      10.98034270       0.78904869       0.54356372       0.40753663
O        2.08712124       0.14487531       3.03763322       0.79941579      -1.87900311      -2.95023222
O        0.71138555       2.69145076       9.94106802      -1.28343505       0.63347972      -2.34358428
O        7.82541589       9.64155420      24.84674432      -0.74780689      -2.30764176      -3.58018349
O        9.25307858       8.18605117      22.81163199      -0.21246969       0.10877727       0.58461189
O        1.42235654       0.87641536      11.96733418       1.29698485       0.57097508       0.75248490
O        1.04170382       1.99666969       4.73690464       1.65508317      -2.24272576      -1.26177175
O        8.49240269       8.66957538      15.91238090       1.13216841      -0.30077506       0.86938872
O        3.53776077       3.99937915      11.68522032      -0.81651080       0.66766550       0.90814289
O        6.13600269       6.50494535      22.49343891      -0.96737110       0.57229274      -0.22892126
O        6.63025069       6.05841183      16.11364860       2.69204348      -2.88470086      -0.70596878
O        4.02478031       3.25327132       5.18186965       0.19023407      -0.12232702      -0.36575777
O        8.74465518       3.51757210      12.42569462       3.31947923      -0.59536693      -0.33054730
O        7.14527537       1.21324049       8.36236523       0.02845877       1.88460787       0.50547861
O        1.44802247       6.40719814      15.73723291       1.04141934      -0.38144042       0.39995274
O        3.31056322       8.73743604      19.00784211      -0.52512068      -0.85196673       0.75590075
O        8.09499117       3.67930543      15.78763232      -0.27404889       1.48329348      -0.87744982
O        6.36737038       1.84747493      19.14129027      -2.75727121      -0.73573657       0.87514497
O        2.46453918       6.35080577      12.37814294       0.32951617      -0.04855176      -0.22654922
O        3.94685818       7.97912937       8.39842046       0.98177021       1.52531777       0.45085627
O        7.33959673       5.38027463      13.67031529       0.04728186      -1.13713878      -2.34569789
O        4.88584183       1.94695211       7.44884865      -2.51328442      -0.50379834      -1.35569963
O        2.83999655       4.53131210      14.21170635       0.28520795      -0.10873567       2.16887358
O        5.34718119       7.72021430      20.19715292       2.33689521       0.53546018       0.39678398
O        0.51396197       2.56484099       7.36607511      -0.27341727       0.78411950      -1.18044505
O        8.01641231       9.39718414      13.33233768       0.63907764      -0.96526366       1.79267992
O        0.18959774       7.06836434      13.57504173       0.87501385       0.29980516      -0.82746967
O        2.40210674       0.59719906      14.43852292       1.08241373      -2.54588554      -1.07499455
80
Lattice="9.77192453 0.01751879 6.90363604 0.24348012 9.76890588 6.90363604 0.01370155 0.0133883 13.86910312" Properties=species:S:1:pos:R:3:forces:R:3 energy=-576.36569339 source_file=vasprun.xml step_index=445 time_fs=42890.0 time_ps=42.89 file_index=21 pbc="T T T"
Na       7.64326945       8.09167880      18.91450175      -0.06542925       0.01944534      -0.11253987
Na       6.36396037       3.06619643      16.94949777      -0.06322796       0.09663299      -0.36521112
Na       3.78364631       6.63660873      10.36955865       0.43399551      -0.34755556      -0.14951218
Na       3.56543929       8.53619205      13.72486170       0.73624360      -0.03213563       0.60035651
Na       8.96203917       3.82432710      20.56000827      -0.09970341      -0.10185692       0.43444224
Na       8.08636275       1.63520251      10.31421642       0.64478432       0.35609425       0.60989309
Na       1.23730751       8.60039790      17.29319421       0.33070703       0.18417367       0.35462277
Na       2.78823377       2.95241954       8.10064015      -0.81522422       0.15958899       0.13946220
Al       7.29566765       5.50937725       9.22826298      -2.10348336      -0.60735617      -1.04535511
Al       4.89726637       2.76064274      11.48109346      -0.40408901       1.14673249       0.89964025
Al       3.33652936       4.43768248      18.39312322      -2.95311704      -0.01646232      -0.72888902
Al       5.56604081       7.08831079      16.11096821      -0.73190849      -0.89103415      -2.57017978
Al       0.63983789       1.99485325      11.53891862       0.56648078       0.69636486      -0.15597766
Al       7.80400078       9.53334253      22.88858939      -0.73006239       0.07549757      -2.93287225
Al       9.60961151       8.13366510      15.97146865      -0.10271055      -3.20939033       0.54202775
Al       2.11511134       0.52319874       4.53137281       0.15101211      -0.06171105      -2.50184164
Si       2.57257033       5.76022316      15.56974533       2.96472857       1.72275479       3.06887771
Si       4.71744273       7.37071824      18.93630869      -3.67643472      -0.24836630      -2.12048863
Si       7.60719525       4.47968876      12.07333553      -0.62417457      -3.96784283      -0.19902740
Si       5.80153190       2.80335968       8.62675377      -0.79252396      -0.23848126      -1.61950946
Si       0.97644099       7.42447959      12.01480137       0.24080675       1.85138841      -2.38058224
Si       2.66980548       9.31317201       8.32144674      -2.25950237       2.03735396      -0.17810407
Si       9.20766438       2.49996147      15.31092142      -0.24806797      -1.43458414       1.95503106
Si       7.64292013       0.52067855      19.08164407       0.00179451       0.32164868      -0.02781797
Si       0.52065977       2.68205038       5.52372642       1.68792213       4.17796973      -3.36682931
Si       7.16635253       9.56428463      15.13224422      -2.47152402      -0.26183546      -0.43101887
Si       9.63815047       7.09100251      21.87074501       1.81029753      -2.43704487      -0.93667788
Si       3.24721676       0.42519145      12.40401091       1.84733844      -1.12872179      -0.96040454
Si       7.96365150       5.47101289      15.05336392       0.46303028      -0.20636249      -1.86452238
Si       4.75781124       1.97682411       5.62159561      -0.00289693       0.50428508       0.27291768
Si       2.38872366       4.65836482      12.54298831       2.24114925      -0.02179831       0.53427542
Si       5.19156618       7.77981478      21.89068907       7.43826731      -1.37356062      -1.67294720
O        8.74765414       5.77617226      22.18739850       0.99023611       0.67584087      -0.87291274
O        4.59812785       1.29206488      12.40770437      -0.20307624       0.46777642      -1.49520926
O        1.97964386       3.52912193       5.40556671      -0.48498033      -0.07479076      -0.01436125
O        5.83519219       8.54883683      15.21868731       2.06639271       1.87181166      -1.13615786
O        1.20741258       3.60507754      12.27232196      -1.30351514      -0.67854561       0.07672468
O        6.22192715       8.95134642      22.36669865       0.06244055       0.11598112       0.24441394
O        9.20060499       6.46247554      15.36247181      -0.84772866       0.59198959      -0.46927630
O        3.53220105       0.85872764       5.50333112       1.46363701       0.76432277       0.68499513
O        4.03005581       5.86047311      19.09941746       0.42236002       1.89762205      -0.31094675
O        3.92574598       6.77924694      15.66818369      -2.07044948      -1.11269974      -1.09555854
O        7.17395803       3.81505488       8.55541085      -2.67149440      -1.15440251       0.22255755
O        6.54874198       3.01022849      12.02598416       1.62813901       2.70348222      -0.68441071
O        1.21729882       8.59318919       8.29422445       1.55738938       0.64699025      -1.05972369
O        2.11260558       8.67976431      12.04133322      -1.51719433      -1.83753235       0.73285231
O        8.86796156       1.56051842      19.29087318       1.96658288       0.89069679      -0.55172503
O        7.94125160       1.38102678      15.32306212       1.46025105       0.76302251      -0.04950663
O        2.59880740       4.68238381      16.74206951       0.52245494      -0.10136152       1.54735617
O        5.61604370       7.66435874      17.63453960       1.27630469       0.00940508       3.26740614
O        7.28636716       5.52364795      10.92904968       0.02713147       0.57192682      -0.85192144
O        4.52588095       2.97518415       9.68757257       2.22090204      -0.34850144       0.16401176
O        9.62497478       7.73052618      17.69504256       2.04741482      -0.77124963       2.15710996
O        2.49951058       0.43549533       2.75253262       0.37700137       0.16395359       0.98382916
O        0.38114701       2.29369133       9.82730763      -0.96576972       0.17408476      -2.28456387
O        8.01519964       9.55533175      24.52098021       0.33718659       0.07054286       4.54865633
O        9.06261711       8.40345255      22.37047595      -1.09594975       3.11130046       1.46726588
O        2.01918197       0.87114279      11.54373741      -3.16001559       1.81797153      -1.70238915
O        0.56744507       1.37260551       4.60639698      -0.00142629      -0.86075934       0.25619965
O        8.40275518       9.30282767      16.11227143      -1.05252102       0.64422135       0.14566950
O        3.83796339       4.17868970      11.88098563      -1.59404723       0.62992660       1.14041929
O        5.71711615       6.31186133       8.71273605      -0.55273925       1.16352872      -0.21040053
O        6.59677947       5.71180329      15.85405700      -0.01110157      -0.16674790       0.49454651
O        4.54574935       3.23169881      18.44033504       1.57613500      -1.40215761       0.13912597
O        9.05911439       3.62112190      11.69761141      -0.28095134       0.23756717       1.63014610
O        6.53798992       1.33764671       8.72252871      -0.37281178      -0.12299610       0.09849655
O        1.38226469       6.90479310      15.75408543      -1.78783856       0.32191808      -1.44556646
O        3.59584291       8.65718859      18.77426487       0.70936510      -2.49776045      -0.15836491
O        8.42022300       3.92014403      15.38047087       0.23189041      -0.20396213       0.26267234
O        6.30860714       1.43458205      19.07251839      -2.75059051       1.46646081      -0.44451274
O        2.15615469       6.21448427      11.82059171      -1.52230462      -1.05816161       0.96083963
O        3.72170798       8.11122160       8.34216618      -1.41898463      -1.90831827       1.09302022
O        7.47673075       5.37846418      13.39226405       1.00623311       0.10231292       2.18091326
O        4.71320412       2.57923273       7.24381631       1.96493385      -0.23930127      -1.15026318
O        2.45372890       4.95469255      14.24486383      -0.71984739      -1.26462754      -4.87779079
O        5.63297173       7.68390773      20.16187945       0.81973619       0.34458614       4.37532781
O        0.53185222       2.47060402       7.09103251      -1.93575531      -0.87159869       3.95797535
O        7.64335862       9.61308006      13.58978027       0.71914916      -1.30465470      -0.74447003
O        9.69088481       7.32650640      20.17640934       1.05941573      -1.01597853       0.96122687
O        2.82296566       0.31335081      13.88322281      -1.56555909       0.02245691       4.73362613
80
Lattice="9.77192453 0.01751879 6.90363604 0.24348012 9.76890588 6.90363604 0.01370155 0.0133883 13.86910312" Properties=species:S:1:pos:R:3:forces:R:3 energy=-575.03055826 source_file=vasprun.xml step_index=840 time_fs=81680.0 time_ps=81.68 file_index=40 pbc="T T T"
Na       8.19079085       4.24509614      20.42823061      -0.00438669       0.01500790       0.41955924
Na       8.88458184       9.44323343      17.90429890      -0.10769313       0.33069453       0.20394629
Na       6.24650543       3.90768436      17.52409441      -0.43874276      -0.19493497      -0.04433609
Na       0.51933969       7.99726289      18.48051768       0.21728936      -0.01230959      -0.48365103
Na       1.55871691       2.40862779      15.84813651       0.39364651       0.21236972      -0.00168907
Na       6.44826093       0.98021474      13.70884576      -0.34909697       1.25925957      -0.63495402
Na       5.19765663       7.56932211      12.97599178      -0.25180399      -0.32610373      -0.51346397
Na       1.60006550       4.88177623       8.39126905      -0.28360073      -0.38148485      -0.19517296
Al       6.73882575       5.53055870       9.21101899       2.27389168      -4.11593998       0.78817356
Al       4.53527256       2.94205574      11.81326422       1.23672512       2.02203884      -0.29201047
Al       2.98423098       4.92562855      18.70116506      -0.17928944      -3.10047329      -1.18053438
Al       5.24635722       7.17762678      15.95561257      -0.46653400      -1.50665123       0.98477471
Al       0.38004136       2.48833656      11.55206878      -2.76867967       1.84472972      -0.97979632
Al       7.92281962       9.54981128      22.94174357       1.56974535      -0.77979991       1.75628712
Al       9.56321095       7.32373375      16.10502812      -0.32396290      -0.59450666      -0.76438209
Al       1.80082359       0.33525581       4.53513956       0.00127878       0.70457981       2.10660259
Si       2.64464142       5.53742295      15.53816371      -0.93415750       3.17075030       1.93004325
Si       4.12985678       7.79727592      18.93821545       0.06149714      -0.24088977       0.48615654
Si       7.25512345       4.52680136      12.25345410      -0.46428238      -2.91080378       0.30137546
Si       5.54127061       2.51529182       8.66711755      -2.46570385       0.31189540       1.48631696
Si       0.62266212       7.25560434      12.28368112      -2.56294579       0.20187780      -0.98435785
Si       2.46334152       9.03138893       8.42191053       0.67152940       0.08090667       0.67515762
Si       9.08762359       2.40597472      15.30575672      -0.13660755       3.43838182       1.47189093
Si       7.27293288       0.99488331      19.18121247       1.56039086       0.05749706      -1.01531026
Si       0.32759897       3.17165826       5.51448861      -0.35709246       0.49593696       2.17019774
Si       7.12433017       9.40824083      15.06260502       1.27510099      -0.07040943      -2.80968812
Si       9.46431970       6.91999703      22.21599146       1.49665247      -1.60594358      -0.78362449
Si       2.75458180       0.72873217      12.62405654       0.04973144      -0.49253318      -1.35710977
Si       7.52620570       5.19056491      15.04992005       0.11271286       0.12082354       1.30732758
Si       4.26773667       1.91200748       5.89383314       0.67011374       2.57354313      -1.44576774
Si       2.13373181       4.88760266      12.70748399       0.99993581      -3.66199936       0.05619573
Si       5.43882770       7.93670032      21.69848935      -0.58763221       2.70677808       0.98006349
O        8.28747521       5.77128530      22.25449056       1.08242197       0.54231610       0.15270873
O        4.13808481       1.55392420      12.82171718      -0.65632621       0.33442938      -0.35989729
O        1.34736152       4.44209879       5.41009998       0.28018700      -0.50719985      -0.17796959
O        5.97829421       8.29485873      14.82529859      -0.84633943       0.55346001       1.31135450
O        0.90395775       4.03074432      12.18285761      -1.57219285      -0.47221160      -0.14741389
O        6.53226773       9.18197168      22.00609601      -0.94094029      -2.14239654       0.12109684
O        9.03418618       5.67204495      15.52428672       0.51760238       1.03383326      -0.78829190
O        3.30083608       0.73203721       5.35490473       0.24143182       0.16700790       0.43650192
O        3.09405076       6.56499606      19.17279464      -0.12925201       0.49029503       1.13900580
O        3.84029564       6.52556045      15.06143763       0.92239502       0.34988768       0.27724317
O        6.47922105       3.77187935       8.34585327       0.46329462       1.60574024       0.79014880
O        6.28927147       3.14583480      12.59179967      -1.34454382       2.07105359      -1.40017211
O        1.46454212       7.75565266       8.51735894      -1.82345128      -0.62464851      -0.01730703
O        1.24992456       8.61216473      11.82110382       0.40402778       2.86974745       0.26784582
O        8.46536929       2.27772389      19.26612111      -0.65758583      -1.63318019      -0.30269534
O        8.48811477       0.99000289      15.07954881      -1.03067219      -1.56073257      -0.38870528
O        2.97897398       4.65695513      16.87056551      -0.42771069       0.34098271       0.00905753
O        4.88511894       7.44838472      17.64048150       1.76686613      -0.12887196      -2.95684793
O        7.09961614       5.39630422      10.95240126      -1.69613636       1.27319523      -2.40409115
O        4.52692253       2.74391229      10.03023606       1.81605558      -0.46524847      -0.51978925
O        9.30240298       7.08030022      17.81490578       1.71153658      -0.22050273       2.79257907
O        1.93354112       0.19417537       2.85266785       0.24277363       0.70288620      -2.34994450
O        0.16614280       2.66284678       9.80472761      -1.31385664      -0.12507329      -1.19535150
O        7.25164978       0.33954297      17.67055383       1.04137223      -0.32506625       0.05586569
O        9.23312115       8.23020637      23.03906396      -2.31349978       2.50007302       1.79669276
O        1.48354746       1.31150821      11.82472306       1.67540314      -1.29392093       0.79291821
O        0.69507731       1.68768843       5.01925535       0.25006442      -0.68935241      -1.93842788
O        8.39627308       8.65533076      15.78898214      -0.17846617       1.09467214       0.19492521
O        3.51162760       4.48200261      12.06648160       2.41582984      -2.03654526      -0.79630303
O        5.62048347       6.53917279       8.57152452      -1.16078629       1.04124718      -0.62014846
O        6.47834987       5.89507141      16.24333766       1.06393840      -1.68263743      -2.52971887
O        4.13888722       3.47148405      19.04888300      -1.11421064       0.37412379       0.08557960
O        8.61892222       3.66020888      11.87959437       1.43672618      -0.09889010       0.71184824
O        6.45486812       1.13339306       8.71005266       0.89674107      -1.50315312       0.55155285
O        1.25174770       6.56747171      15.74961483       0.85278235      -1.63079106       0.83459179
O        3.31889213       9.16616635      18.62388856      -0.45726382      -0.11869711       0.72765809
O        7.51086825       3.45836330      15.11120848       1.66692780       1.04313510       0.93916719
O        5.80718152       1.60143597       5.43964101      -0.42349077       0.62246716      -0.28790392
O        1.94772496       6.39173356      12.49009658      -0.16536278       2.82141909      -1.08720410
O        3.98664526       8.47863176      22.22587463      -0.06020690      -0.08900528       0.68372795
O        7.25017747       5.74500351      13.41569495       0.05991757      -1.69107525       1.92007513
O        4.46498926       2.23914676       7.45663551      -0.91327689      -0.43163819       0.95278418
O        2.17017711       4.68226466      14.30652723      -0.51464206      -2.77990182       0.42127910
O        5.30340541       8.02243593      20.09671606      -0.28687193      -0.62020398      -1.00336883
O        0.27690768       2.86853261       7.20855724       0.28394806       0.97069195      -1.03696600
O        7.55196868       9.55032937      13.36831480       0.77755238       0.78245712       0.85738853
O        9.58627492       7.25333360      20.62579463      -0.25793693       0.26900558      -2.46648582
O        2.21725407       0.30308330      14.07097006      -1.45778081      -0.54984288       2.29069285
80
Lattice="9.77192453 0.01751879 6.90363604 0.24348012 9.76890588 6.90363604 0.01370155 0.0133883 13.86910312" Properties=species:S:1:pos:R:3:forces:R:3 energy=-576.60386113 source_file=vasprun.xml step_index=460 time_fs=36920.0 time_ps=36.92 file_index=18 pbc="T T T"
Na       8.69344172       1.69186580      10.06053728       0.04675824      -0.49290615      -0.11417850
Na       5.92958605       4.11293470      17.30240215       1.95153843       0.80049210      -1.50026164
Na       3.82809065       5.72312998       9.59967037      -0.24648691      -0.24506957       0.21251770
Na       1.39503503       9.24871587      16.79061878      -0.26948904      -0.04576402       0.06221661
Na       5.75034579       1.23323565      13.57398053       0.57123268       0.05096170       0.48298794
Na       8.92719384       4.18409779      20.72683324       1.09690260      -0.76527739      -1.66219339
Na       1.06355399       6.20194889       6.02939725       0.19192249       0.30023802       0.06380398
Na       4.19011892       8.49583076      13.53503886       0.29907809      -0.16227413       0.19991795
Al       7.38176470       5.33195057       8.88372511      -1.35869767      -0.29794606       0.31553366
Al       4.81607093       2.86027492      11.01115053      -0.17916161      -2.94962534       1.61840128
Al       2.95611731       4.37339968      18.30837098       0.54288370      -0.54471244      -0.93918598
Al       5.58354241       7.03573736      15.98671801       1.91949971      -1.61482273      -1.14283747
Al       0.66704037       2.30914520      11.42623874      -0.38600537       0.07916414       0.39868108
Al       7.92089039       9.47758162      22.75464584       1.22382621      -0.97540870       0.98900654
Al       9.86498570       7.66497945      15.74280370      -0.98043182      -0.22497051      -1.15469729
Al       2.07514154       0.36653022       4.40454251       3.02613562      -0.50006095      -3.55930641
Si       2.64919217       5.57876298      15.38106133       2.48808492       1.07622332      -0.54575134
Si       4.37456049       7.11957437      18.90476097      -0.76032783      -0.55233095      -2.46939081
Si       7.53972493       4.07398645      11.90788790      -0.55021786       0.44033419      -1.98776315
Si       6.05336742       2.59512000       8.15179384      -1.76289903      -0.32443875      -0.17889531
Si       1.28447768       7.42683797      11.90317445      -1.62208205      -0.01111655      -1.39457418
Si       2.81647712       8.91594935       8.15990892      -2.92541176       1.50564054      -1.26653964
Si       9.12001631       2.37216580      15.29467040      -3.74511898      -0.07888930       3.97981694
Si       7.64560824       0.86347852      18.70384528       1.13133448      -1.06213887       1.21309589
Si       0.57340212       2.73402313       5.55988323      -1.24158164       1.18775222       1.15103110
Si       7.31670978       9.47967647      14.80389642      -0.42893040      -3.92574127       0.23843264
Si       9.88641844       7.04040084      21.55765605      -3.32633238       1.69264005       2.91764926
Si       3.20604030       0.27842955      12.25302475      -1.12679985       2.71251278      -2.29235109
Si       8.14041416       5.25118528      14.80032938      -2.62719716      -1.21157976       1.93534594
Si       4.87217283       1.97261216       5.15025121      -0.41101770       0.78536497      -0.30794793
Si       2.39558960       4.65728630      12.33287843      -2.87884859      -2.51993754       2.46302178
Si       5.52414669       7.60404334      21.86508998       0.42117765      -0.98479594      -0.49462055
O        8.76418969       5.93805339      21.94590495       0.49411744      -0.45567120      -0.16107094
O        4.49425499       1.15529549      11.74246086      -0.25242451       0.26547984      -0.08866064
O        1.63470017       3.96003137       5.54058802      -0.94658434      -0.76137525       0.61779605
O        5.97573319       8.49615490      15.18449014       0.11521187       1.99147611      -1.99185341
O        0.81867847       4.01249085      12.07601678       2.46324543      -0.67619500      -0.24828157
O        6.51362039       8.90779473      21.97902532      -2.06043791      -1.73828668      -1.08966963
O        9.48280551       6.14072577      14.67286369      -0.40272911       0.30355879       1.14597045
O        3.72290565       0.99834003       4.61448466      -0.30266342      -0.83321682       1.36555440
O        3.15085633       5.96248680      18.87288832       1.64929399       2.71487904       0.77204139
O        4.14641538       6.37326152      15.29335537      -2.41201072      -0.65823358      -0.51388957
O        7.10587196       3.84736394       7.86197346      -1.28864912      -1.67833341       0.89853001
O        6.30712114       2.99921770      11.84644494       1.05131249       0.73492342       0.62981729
O        1.48069247       7.91903176       7.69872887       2.02293135       1.40320129       0.84167600
O        2.27578035       8.71147305      12.27486486      -1.42292137      -1.00298282       0.11238810
O        8.95040155       1.90130505      19.18192788      -2.81861425      -1.64009995      -0.57968911
O        7.80208365       1.31864998      15.33759983       1.05535577       1.25631628      -1.17214202
O        2.43718117       4.59054300      16.60125534       0.29354853      -0.83368816       1.54162423
O        5.42098933       6.96899134      17.64153365      -1.06443801      -0.04034522       3.32946623
O        7.54698486       5.00189293      10.53819968       0.42837070      -1.09519336       1.87375937
O        4.90329741       3.13158796       9.34737847       1.94407918      -0.90265753      -3.27702638
O        0.27639235       7.49263242      10.57585014       2.15653192       0.19763304       1.24186144
O        2.39051797       9.72113701       9.45739224      -1.06746050       0.95765593       2.08052556
O        0.13720387       2.16366173       9.78874875       1.37345446      -0.69842802      -1.39949321
O        8.02936944       9.35981876      24.53817171       0.40013891       1.63344295       0.26441949
O        9.19214415       8.40012273      22.16282760       1.60570848       0.28086931      -0.26914066
O        1.83822405       0.95251484      11.56110576       0.32440949       0.06792674       0.36458692
O        1.04093531       1.66839259       4.51250692      -0.74450374      -1.00480005      -0.66130138
O        8.39819059       8.69271033      15.73086649       1.75978366       0.46200456      -0.63387506
O        3.50658906       3.71381948      11.64519126      -1.19116473       2.20863400       0.28913595
O        5.83403088       6.19302112       8.87425827       0.38097976       2.01409203      -1.25365899
O        6.93179794       5.75350569      15.82858452      -0.20742272       1.28908650      -1.44929246
O        4.52629284       3.49829913      18.55227291      -2.53241334       0.67673564       0.61061959
O        8.85541480       3.09803437      11.86105331       0.22811901       0.45070235      -0.25499808
O        6.84336343       1.12415819       8.59048572      -0.72704664       4.47072820       1.09752042
O        1.51205437       6.78565931      15.37761706       1.44407815       0.09935500       1.05065968
O        3.51748925       8.56107367      18.56092489       0.56986544      -2.27324875       0.41605305
O        8.26209758       3.77494863      15.71751817       1.59033649       0.87467087      -3.23586333
O        6.23197298       1.71131923      18.12145319       2.42455712      -1.00225808       1.48422617
O        2.31321142       6.17787661      11.85240623       2.07845904       0.40221281      -1.71406749
O        4.08575563       8.09239231       8.66753301       1.16702042      -1.74070030      -0.47774791
O        7.56063312       5.00300156      13.20540421       0.60982519       0.48209979       1.98539622
O        5.21289650       2.01371954       6.76393257       0.55487398       0.43632945       1.35111057
O        2.49116588       4.69495916      14.02966368       0.08837599      -0.34257432      -1.92566751
O        5.24038278       6.97175666      20.27641910       0.12502017       1.62085454       1.85537202
O        0.11293761       2.08955571       7.03036749       2.01527115       0.64615338      -1.54469948
O        7.72425614       9.64403951      13.23442907      -0.84053524       1.17931445      -1.27081696
O        0.32993334       6.91362028      13.11722703      -0.10066388       0.77891863      -2.18817728
O        3.06303198       0.27564982      13.84709357      -0.12004561      -1.66535641       2.94515876
80
Lattice="9.77192453 0.01751879 6.90363604 0.24348012 9.76890588 6.90363604 0.01370155 0.0133883 13.86910312" Properties=species:S:1:pos:R:3:forces:R:3 energy=-575.54200525 source_file=vasprun.xml step_index=545 time_fs=69090.0 time_ps=69.09 file_index=34 pbc="T T T"
Na       8.13712116       4.25446416      20.24361627       0.23165500      -0.46405154      -0.05634758
Na       9.24306846       0.62316725      10.45452595      -1.18663894       0.12115484      -0.67781907
Na       4.03890600       4.84256235       8.36836102      -0.42923925      -0.11635638       0.08375474
Na       4.15698185       7.17986089      12.51263101       0.42621684      -0.17293187       0.35448808
Na       2.48783688       2.50330140      15.32151880      -0.00789941       0.51168796       0.43394009
Na       6.31696121       1.33482292      13.76982135      -0.17047832       0.26183370      -0.41215123
Na       2.00225370       9.05588230      16.85182128      -0.15317989      -0.14883868      -0.39300792
Na       0.94892449       6.88711443       6.16963771      -0.37473808       0.07065797       0.15981062
Al       7.02935620       5.35597006       9.17156978       3.66833010      -1.66673257       0.91319675
Al       4.29260757       3.29775571      11.64543796       1.18849748      -2.08719295      -1.30860675
Al       2.49046465       4.57967417      18.46751894      -0.70902922       1.49200492      -0.91651478
Al       5.38781007       6.70954165      16.00928202       1.37010289       3.47809089       0.85329525
Al       0.36713009       1.82169187      11.52062420       0.82115609      -0.49346037       1.02153619
Al       7.49526259       9.41154948      23.18581082       1.56234597       1.65454871       0.04269023
Al       9.77923783       7.84035400      16.03119456      -2.68134491       0.84047344      -0.57112906
Al       2.26080857       0.16778121       4.76422994      -0.92652205       2.58234579      -1.05520659
Si       2.48512987       5.66372245      15.61493156      -1.74026116       1.52657952      -2.65649001
Si       4.33022751       7.18384681      18.97405453      -1.56635516       2.90455049       0.80523580
Si       7.30631513       4.04239551      12.22392268      -1.18092979       1.65178200      -0.42446866
Si       5.71570736       2.61092274       8.67291094      -1.11519362      -3.09713564       0.23492278
Si       0.85676606       7.40937856      12.11506573       0.13149587       0.94864809      -0.94443055
Si       2.73327228       9.19359141       8.52590987      -0.09342970       1.54115890       1.77801369
Si       9.03019070       2.29844664      15.47919111       0.49634214       0.46305881       2.09738570
Si       7.21182176       0.91584679      19.17429154      -2.09724070       1.08499858       0.42736314
Si       0.14492960       2.62738203       5.56111097       1.91569583       1.01855871      -0.03189686
Si       7.05328062       9.45129987      15.10495302      -0.51712083      -0.50733361       0.54303820
Si       9.50409657       7.28752799      21.91934798      -0.09477634      -4.67662562       4.78921869
Si       2.76867060       0.33377503      12.65794684      -2.14457059       3.35172391      -4.20762038
Si       7.96230094       5.24752091      15.05808234       1.36486061      -0.47398931       2.41840951
Si       4.30710881       2.25046679       5.87223028       0.81726137      -2.52060078      -1.57941213
Si       1.85419879       4.57500137      12.67792994       0.10106835      -1.23645657      -3.80078381
Si       5.41326067       7.82423895      21.92461075       0.76483807       2.66828346      -1.18565137
O        8.55310440       5.87803088      21.96943848      -0.47154656       0.56841431       0.38062937
O        3.46105493       1.80138836      12.15672827       0.28950296      -1.51720607       0.64237256
O        1.07783634       3.99048184       5.38518556      -2.54580880      -0.00184827      -0.15954517
O        5.74266312       8.43489122      15.21551039       1.12533512      -1.77794160       0.78859333
O        1.00125936       3.21254783      12.43873567       0.46026557       0.72067562       0.29028244
O        6.23736055       9.32751547      21.88947815      -0.82404550      -3.62715123       1.03543081
O        9.09797256       6.47244876      15.18687742      -0.19761522      -0.82115541       0.30858818
O        3.54141112       0.78242724       5.63081629       1.85149446       1.32576042       1.28769479
O        3.00950158       6.24580399      18.91270997      -0.17968957      -1.13836378       0.49899777
O        3.97916356       6.14011939      15.25855312      -1.40711821       0.64651788      -0.40416331
O        6.84935726       3.71109208       8.34749759      -0.03684741       1.52035549      -0.09328996
O        5.87247837       3.21767411      12.48703033       0.91001327       0.85048661       0.35667162
O        1.41846968       8.24269949       8.15220162       1.35062389       0.60834144       1.02891506
O        2.26503088       8.32283198      12.15968575      -0.91837032      -2.33690850       0.12953282
O        8.59388842       1.73442681      19.16744908      -1.00673303       0.40838935       0.32796973
O        7.75872559       1.19062351      15.43569295       1.93434415       1.46993727       0.50092811
O        2.53350549       4.56478872      16.72172545      -0.57722274      -1.30881853       0.91166169
O        5.34681646       7.24954632      17.79660293       0.41804686      -1.31734638      -2.07642921
O        7.18466863       5.07946372      10.97516312      -0.25300899       0.02980132      -1.56035198
O        4.73016712       3.11225283       9.85274042      -0.19504360       0.96252002       1.65489179
O        9.73903545       8.18839743      17.81148310       1.21936902      -1.95772778       0.30978935
O        2.54431656       0.57279788       2.99005869      -1.04303706      -2.92223230      -2.25809040
O        0.36332409       1.99865715       9.83585439      -1.07878235      -0.40816288      -2.82603358
O        7.34998729       9.54972726      24.95136743      -0.44918612      -0.27954804      -2.26631970
O        8.87432569       8.30179643      22.94516176      -0.70102986       1.39864691       0.11641883
O        1.26458034       0.24757673      11.82768565       0.63941372       1.58558650       1.34323246
O        0.78673918       1.22606965       5.04863788       0.33963696       0.06638958      -0.44312442
O        8.59662901       9.19757691      15.64212174      -0.22856972      -0.94146184       0.47763436
O        3.33435976       4.71518922      11.89490490      -0.35987373      -0.22642396       0.80211346
O        5.92156517       6.60653827       8.94478689      -0.45634169      -0.21651747       0.07088164
O        6.53201154       5.48893282      15.78727349       1.33319479      -0.24812718      -0.32087398
O        3.38721613       3.33165164       5.09854212       4.01719016      -2.24991688       1.66259868
O        8.39079290       2.85844470      11.85384178       0.48869103      -0.41655748       0.02837729
O        6.35252752       1.06941445       8.95107295      -0.67605262       2.64328451       0.45044058
O        1.28460941       6.85180295      15.83316781       0.31849704      -0.03933303      -0.50763574
O        3.50161943       8.69643419      19.04041717       1.54218881      -1.42425474      -0.34271762
O        8.62734720       3.87871038      15.82931624      -1.19319670       0.65241094      -1.01723845
O        5.89147908       2.10983294      19.09354806       0.58977737      -0.69484555       0.49044435
O        1.09032916       5.78299292      11.87701322      -1.06564525       2.27493717      -0.16011123
O        4.00256945       8.14053372       8.75292341      -2.77351168       1.10868125       0.53004684
O        7.78994420       5.10533439      13.46736836      -0.55466367      -1.94966136      -2.09691445
O        4.49346242       2.52424788       7.48698863       0.71002445       0.80503395      -0.10697902
O        1.95491048       4.88567858      14.19271609       0.54092692       0.36509032       3.45700201
O        5.05095136       7.38032787      20.41915823       0.82388718      -1.64496391       0.06019903
O        9.77074350       2.47338141      14.02798704      -0.52598157      -0.88976465       2.31525248
O        6.97854832       0.05646294       6.66289792       0.09062875       0.25112503      -1.14171823
O        9.90169375       7.59582568      20.47852648       0.59775447       1.29560148      -3.72728218
O        2.58300766       0.59626712      14.22981588       0.47833820      -1.72956410       2.51292007
80
Lattice="9.77192453 0.01751879 6.90363604 0.24348012 9.76890588 6.90363604 0.01370155 0.0133883 13.86910312" Properties=species:S:1:pos:R:3:forces:R:3 energy=-575.96087884 source_file=vasprun.xml step_index=570 time_fs=83140.0 time_ps=83.14 file_index=41 pbc="T T T"
Na       8.70284374       4.25304184      20.77486155      -0.19802559      -0.37200192      -0.16783005
Na       8.43439322       1.83083060      10.23150895       0.24893347      -0.23082191       0.07389721
Na       6.52835434       4.14239551      17.36956858      -0.12991523      -0.29950399       0.30555523
Na       4.96354437       6.24910698      13.03997216       0.08675929       0.20323082      -0.29382183
Na       3.03867982       2.86846018      15.89762556      -0.14496729      -0.48454504       0.17281438
Na       6.20678574       0.46835012      13.39692163      -0.18528933       0.25852759       0.12739385
Na       2.23831477       6.18327839       7.46632419      -0.13426776       0.21695103       0.13381357
Na       0.67551499       8.92841824      17.89070692       0.00034271      -0.19732888      -0.34865571
Al       6.99601391       5.41702559       9.24788303       0.36178828       1.49302216       1.30858068
Al       4.62442133       2.80783819      11.66006041       0.19565401      -0.78567801       0.58120537
Al       3.17167614       4.69994217      18.51557624      -2.29822897       3.88299948       0.14426969
Al       5.45245959       7.29830416      15.89902976      -1.90873463       1.50815208       3.16485827
Al       0.36919515       2.62279241      11.42771244       0.53643409      -2.75954710       0.39485165
Al       7.84662512       9.73929447      23.11235878      -2.73449065       1.17041103      -2.21741454
Al       9.62313796       7.80472559      16.34941424       0.68955375       0.51396734      -2.62124313
Al       2.14438450       0.56905955       4.78192568       0.45316614       0.42889811      -0.91737821
Si       2.44488130       5.98470971      15.53957268       3.17582729      -0.33193665       0.84216623
Si       4.32743090       7.60522329      19.10999824      -0.25724629       0.84669769       1.70566812
Si       7.34816167       4.26708651      12.13147046       0.52476890      -0.68304612       2.14569434
Si       5.65502387       2.73687692       8.66567349       0.28528878       2.09559249      -0.63478880
Si       0.80685706       7.34084830      12.10811171      -0.42025154       3.29371676       0.98179962
Si       2.67625791       9.32795236       8.75211152       0.60697815      -3.19351225       2.43827633
Si       8.97804202       2.69922418      15.35485625       1.08210405      -1.96680080      -0.93835550
Si       7.69880087       1.02827108      19.22670497      -2.71221734       4.41733960       0.10105479
Si       0.51724749       3.15338108       5.46521954      -2.19687869      -2.08118821       0.25561039
Si       7.33713074       9.63351650      15.04776739      -4.95338150       0.70534097      -0.60560033
Si       9.51326998       7.11343809      22.08630273      -1.85382189       2.37698646      -1.51959719
Si       2.63158935       0.51305780      12.76791219      -0.40968184       0.45379081       0.37859078
Si       7.94831654       5.60846836      15.08165609       2.47321765       2.63665903      -0.82182809
Si       4.67034606       2.35808113       5.74845639       0.88380484      -0.10833716       0.48279717
Si       2.28845976       4.87785772      12.67465811       0.36714230      -3.64429386       0.72622460
Si       5.30545191       7.87394099      22.10042196      -1.99550669       1.29290940       0.15298505
O        8.64359939       5.78203830      22.43650298       0.95346058       1.05161103       0.03200321
O        4.03307275       1.30503868      12.50311426       0.07725100       1.01494453      -0.72776643
O        1.76047406       4.09982608       5.46043983       0.09597463       1.45555374       0.46432919
O        5.90325943       8.67951527      15.02804510       2.07711537       1.84864027      -0.60039944
O        1.00044909       4.03024531      12.13856655       0.56833043       0.94634439       0.70062651
O        6.04224335       9.18601586      22.82772218       1.56523002      -0.67751442      -1.47356627
O        9.34717567       6.69400156      14.98465352      -2.90846235      -2.67100314       0.53084557
O        3.53947800       1.23480543       5.72638742      -1.22598223      -0.81928155      -0.10458001
O        3.71388846       6.17282388      19.47802540      -1.08324531      -2.06338945      -0.89726943
O        3.91578774       6.71006691      15.31780681      -0.56620166      -0.57425767      -0.94287120
O        6.80608095       3.98646715       8.42118675      -0.92978824      -3.04143938       0.85247815
O        6.32649056       2.94717032      12.27207568      -0.29749249       1.22681254      -0.04503963
O        1.25649355       8.60749403       8.73755027      -1.29521224      -0.10164576       0.55229368
O        1.41239336       8.91358056      11.98430643      -0.55962806      -2.17782627       0.15221832
O        8.72077415       2.35709017      19.32272596      -0.80387592      -0.98128264       0.55985772
O        7.76269066       1.54575426      15.03115480       1.02431575      -0.38068540       1.58987658
O        2.49447582       5.12211900      16.89447036       0.37299653      -0.48498814       0.89324143
O        5.08234980       7.73529446      17.74247273       0.65785484      -0.19372553      -2.24722003
O        6.96642680       5.38562066      11.08776177      -1.00996025       0.85964026      -2.09507156
O        4.66509628       2.60387905       9.94961598       0.82888766       0.42124916      -0.66224057
O        9.59393597       6.86853730      17.78788703       0.94698904       0.48782900       1.27536311
O        2.91121902       0.33210912       3.15848466      -0.68811551       1.45248157       1.34220837
O        0.09520160       2.16925870       9.79337260      -1.11097576       1.24276157      -2.33745020
O        7.68391817       0.38051477      17.81754259       1.44923096      -1.16039926       0.21443811
O        8.94434629       8.46321110      22.92718125       1.35599063      -2.17398115      -1.19066388
O        1.28021066       1.00324615      11.82590228       2.09071739       0.50532577       2.13713418
O        0.80313839       1.80866367       4.55048089       0.52414273       0.12188519       0.48362355
O        8.35691264       8.94002184      15.96309840       1.05374237       0.69388945       2.26841855
O        3.69131101       4.22829587      12.10916030      -0.50578852       0.87838918       0.92795930
O        5.78777329       6.38144518       8.50207965       0.38165264       0.20537798       0.95192372
O        6.61634924       6.05076697      15.98392625       1.77079218      -1.20396121      -0.91490448
O        4.26525166       3.49415987      18.42070648       2.91990213      -2.00062995       0.23852766
O        8.73953303       3.55362991      11.69557382       2.10186371       0.14091293       0.11281792
O        6.73229831       1.54275997       8.59363585       1.39128145      -3.97085404       0.03193678
O        1.31634094       7.11437372      15.49620640       0.44128874      -0.11186838       0.92612796
O        3.01013309       8.67584625      19.37634148       0.13650158      -0.48370919      -0.87584924
O        8.38607867       4.19692483      15.67921791       0.07082466      -1.83611823       2.10070055
O        6.19282844       1.87831785      19.07476758      -0.51489178       0.50367693       1.06206311
O        2.16214934       6.36942612      12.19517747      -0.34181437       1.88926002       0.11601514
O        3.62623839       7.91664152       8.75480002       2.02785224       0.22963578      -1.65866820
O        7.64353932       5.17194618      13.55975659      -1.72203417      -0.46926400      -2.12608893
O        4.76043151       3.03832024       7.35288813      -0.91048273      -1.28146526      -3.01308594
O        2.30637596       4.77197570      14.42288763      -0.45610834       0.04089873      -2.43018313
O        5.33298326       7.95260037      20.39466118       0.47464448       1.20021709       0.66354099
O        0.15726706       2.88344789       7.05485492      -0.76145909      -0.35562095       1.40637674
O        7.50674235       0.03295983       6.59516519       1.24328156      -0.60544842      -0.17296729
O        9.58883760       7.43064172      20.39781187       0.15318697      -1.31593868       0.44272313
O        2.67402470       0.58544293      14.53662933      -0.46073938       2.06259433      -4.06288662
80
Lattice="9.77192453 0.01751879 6.90363604 0.24348012 9.76890588 6.90363604 0.01370155 0.0133883 13.86910312" Properties=species:S:1:pos:R:3:forces:R:3 energy=-575.99076738 source_file=vasprun.xml step_index=980 time_fs=19960.0 time_ps=19.96 file_index=9 pbc="T T T"
Na       7.94333893       8.05962444      19.24879215      -0.18900913       0.03212186      -0.27567600
Na       8.89532536       3.15184163      20.67756585      -0.26354235       0.81272697       1.03833071
Na       1.76141335       8.60074114      17.62620950      -0.57164489      -0.36221362      -0.16664422
Na       6.28544407       7.80776759      11.01380760      -0.11851500      -0.47679221       0.70725851
Na       3.67649145       2.74482633      15.00073092      -0.26603023      -0.34137639       0.23381094
Na       7.21817827       2.05969905      13.59613073      -0.22944749      -0.61919128       0.15184583
Na       2.78502572       3.59507828       8.64068740       0.04896340       0.21753563      -0.05859925
Na       3.56735830       9.05502602      14.36496488       0.31204979      -0.16163751      -0.68124368
Al       7.38706420       5.30295888       9.09833229       0.65713387       3.99753846      -0.57510812
Al       4.63028193       2.86539910      11.44889119       1.18184107       1.79015715       1.84356605
Al       3.23389542       4.58365329      18.28430258       1.47238495       0.08576402       0.72302316
Al       5.73088661       7.40610806      16.05321439       0.05838057       0.50714825       0.85274903
Al       0.65483557       2.47763446      11.48540791       1.23719291      -0.57799375      -1.25691217
Al       8.34922290       9.45339237      22.91352474       0.15488346       0.98498896      -3.08252473
Al       9.96970356       7.91569101      15.93242131      -0.02673281      -0.29046051      -2.16331745
Al       2.41844675       0.75861939       4.47386864      -0.34414165       0.66980435      -0.78747750
Si       3.05140068       5.71775454      15.45045496      -0.29188621      -0.67600342      -2.71538095
Si       4.68863000       7.65988710      18.89624997       0.59346544      -1.74768021       1.10854173
Si       7.41153353       4.39432921      12.12432213       2.07285756       0.65269683       0.32651628
Si       5.91437383       2.59922612       8.50675010      -0.30299922       1.16920785      -0.94717470
Si       1.24166744       7.68046631      11.86123417      -1.56947953      -1.06736580      -0.25745955
Si       2.77444855       9.40877680      22.26463448       2.87091224      -1.73205382      -0.99207579
Si       9.58636364       2.60186464      15.31052778      -1.42115115       0.73504549      -0.44732644
Si       7.53889969       0.74123283      18.95680443       2.37616741      -0.44643228      -0.07323745
Si       0.70057486       3.12443283       5.54921546      -1.87730787       2.10575903      -1.97912784
Si       7.56927729       9.68384022      14.83749569       2.28152846      -4.21416102       1.48358537
Si       0.19570089       7.02159422      14.95784142       0.35876016      -2.99166734      -1.56044053
Si       3.06182300       0.67501892      12.50726389       0.05002643       0.02737888       3.38529459
Si       7.99589992       5.43779323      15.13126150       0.60728352       1.12762674      -2.30934694
Si       4.86851767       2.06276177       5.73708667      -2.39714474       0.69080149      -4.51321455
Si       2.43082175       4.84647996      12.27401478      -0.25659923      -0.24490096       0.26793896
Si       5.82267225       8.22716603      21.76117143       0.99659312      -1.61096372      -0.27332187
O        8.94706476       5.72808004      22.07502993      -0.20225084       1.22425713      -0.48484883
O        4.39576777       1.67668133      12.68347045      -1.84027651      -1.98636542      -0.25286053
O        1.69435995       4.28214437       5.10634918       0.10243551       1.94108661       0.94018449
O        6.27422174       8.81223015      15.25614312      -0.29456445       0.49758971      -1.02590406
O        1.07214107       3.93347249      12.49937132      -0.78914390      -1.68787561      -1.37628831
O        7.10074304       9.25850807      21.62749140       0.47424748      -0.33542387       0.58053164
O        9.33186139       6.44154356      15.17416103      -1.30802992      -0.98865665       0.31044899
O        3.90917960       0.67647341       5.50718354       1.14155346       1.48440339       0.79840775
O        4.02298410       6.15039163      18.81565680      -0.46418060       0.76038479      -0.96325161
O        4.24565111       6.83096202      15.32645490      -1.24332133       0.15168841       0.48851004
O        6.92548239       3.86757493       8.40896459      -0.96138607      -1.48352220      -1.10588682
O        6.12399517       3.41427348      12.20473409       1.08744719       0.47237712       0.13017322
O        1.92564398       7.98272697       8.28826836      -0.98065895       1.76941308       1.16955631
O        2.07782228       9.02159644      11.94177184       0.21725505      -1.21804324       0.89295992
O        9.01112655       1.63200108      19.11398060      -0.43813487      -0.22627950      -1.38878892
O        8.69904049       1.21947625      15.05466576       1.17592067       0.15060288       2.04669008
O        3.06894147       4.49010209      16.54216508       0.46015082       1.42116331      -2.41792418
O        5.69231966       8.13945803      17.68642534      -1.21130829      -0.76856096       0.60239851
O        7.51720362       5.32539888      10.77848919      -0.51300557       0.00378409       1.59489503
O        5.12222143       2.61411319       9.89034683      -0.01362094      -1.40057053      -2.96873475
O        9.79436956       7.84594141      17.62028581       1.59647397      -0.98201479       3.11431223
O        2.60665122       0.59755167       2.72984008      -0.19127191       0.51915685       1.41627424
O        0.88055470       2.77144403       9.62112745      -1.17592340      -0.45657167       1.97602331
O        7.66345488       9.55152425      24.48694126       0.34371454       1.45737580       1.50271639
O        9.66596298       8.25374865      22.79562146      -1.19821817       2.79285353       1.77692017
O        2.04091634       1.23761109      11.39082963      -0.74693651       0.30009800       0.29896539
O        1.15361059       1.97745393       4.61074204       1.07431010      -3.35082651      -0.58638508
O        8.93435157       9.37262752      15.79502535      -1.76740617       0.47233867      -2.41417995
O        3.59156422       4.25008325      11.34508247      -0.61784991      -1.06978775      -0.62879231
O        6.18176123       7.05404880      22.88834372       0.82437119      -1.03113390      -1.09591159
O        6.72527517       6.07318199      15.94619197       2.35390493      -2.46874610      -0.00026483
O        4.33126292       3.18542311      18.46444779      -0.04757694      -0.64358257       1.79964187
O        8.85830171       3.45733069      12.07849154      -1.04590969       0.20227166       0.76801904
O        6.85044219       1.39504472       8.01104464       0.03583999       2.36013773       0.51271629
O        1.65287521       6.54851560      15.59354496       0.18327541       0.41830751      -0.12732759
O        3.45177126       8.81731778      19.10824717       1.02052078      -0.15478266      -0.55988643
O        8.42291299       3.81642961      15.25665273       0.03995336      -0.11437341       1.19652719
O        6.42150610       1.91971753      19.04310453       0.36532733      -1.02109937       0.57836558
O        2.17535803       6.28192648      11.63214120      -1.74878001       3.06210927      -0.53337797
O        4.51182863       9.05189479      22.03261702      -2.65721144       0.54634713       0.82121104
O        7.41485519       5.31349062      13.50786375       0.23266786       0.18053902       0.01401415
O        4.75682916       2.63326430       7.23067773       0.41918036       0.40027814       2.54489784
O        2.97746602       5.08652392      13.73956524       1.19447429       0.25791938       4.96790703
O        5.70568406       7.55901084      20.23519494      -0.30845757       0.35610424      -0.58525996
O        0.78593849       2.88039537       7.12471649       0.69709741      -0.61081065       1.54417025
O        7.81565367       9.35917068      13.21386268      -0.22286855       1.12122576      -0.81497936
O        0.37403129       7.59172850      13.34601773      -0.04839239      -1.06849858       0.83258994
O        2.40423910       0.70756722      14.12507411      -0.22014358       0.69409061      -2.89211269
80
Lattice="9.77192453 0.01751879 6.90363604 0.24348012 9.76890588 6.90363604 0.01370155 0.0133883 13.86910312" Properties=species:S:1:pos:R:3:forces:R:3 energy=-575.48155425 source_file=vasprun.xml step_index=105 time_fs=88210.0 time_ps=88.21 file_index=44 pbc="T T T"
Na       7.79558236       6.44086895      18.35458040      -0.31066979      -0.21250275      -0.22348920
Na       8.63970193       1.01161567      10.85887354       0.05090947       0.77575880       0.05452914
Na       4.54303603       5.59773836      10.15308840       0.06004866       0.31537063      -0.08021706
Na       2.04525970       9.32569254      16.82723617      -0.24714887      -0.06561561       0.21395276
Na       8.94400319       3.91885723      20.93019417      -0.09376835      -0.16766383       0.47006935
Na       5.81034430       1.66532064      14.10426610       0.44327916       0.32058533       0.19164068
Na       1.31573737       6.06489689       6.90663229       0.08486663       0.41234409       0.13637881
Na       4.38099574       8.83013860      12.76789911       0.67648622      -0.87086923       0.84348942
Al       7.34597585       5.86833102       9.24555328       0.70106483      -2.30486575       2.49285645
Al       4.92252495       3.13559515      11.68694816       0.01706931      -0.03258148       1.55038293
Al       3.44660156       4.92280877      18.61053314      -0.77871904       0.29284263       0.05664837
Al       5.70865699       7.78365948      16.15788364       0.40778075       0.39159522       0.15847047
Al       0.72623119       2.57032839      11.75343963      -1.36782737      -0.40133149      -1.21938763
Al       7.95601517       0.14350159      16.11186097       0.97557910       0.86890949      -1.13831434
Al       9.94653861       8.06242656      16.22602297      -2.01365813       0.75682327      -5.75112969
Al       2.19274545       0.65177718       4.89685925      -1.81345817       0.35824783      -0.54600460
Si       3.32644774       6.29252293      15.59248762      -3.36466975       1.57517995      -1.67403315
Si       4.75114753       7.58285742      19.31938547      -5.96525974       0.07608024       0.79246715
Si       7.65582552       4.35429775      12.10185106      -3.39156742       0.44616852       1.65431180
Si       6.00393205       3.01558358       8.64222287      -2.35902112      -2.08687226       0.20019206
Si       0.88690326       7.51084273      12.21337706       3.44402829      -1.70049647       1.16060306
Si       2.77700550       9.23758905       8.92420576       3.95560000       1.47672493      -1.66045112
Si       9.27761420       3.06349543      15.60034188       1.98864380       2.43701140       2.25501349
Si       7.73641936       1.15102813      19.07639593      -2.30130374       0.84258300      -0.37385938
Si       0.67034276       3.21615359       5.76401391      -1.45234828      -0.93902438      -2.83382007
Si       7.40685914       0.14718787       7.95891625      -0.20480221       2.77489560       3.30296872
Si       9.93347739       7.22780781      22.05681163      -2.14387345       2.52262400       0.80737193
Si       2.98306039       0.70958672      12.87348663       0.71413401      -2.56848436      -0.54465460
Si       8.00171940       5.84983886      15.08054639      -0.90105268      -2.91750935      -2.70865072
Si       4.72495455       2.31342640       5.92623070       2.09602145       2.48663671       0.46512834
Si       2.52062966       4.92045337      12.83043744       0.44888759       0.50156650      -0.58087794
Si       5.69993486       8.34591997      22.17749168       2.05533201       0.39180815       0.48193482
O        9.00590118       6.16884424      22.78922115      -0.69349222      -1.04703465      -0.49591357
O        4.23567644       1.67361772      12.42072475      -1.14446320      -0.36928278       1.02685486
O        1.70565800       4.41382799       5.41142156       1.73419708      -0.10283108      -0.71146103
O        6.24217564       9.23345213      15.24300261       0.26160370      -0.83791041       0.56650780
O        1.36443433       3.75414109      12.89100247       0.36377760       0.31498576       0.17684510
O        6.72841810       9.63285096      22.06966352      -0.18701648      -0.62188707       0.83430655
O        9.07407870       7.00851963      14.88571843       2.27761512       0.66393939       1.40257531
O        3.59934851       1.19989168       5.77527925      -1.42622324      -1.30201258      -1.17336587
O        3.84439146       6.23104680      19.78209457       0.34457057       1.09691862      -1.57068705
O        4.25630205       7.61082258      15.17619175      -1.47873194      -1.17219175       1.35701263
O        6.86921805       4.34025613       8.46730091       0.11690154       1.86847991      -0.87439427
O        6.55364543       3.01235592      12.39846808       0.78312632       1.87846909      -0.54966798
O        1.83335622       7.95078744       8.80842498       0.21158310      -0.02471243      -0.70478455
O        1.89100834       8.84173533      12.47717184      -0.78254224      -1.68015225      -0.34204922
O        8.74634199       2.37149472      19.22497808       1.95378231       1.23491726      -0.25275571
O        8.35139365       1.83938878      15.42288629      -1.83400554      -3.05051694       0.53671857
O        3.61522160       5.37177387      16.81684774       0.11291268      -0.29995469       2.88752156
O        5.66024896       7.52998714      18.07640789       2.22723602      -0.05779079      -4.45955101
O        7.07666719       5.42187432      11.00847606       0.36075406      -0.94086077      -0.49311817
O        5.09578875       2.99338098      10.02924082       0.78689877       0.58008244      -2.27818715
O        9.84202264       7.50165436      17.73722261      -1.87282834      -0.16440550       3.31132267
O        2.10321235       0.51208266       3.11858522      -0.15167349       0.18233515       2.04557983
O        0.51211494       3.11416944      10.03555141       0.29532896      -1.31875056       0.25285801
O        7.96613991       0.14528884      17.85441705      -0.33788767       0.30254190      -0.98886612
O        9.46744375       8.78580748      22.45909961       0.60247210      -0.68869189      -0.09425880
O        1.61332329       1.01609081      12.02538621       0.10939991       0.71080744       0.09615924
O        0.80123381       1.63287423       5.21982457       0.25031661       1.85096564       0.35104020
O        8.91586523       9.50174570      15.85055400       0.19578350      -0.26994252       0.80701945
O        3.90159264       4.61541620      12.01526370       0.45228120      -1.63719388      -0.10605897
O        6.29434121       7.16893161      23.19049530      -1.33082276       1.38908758      -2.14575199
O        6.66927780       6.42975264      15.73236913       0.06751763      -0.12387674       0.93424866
O        4.65308033       3.77489280      18.99889303      -0.80737229      -1.64660621       0.32331034
O        9.03298877       3.65462397      11.76593564       2.38203649      -0.92732626       0.26304364
O        7.11441132       1.87728754       8.40055725       1.99449859      -2.87743347       0.18129603
O        1.59959592       6.90300854      15.65583702       4.64350260       0.24392772       1.07126627
O        3.63293727       8.84753672      19.10619004      -0.53079268       1.44181022       0.49983265
O        8.44252810       4.48340276      15.92634753       0.02052459       0.73006683      -0.48977442
O        6.16347883       1.80248734      19.23226993       1.89022597      -1.62909651      -0.67698916
O        1.90036819       6.12563745      11.83954675      -0.71437957       1.71144332       1.72167047
O        4.44521833       8.73376744       9.26147077      -3.63231195       0.38406649      -0.48539084
O        7.69939434       5.18488577      13.52471319       0.49639807       0.66220927       1.12720400
O        4.81557548       2.50036620       7.56923799       0.18852963       1.26017986      -0.45532441
O        3.02973243       5.35954207      14.33263239      -0.19462410      -1.06201817      -1.88847305
O        5.57695327       8.02417140      20.55109164       1.91361085       0.29505921       4.02313461
O        0.43116219       3.14899144       7.32667782      -0.12563479       0.82351673       1.53717286
O        7.92013141       0.19360813       6.48257621       0.30024982      -1.46513906       0.02680166
O        9.68049804       7.01333598      20.42315295       0.84556322       0.79683342      -2.19187000
O        2.85247708       0.56136136      14.58417470      -0.32511531      -0.85465358      -1.88257586
80
Lattice="9.77192453 0.01751879 6.90363604 0.24348012 9.76890588 6.90363604 0.01370155 0.0133883 13.86910312" Properties=species:S:1:pos:R:3:forces:R:3 energy=-574.53037152 source_file=vasprun.xml step_index=200 time_fs=96400.0 time_ps=96.4 file_index=48 pbc="T T T"
Na       8.17704910       8.19488547      19.20142813      -0.11286667      -0.29041094      -0.09750435
Na       6.60784718       1.48812223      14.06150153       0.49208269       0.49464636       0.26645105
Na       3.01920626       3.12173916       8.36716692      -0.22378542      -0.16450962       0.23046078
Na       8.36771415       7.20628384      11.00790189       0.21706960      -0.16782529       0.38186447
Na       8.65177342       3.36317221      19.76262245      -0.70695753       1.23375965       0.79045928
Na       1.75159978       2.40687794      15.67821099       0.38918594       0.40584624       0.02385079
Na       1.88035131       6.38392893       6.53815004      -0.21072988       0.46797179       0.40916680
Na       4.40385656       8.55695281      13.22553100      -0.46420063      -0.20069001       0.23418616
Al       7.27294632       5.31875694      22.63816597       1.40827829       0.21768901      -0.63640727
Al       5.05318838       3.02788443      11.56256373       1.18614444      -0.60734742      -0.53090471
Al       3.67046215       4.75166373      18.49423081      -0.06963680      -0.02097785      -0.11426339
Al       5.69083470       6.87312833      15.80163122      -1.53873594       3.23324899       0.48385033
Al       1.01075900       2.55344562      11.38178621       1.82892162      -1.53639059      -2.41198513
Al       8.07038605       9.52225870      23.09976716       0.18169515      -0.13235693      -2.88084479
Al       0.20917961       7.68122845       9.11576501       1.90150624      -1.33497971      -1.52854298
Al       2.62197986       0.72844769       4.33322942      -0.46356595      -3.41883941       0.44708315
Si       2.82346701       5.68125480      15.54819184      -1.32642109      -0.68299368      -0.57404538
Si       4.91741245       7.65432743      18.69342365      -2.62289129       0.83778600       4.16756554
Si       8.04411992       4.46525834      11.75556284      -1.10341600      -2.41045764      -0.15276042
Si       5.81355799       2.23577612       8.52180259       1.10498721       3.53621002       0.49883460
Si       1.47228636       7.55831304      11.97455460       2.76389939       1.63348728       6.91128182
Si       3.01048564       9.26242827      22.13682868      -3.51015582      -0.44413955      -1.71161131
Si       9.68991939       2.45517086      15.27705847      -3.72212419       1.23864554       1.32398636
Si       8.07837230       0.65299068      19.05735131       0.96610436       1.52253958      -1.00168196
Si       1.04974022       3.16960955       5.51859987      -1.91251823      -3.49035813       0.20116684
Si       7.52132713       9.32681591      15.03627011      -0.10805869      -1.34972170       0.21497050
Si       9.79091031       6.89008039      21.74050855      -0.01340513      -0.17911332      -0.81751706
Si       3.47553526       0.92265901      12.48772668       1.29422787      -3.35672039       0.67975668
Si       8.28042635       5.34685702      14.67199081       0.96403899      -1.41613957      -0.59461275
Si       5.19534368       2.10091104       5.60324930       1.35276482       3.19885184      -3.15031940
Si       2.49267252       4.76198542      12.57434203       1.77074010       2.04130375       2.76384484
Si       5.62643385       7.92916192      21.71435203       2.21529508       0.68203066      -0.07282852
O        8.71423918       5.49672021      21.51035710       1.60990486       2.34981957       0.66890267
O        4.95603422       1.62373005      12.76585625      -1.61571067       0.86980193      -1.46573872
O        2.22657621       4.21056043       5.60379682       0.91155613       1.34689609       0.66346220
O        6.05227615       8.44369103      14.77028111       2.46175427       1.02944973       0.95491749
O        1.11408734       4.04094528      12.33008206      -2.79152687      -1.55777558      -0.97418861
O        6.49898919       9.28867615      22.08868506       0.45139551       0.59009368       1.25634777
O        9.67564638       6.20173098      15.02860323      -1.06423023      -0.35816314       0.21907972
O        4.17736318       1.11897060       4.88000805       1.04376986      -0.53798420       0.43256750
O        3.74769729       6.46590982      19.08857137       1.26784944       0.04549633      -1.47749502
O        3.96452941       6.72586508      15.20631097       3.40286889       0.68775415       1.13862485
O        6.70454675       3.75073075       8.39189894      -1.93496901      -3.93605156      -1.02909794
O        6.77783819       3.52352449      11.93908986      -3.03690648      -1.07746117      -0.42732858
O        1.53829413       8.34829396       8.10773762       1.11334668       0.94213475       0.91349804
O        2.19576859       8.98230428      12.26482316       1.87949140       1.71477122      -2.05239422
O        9.54414417       1.40864998      18.75489207      -1.53388107       0.88316081       0.77446825
O        8.57862337       1.22655468      15.41775618       0.52014704      -0.60141829       0.95747941
O        2.85576357       4.69328138      16.83226500       1.48326387      -0.14188543       1.45373731
O        6.03676825       7.24922395      17.66706785      -0.25052211      -0.55546549      -3.61802647
O        8.06354478       5.18076898      10.35476014      -0.04772483       1.30534701      -1.25922454
O        4.82985907       2.44301720       9.75768996      -0.36075773       0.49838837       1.67400331
O        0.60282247       7.40647125      10.78969074      -3.49498236      -0.65557905      -4.80013224
O        2.87063763       0.45874990       2.61644867      -0.48649058       0.24411632       0.58315635
O        1.09125045       2.72653493       9.48596788      -1.60894210       0.00161570       1.56708056
O        8.13843526       9.30159942      24.85073552      -0.56144570      -0.43069431      -1.96959508
O        8.91869750       8.18491645      22.29333954       0.73831303      -1.45318309       1.08919039
O        2.54204703       1.67989988      11.46967782      -0.70929532       0.06797028       0.19586481
O        1.49014465       1.89360163       4.58965713      -1.31440916       2.30539740      -0.15811118
O        8.60547445       8.63089178      16.18962265      -3.61967977       2.44616990      -2.32420272
O        3.65260051       4.03242901      11.81211070       1.71523805       0.11946653      -0.60672225
O        6.22496070       6.70159184      22.55421509       0.00992914      -0.81790399       0.32118300
O        6.89228178       5.96218001      15.18278536       1.72762241      -1.99723472      -0.13299306
O        5.16081296       3.77300279      18.95532923      -1.59435878      -1.64378969       0.29291453
O        9.29134193       3.51421782      12.02766599       2.02086614      -0.31794602      -1.11666092
O        6.85187258       1.02494491       8.80831859       0.58804879      -0.81100039      -1.20392434
O        1.51857809       6.64770959      15.60782927      -2.86889486      -0.06693945       0.41032139
O        4.11236864       9.11319612      18.83164977      -0.09812184       0.08868518      -0.95348356
O        8.37279563       3.67941163      15.11141518       1.55556759       1.39460629      -0.06173605
O        6.84155947       1.76594096      18.84930081      -0.99317125       0.03216368       2.19717494
O        2.52943773       6.37562443      12.20451197       1.29820575      -1.87082255      -0.35934069
O        4.06743393       8.05164457      22.14043017       0.31697910      -0.00130062      -0.38497437
O        8.14218346       5.45586269      12.96741818       0.33621937       2.81377382       2.64510181
O        4.74665897       1.99919245       7.17456143       2.10618278       0.01036572       1.56175980
O        2.71201311       4.63650538      14.28701819      -0.45924790      -0.60435684      -1.76053681
O        5.85552692       7.79692607      20.08351647       0.36823540      -0.42923254       0.43442766
O        0.69792464       2.49562012       7.01718446       2.24094398       0.09123203      -1.79548734
O        8.34829802       9.62492459      13.46954215      -1.32607932      -0.79374385       3.97611329
O        0.62766851       7.47038484      13.41948159      -1.96294805      -0.52969612      -0.73269116
O        2.68059843       0.58545382      13.92966712       0.61379830      -0.21545473       0.54127662
80
Lattice="9.77192453 0.01751879 6.90363604 0.24348012 9.76890588 6.90363604 0.01370155 0.0133883 13.86910312" Properties=species:S:1:pos:R:3:forces:R:3 energy=-577.00972462 source_file=vasprun.xml step_index=280 time_fs=22560.0 time_ps=22.56 file_index=11 pbc="T T T"
Na       2.56292306       2.35895186      15.97428136       0.03143530       0.69822708      -0.25954407
Na       6.51977302       3.90483472      17.36668327      -0.30643731       0.63179570      -0.27159675
Na       7.43830177       7.36352266      11.76283935       0.09511804       0.12576385      -0.05116469
Na       1.89157360       0.36121128       9.88256412      -0.16406420      -0.71851347      -1.21193549
Na       8.67631439       3.51880399      20.96640156       0.00920224       0.31164301       0.11232566
Na       6.98586660       1.40947572      12.79199896      -0.07305674      -0.84886210       0.57719720
Na       1.39338174       6.09178862       7.17927242       0.10807502      -0.26135308      -0.17727955
Na       4.21596047       8.88508544      13.69981678      -0.04572903      -0.63755283       0.40541019
Al       7.29246146       5.45368942       8.97224241       0.57874896      -1.79645177      -0.00827015
Al       4.59254127       2.97908257      11.61657738      -0.83499102      -0.02012957      -1.64632270
Al       2.84587543       4.53760441      18.62331175       0.34765962       0.03180218       1.85595560
Al       5.37618185       7.07025455      16.12340701      -1.01959518      -0.01420943       1.03959692
Al       0.15866722       2.38356485      11.74104870       1.95846926      -1.58695711      -0.80113714
Al       7.65941247       9.63060541      22.96606334       0.71282537      -0.33259722       0.67323600
Al       9.63011734       7.61288025      16.31098680      -1.69930372       0.37498991      -3.51232075
Al       2.45040199       0.42363196       4.54286420       0.52893272      -0.16644367      -0.04771298
Si       2.52350390       5.68327361      15.70966371       2.84121611       0.16584444       1.34025752
Si       4.29977884       7.21369577      19.08837842      -1.94084467       1.44901764      -1.21717864
Si       7.55583215       4.12598351      12.02019499       0.23959290       0.39458461       1.07729773
Si       5.85887284       2.61711744       8.52553112      -1.87856410      -1.09032884       1.24126891
Si       1.05167220       7.71015956      12.40367187      -0.99579986      -0.50719524      -1.36063456
Si       2.60878493       8.97497948       8.42974855      -1.13522785      -0.36750443       1.34395116
Si       9.07034492       2.51248017      15.38441810      -2.42838314      -2.91622780       4.69535884
Si       7.30065263       0.88939444      19.15002051      -0.66166561       0.24008450       0.36046960
Si       0.55170795       2.78136966       5.74703853      -2.02032122       1.57079804      -0.49037466
Si       7.09012235       9.56014858      15.19856243       0.29364498      -0.32281496      -0.14026537
Si       9.65706779       7.32907519      22.10719783      -0.33421328      -0.66235347       0.91038210
Si       2.76538540       0.66766413      12.58555086       1.55027835      -6.42153829       2.37938462
Si       7.81688094       5.37701163      14.93164497       1.10017543      -1.35820185       2.29646120
Si       4.78884739       2.11990138       5.53109408       2.21388008       0.81813007       1.35875573
Si       2.12202015       4.62728187      12.87744274       0.59115178       2.37559084      -2.25953914
Si       5.42039062       7.65221147      21.94925184       0.26262866       3.65528717      -3.12983716
O        8.64348584       6.07310335      21.81435762      -0.92950246      -0.83155719       1.34625013
O        4.10030293       1.51487547      12.58550273       1.04899423       1.28639040      -0.31384379
O        1.25388155       4.20305377       5.55781144       0.95508549       0.59762102      -0.19670807
O        5.74018871       8.63415232      15.41050676      -0.27920005       0.99391171      -0.03340944
O        0.68559971       3.78452350      12.68201677       0.98753448      -0.31953855      -0.27310278
O        6.34157889       9.04117322      22.03914757      -0.67763219      -1.02104720       0.48479856
O        9.12649278       6.03229268      15.68431295      -0.37264433       0.41732548      -1.29465883
O        4.07094050       0.70580384       5.34579882      -1.26221051      -0.03596155      -1.61175205
O        3.16281176       6.05289156      19.39755978       0.39105709       1.03058352       0.53261830
O        3.82038912       6.69679018      15.43492269      -1.72653312      -0.46452892      -0.07681146
O        6.71827087       3.91140456       8.09496969       1.10425815       0.62684586       0.75499535
O        6.08312572       3.47020095      12.29793487       2.15216362      -0.00099081       0.26016423
O        1.31379132       7.93899458       8.50380228       1.16198474       1.07380053      -0.21325036
O        2.29104544       8.76777966      12.31913889      -0.45686931      -0.12631686       0.49961413
O        8.61327813       1.67983771      19.52503137       2.66637926       0.65961430       0.50094184
O        8.09848185       1.16341768      15.15258190       0.58540948       2.28165205      -0.68279847
O        2.67219742       4.60042231      16.98150859      -0.61877865       0.91281200      -3.63085077
O        5.18912115       6.67576302      17.84204918       0.05278502       0.94653140      -0.37502468
O        7.61449577       5.16010511      10.78645349       0.06350550       0.18513388      -1.79681694
O        4.82278860       2.84752806       9.79129844       0.42270103      -0.29777223       0.57242378
O        0.20267091       7.67644164      10.96876653       1.04213739       0.74115338       5.47065673
O        2.63501428       0.27638763       2.80412881      -0.64636632      -0.59359090      -0.46460969
O        9.75382827       2.26314616      16.92565314      -0.48347924       0.72699911      -1.77656583
O        7.31137896       9.78364826      24.76481664       0.59511353      -1.64159976      -2.02160775
O        9.08466689       8.59036322      22.95656462       0.39630487      -1.58767904       0.96887065
O        1.58993195       1.12346030      11.71747964      -2.94206145       2.65005695      -0.32925270
O        1.32141849       1.73779023       4.84513388       0.51855860      -1.19666215      -0.02231286
O        8.25610582       8.63436143      15.75535954       1.03125460       0.22051604       0.13236120
O        3.47881189       4.25955168      11.92000747      -3.11160937       0.38511912       1.68508737
O        5.93723126       6.44188371       8.90217207      -0.08869600      -0.63920870       1.36157058
O        6.40024321       5.78807870      15.65823912       2.21920249      -1.26656003      -1.63446492
O        4.29037860       3.42952760      18.63930459      -1.79079748       0.64693412       0.28145240
O        8.67562905       2.85003481      12.05047038       0.28376680       0.84853744       0.42895418
O        6.88799375       1.31358126       9.07751942      -1.06804567      -0.25166229      -2.24934570
O        1.22300754       6.57203047      15.91882146      -1.82192664       1.56928057      -0.31948312
O        3.42053914       8.75848809      18.78788126       0.47921787       0.44477782       0.57239466
O        8.13414242       3.78949045      15.45548874      -2.18475364       1.27114424       0.16789647
O        6.42757521       2.25502116      18.80869669      -2.44245824      -0.73583537       1.17685244
O        1.71255028       6.26127353      12.55358893       1.06220068      -2.90929774       0.53535823
O        3.88531051       7.99908150       8.40914195      -0.99286680      -0.01462427       0.73317852
O        7.92978165       5.20868987      13.29740528      -0.50806920       0.41968633      -0.45115066
O        4.89239927       2.11384171       7.20892723       0.97464575       0.67929357       0.63429757
O        2.49595575       4.64263408      14.47132473      -0.45458517      -1.54320340      -0.89518923
O        5.28351648       7.48195103      20.29593011       1.39939159      -0.45932657       1.58310591
O        0.35008844       2.74110424       7.38277110       2.79278090      -0.91071409      -2.52359457
O        7.13946730       9.67244357      13.45482603      -0.22490260       0.08243278       1.31012676
O        9.91188475       7.98551787      20.67842848       1.30771708       0.79610380      -2.52788168
O        2.07564938       0.17738687      14.10864336       1.42554340       1.52984691      -1.35691500
80
Lattice="9.77192453 0.01751879 6.90363604 0.24348012 9.76890588 6.90363604 0.01370155 0.0133883 13.86910312" Properties=species:S:1:pos:R:3:forces:R:3 energy=-574.98911369 source_file=vasprun.xml step_index=945 time_fs=91890.0 time_ps=91.89 file_index=45 pbc="T T T"
Na       8.05128578       4.42484312      19.69201919      -0.16131981       0.22912093       0.39860446
Na       1.12068604       9.37423254      17.05362222      -0.28594886      -0.07368459      -0.19061997
Na       5.87882381       2.76227231      16.16990317       0.10523465       0.23887971       0.42385757
Na       0.52691269       6.60333533       7.02165531       0.64275651      -0.12740757      -0.54444048
Na       1.96484160       2.43114905      15.56177476      -0.16361226       0.66539738       0.27159771
Na       7.00207746       1.34438324      13.04939668      -0.17715603      -0.28883784      -0.05593928
Na       3.86538328       5.49709267       8.92547313      -0.32935057       0.25967340       0.17548149
Na       3.58649983       8.49463216      13.93361479      -0.04298795       0.04809611      -0.67499374
Al       7.05699179       5.46283687       9.26766685       0.97877657       0.53720057      -0.89239178
Al       4.52163074       3.34319359      11.65130668       0.08165326       1.36819973      -0.71996161
Al       2.59780726       4.71741024      18.44068489      -1.04485567       0.99720656       1.78670608
Al       5.27930025       7.11349815      15.98835809      -2.25524538      -2.76078442       3.30157485
Al       0.35784965       2.17654797      11.60450062      -0.62076011      -0.45285714      -0.66000870
Al       7.26604713       9.57027046      23.01277726       0.94617208      -0.49825061      -0.94658441
Al       9.33097146       8.33990625      16.28451015       1.52044865      -0.61079949      -0.10352212
Al       2.33800327       0.72285717       4.67686357       3.09103073      -5.07921441      -1.68481979
Si       2.20306237       5.87525484      15.58228420       1.78157456      -0.41629208      -2.15617690
Si       3.96313638       7.46873582      19.00362772       2.41401705      -2.86350131      -0.28264190
Si       7.57488908       4.57005213      12.30329516      -2.16397642      -1.67081298      -4.35660266
Si       5.34432070       2.89269685       8.59197206      -0.36856602       0.59722229      -0.51278250
Si       0.68913257       7.89254702      12.17753067       2.04526118      -0.57400989       0.14480915
Si       2.69357118       9.39998553       8.55125208       0.68294890      -1.55173451       0.17581000
Si       8.87464546       2.34451095      15.60239415       1.21875936       1.38351333      -1.11010891
Si       6.97088018       1.03786177      19.04698500       2.61629336       0.49103668      -0.28146238
Si       0.34059848       2.78483766       5.71752379       1.33482142       0.83271216       0.94994922
Si       6.65853237       9.66833178      15.03243478       3.29377189       2.11456809       0.08623497
Si       9.36656192       7.33857304      21.97043683      -1.93702407       0.30157218      -0.45745236
Si       2.98838030       0.78014654      12.59627999       1.79195892      -2.28832425       3.03930292
Si       7.72606172       5.52786392      15.25993297       4.01745124      -1.46523926       1.72686484
Si       4.58891394       2.57556941       5.52138540       1.92704232       3.93843406       1.88867642
Si       1.80872377       4.75797790      12.49441500      -0.83948190       3.89325722       0.42760194
Si       5.32578492       7.77220357      21.70175357      -0.53194250       3.28207440       2.72352730
O        8.24783517       6.09826363      21.89095876       2.26224902       0.50240228      -0.10401736
O        4.05046247       1.89070777      12.44395735       4.17807341       1.39436162       0.29514123
O        1.52278562       3.96243840       5.83372999      -1.38980496       0.29074523      -0.24684541
O        5.82226751       8.32160153      14.99549931      -0.74459730       0.86767195      -0.29392308
O        0.53651957       3.76679265      12.25262588       0.30522927      -0.07077123       0.35227260
O        6.16574433       9.22525370      21.60860657      -0.04293918      -1.11093941       1.26720227
O        9.00931086       6.60127335      15.74209109      -1.95181934      -0.72222607      -0.97970856
O        3.84003099       1.23946264       5.39851260      -1.29455692      -2.59437907      -0.33231845
O        2.61281122       6.43500341      19.09470997       1.45302179       1.40357695       0.00918191
O        3.59751642       6.79843675      15.44397431      -0.71295705      -0.84898685      -0.39587744
O        6.50642499       4.00343075       8.50341986       1.25686752      -0.60035145      -0.61665922
O        6.06023390       3.83172687      12.39390012       1.50649830      -0.13464461       0.57330248
O        1.19893485       8.79792633       8.47630337      -1.91790619      -0.88847725       0.61879145
O        2.05908129       8.78900596      12.04009262       1.02193403       0.90183659       0.95196775
O        8.67272286       1.33471292      19.05165196      -1.51013807      -0.35660164       0.21389280
O        7.72689567       1.22337933      15.30239812      -0.34633990       1.36765109       0.77444102
O        2.11953841       4.79433726      16.77586353      -0.09489316      -0.35952336      -0.61286503
O        4.95699866       7.06112238      17.74424169      -1.00080733       1.23882036       0.32945901
O        7.56909720       5.47263039      10.93226620       0.01634617       0.07057434       0.73731513
O        4.51454431       3.60708737       9.85088552      -0.08434153      -2.28793528       0.11490281
O        9.45114310       8.40830406      18.00771170      -1.36392333       0.44542590      -1.63357075
O        2.87951526       0.46184188       2.95384907      -0.80418539       1.45985284       0.23800450
O        0.24325771       2.20533409       9.85089231      -0.96902719      -0.72134749      -0.31556023
O        6.41621453       0.49946011      17.62691766       0.46329399      -1.10183551      -0.91356638
O        8.75137961       8.49989478      22.96417332      -0.46214524       0.42026646       0.46177679
O        1.93443505       1.43015083      11.73614398      -5.43584663       0.04789881      -2.70735561
O        1.13135367       1.74355694       4.72348043      -4.71536969       2.99152872       0.66504859
O        8.09241273       9.44919478      15.95290091      -2.92587129       0.76050041      -2.61956969
O        3.31665543       4.60203704      11.90548360      -1.75298154       0.01979854       0.15466488
O        5.88335933       6.68783980       8.86102424      -0.61594997      -0.04134685       0.99741858
O        6.34656733       5.71421729      16.00811236      -0.30249499       0.15155367      -1.14121815
O        4.07087690       3.87014364      18.52318375       1.25916392      -1.44813096      -0.20109907
O        8.70353916       3.37825711      11.88373421       0.46951408      -0.55401541       1.77580099
O        5.84331150       1.31663229       8.84017063      -0.48613072      -0.43729653      -0.58118241
O        1.08262004       7.03633515      15.70616291      -0.30281699      -0.16594807       0.72671809
O        3.70847122       9.06511430      19.03567650      -0.86126526       0.00408683      -0.35939048
O        8.12094433       3.86544144      15.81114640      -0.17961742       0.35305534      -0.87089545
O        6.31983821       2.55759088      19.10087736      -1.55700203       0.20956301       0.27263165
O        0.96651395       6.29568222      12.05916878       1.95319905      -2.87632256      -0.17473803
O        3.78020459       8.13954118       8.52416808       0.30356469      -0.37164736      -1.10818841
O        7.95131208       5.37360631      13.61681268       0.19669910       1.22653672       1.63936119
O        4.48961572       2.97231755       7.14277657       0.44946738       0.01042000       1.19599682
O        2.02535198       4.93407315      14.13463956      -0.09193435       0.37991341       1.97752920
O        5.09614346       7.16248616      20.30293953      -2.12528681      -1.09679038      -3.78245533
O        9.77505608       2.15335446      14.19491786       0.07021319       1.33081557      -2.25349953
O        6.42606500       0.08889584       6.40704924       0.91983648       0.40321107       1.51061648
O        9.83973623       8.04470241      20.54546568      -1.48626884       0.20273337       2.14828641
O        2.60832275       0.68050514      14.20453504      -0.14361037      -0.10939174       0.38908214
80
Lattice="9.77192453 0.01751879 6.90363604 0.24348012 9.76890588 6.90363604 0.01370155 0.0133883 13.86910312" Properties=species:S:1:pos:R:3:forces:R:3 energy=-574.92459817 source_file=vasprun.xml step_index=420 time_fs=88840.0 time_ps=88.84 file_index=44 pbc="T T T"
Na       7.81848359       7.46233459      18.15224982       0.33763706      -0.17042949       0.41337206
Na       9.14090877       1.78785238      10.16882540      -0.34810376       0.16051608      -0.04950177
Na       5.35390250       6.79607453      10.58164640      -1.11888614      -0.20239671       1.31600303
Na       1.86233868       9.66314109      16.65612039      -0.04363417      -0.20319435       0.22335861
Na       9.18612826       3.92127350      20.79481892      -0.05602388       0.01866401      -0.27703017
Na       6.38693444       1.45780753      13.81973042      -0.07021474       0.38530788      -0.00615957
Na       1.13620617       6.70422230       6.56138929       1.17555260       0.12395327      -1.23363499
Na       4.34605601       8.86658508      13.97308620      -0.05849515      -0.04434783       0.04570843
Al       7.88444935       5.52287665      23.09725200      -1.72721647      -2.40108109       0.49920924
Al       4.50908479       3.43589710      11.69032474       1.76004101       0.40227636      -0.99814247
Al       2.79930654       4.97898668      18.51072861       1.67528738       1.22305911       2.13080004
Al       5.89247447       7.27664157      16.14838809      -0.43042910      -1.31366252      -0.06177163
Al       0.52642619       2.05590379      11.64263265       0.01755206       0.69252008       2.13426200
Al       8.14271304       9.76997665      23.09853555      -0.80833094      -0.45551229       0.80474684
Al       0.41801942       8.17793719       9.17321685      -3.15683775      -0.45895424       1.13789553
Al       2.33042384       0.70939437       5.08088206       0.47722124      -2.97895831      -2.03490186
Si       2.78329597       6.01263913      15.58762304       1.93547210       0.36134378      -2.07057421
Si       4.54345727       7.57521033      19.20148894       0.06408275       1.28852063      -0.31381221
Si       7.55615391       4.37545025      12.25699533      -0.91462264       0.68369020       1.63117499
Si       6.02548463       3.07415672       8.67104304       3.99551007      -0.48551552      -4.31084359
Si       0.97877719       7.76771047      12.31786971      -1.59089347      -2.56402883       2.66995843
Si       3.18627158       9.37747917       8.89117308       1.63510441       0.71096682       0.50587664
Si       9.37893456       2.67452757      15.64657000      -0.61391832       1.10914435      -1.90144030
Si       7.25399052       1.14293030      19.04030690       0.69360751      -0.90629749       0.28470308
Si       0.69246126       3.11441877       5.77307374      -3.69963171      -2.06607139      -0.10953122
Si       7.40284568       0.12905136       8.18270310      -4.76796931       1.01305138       1.26833251
Si       9.87749552       7.37769050      22.02385053       1.13421980      -1.08607053      -3.01225807
Si       2.80622770       0.81671615      12.95100953       2.41408546      -2.39893748      -2.31566201
Si       8.53156055       5.65209422      15.01782095      -0.42148144       1.33597956       0.82853862
Si       4.50392936       2.62063407       5.88152601       0.45304424      -1.10847676       0.27821676
Si       2.22740859       4.77198037      12.85113044      -2.84057556      -0.11049577       0.79632064
Si       6.06039684       7.90293559      21.97450776      -2.95899024       2.16968308       0.37800507
O        9.32113659       5.77514279      22.26163606       2.11336832       3.68935609      -0.58339216
O        3.63766702       2.06414448      12.31584729       0.88796351      -0.32830012       0.10407274
O        1.30129099       4.50177227       5.37124614       0.09744707       0.82054149       0.78191131
O        6.39599452       8.83269556      15.51760031       0.04962993       0.69795635      -0.80818879
O        1.34930526       3.28048485      12.88570243      -0.78484672       1.04415647      -1.73414926
O        6.80313406       9.35368425      22.03953021       0.65274970      -1.37952682      -0.47367309
O        9.80736384       6.72296664      15.15020554      -1.16299855      -0.58039227       0.40049484
O        3.38166411       1.36520981       6.23862611       1.71175234       1.41829357       0.44551916
O        3.22269421       6.62549131      19.24872119       0.26844853      -1.25070643      -0.16801849
O        4.34031102       6.66716945      15.39162281      -0.34962812       0.68361439       0.67300865
O        7.60283337       3.93390907       8.41500279      -3.29747429      -0.39191242       0.46611391
O        6.14024206       3.61264646      12.63724729      -1.04273676       0.17016945      -0.61029163
O        1.96437833       8.36062498       8.67125833       1.65009306       0.50524716      -0.58121815
O        2.20467989       8.68730686      12.54035609       2.87447145       3.22478828       0.24525279
O        8.47386344       2.24024829      18.87946658       1.11131184      -0.43835441       0.41117526
O        8.05984861       1.57763231      15.44447114       3.19487503       2.07791960       0.53203766
O        2.41908807       5.29243374      16.95539967      -0.52918012       0.93073488      -2.77008973
O        5.62278090       7.23134728      17.93123936      -1.33007279       0.91600637       0.48710293
O        7.47728355       5.19478122      10.89077040       0.30627731       0.62824050       0.30920203
O        5.36097616       3.32514583       9.99972851      -3.49215904       1.37448623       4.55691135
O        0.25479591       8.03953427      10.95781290      -1.14020545       0.08545455      -2.40662539
O        3.02126207       0.39035218       3.45013476      -0.42519354      -0.63340536      -1.30842773
O        0.69039293       2.36173363       9.92369868      -0.38822624      -1.07395861       0.24071017
O        7.25936176       0.04973625      17.85429344       0.88958387      -0.23731775      -0.91769718
O        9.50091358       8.56307026      23.01185409      -1.05892009       1.21752751       1.23662155
O        1.46874990       0.47780356      12.13399558      -2.86301022       2.25813470      -1.52082583
O        1.12227257       1.84255180       4.71806165      -1.83616796       2.28772991       1.56220833
O        8.93929577       9.57482514      15.89704406       3.01441046      -1.20937823       0.71475128
O        3.32687220       4.85344017      11.69554626       2.11667514      -1.10702427      -0.36281676
O        6.62910005       6.68979685      22.87984156       0.40377565       1.22016413      -1.82844991
O        7.43833056       6.38177080      15.94664563      -1.79624466       0.42832454       0.62224085
O        4.05380836       3.86346677      18.81928216       0.21728017      -1.33451894       0.24840135
O        8.71966328       3.30243986      12.37047060       2.89216599      -2.40279284      -0.87640928
O        6.81293392       1.61085873       8.91563866       0.41270543      -1.85667915      -1.64278554
O        1.77548566       7.30796461      15.10370527       0.63662480      -0.95075584       1.65538027
O        3.84826410       9.08953868      19.36404016       0.85818454       0.67608745      -0.22034630
O        8.82376922       4.24695595      15.74655973       0.56646006      -2.13292310       0.42419133
O        5.75484112       1.75139788      19.04279814      -0.51075912       1.09258581       0.76247283
O        1.19573407       6.14665176      12.63837190       1.18624272      -1.70542552      -0.58156775
O        4.57258897       8.34094258      22.75194942      -0.35692907       0.37602266      -0.28481345
O        8.05168184       5.41752928      13.47987590      -0.25294970       0.61840693      -0.22330847
O        4.97696592       3.30036905       7.30172252       1.63011819      -0.70492235       1.92052269
O        2.74558693       4.81870687      14.41223696      -0.22201773       0.81960793      -0.04117279
O        5.61160982       7.56665348      20.47230921       0.54301495      -1.09552497      -0.58596593
O        0.63460978       2.75013077       7.37623297      -0.12827773      -0.65925888       0.08206459
O        7.49748554       0.19316421       6.58534789      -0.03168071       0.92025304      -1.22288805
O        9.59805180       8.03537345      20.45178824      -0.38815893      -0.59449727       0.80779526
O        2.67867191       0.74671620      14.52015110       0.98813453      -0.83183168       3.42999751
80
Lattice="9.77192453 0.01751879 6.90363604 0.24348012 9.76890588 6.90363604 0.01370155 0.0133883 13.86910312" Properties=species:S:1:pos:R:3:forces:R:3 energy=-574.68359886 source_file=vasprun.xml step_index=350 time_fs=12700.0 time_ps=12.7 file_index=6 pbc="T T T"
Na       6.22181356       4.54305022      17.22603356       0.51297103      -0.14055420       0.37588707
Na       6.68778673       0.95926127      12.85639750      -0.16074981       0.00815837       0.38046915
Na       2.76017620       0.21081890       9.20407821      -0.38052893       0.21127422       0.23346384
Na       8.72203320       7.73030626      11.63463328      -0.09061219      -0.23169239      -0.00615591
Na       9.65795581       3.34031857      21.05732554      -0.09295592       0.26753218       0.00924553
Na       3.76887123       2.56691414      15.84737287      -0.27199141       0.24475387      -0.08184201
Na       4.00293595       6.23718906      10.03241377      -0.18605885      -0.12793331      -0.05380464
Na       4.62392020       8.07174994      13.20031215       0.05395221       0.29095881       0.02889377
Al       7.27210871       5.60988708      22.63318186       1.89410704      -0.47699809       2.38408237
Al       5.23352542       3.19005044      11.26986384      -0.49694755      -1.88339836       1.02581005
Al       3.36642301       4.80991567      18.45855224      -0.94824820      -0.67892336      -2.09278917
Al       5.80302080       7.21680804      15.84338390      -0.75690165       0.78342343       1.83812023
Al       0.69546489       2.01542701      11.52196619       1.16191469       2.53858460      -2.39810446
Al       7.88424567       0.07857219      15.64603597       2.62857716      -0.10685344       1.17901821
Al       9.89483413       8.06815648      15.92402700      -0.35929775       1.34544115       0.13869390
Al       2.69230106       0.44772982       4.47359464       0.18661978       1.11801047       0.08729958
Si       2.91221070       5.74728521      15.22447227      -0.90491560       1.51770284      -0.20638301
Si       4.86526953       7.42750124      19.13837076       3.04139240       4.97503724      -0.63065825
Si       7.87466729       4.28180583      11.97971422      -1.79291385       2.14418766      -2.19783386
Si       5.86357806       3.06452670       8.17023886      -1.63356337      -5.56489487       0.70660576
Si       1.52995761       7.54928039      11.94321310       0.07432096      -3.01510643      -1.41448072
Si       2.91282204       9.40006117      22.26980179       2.19416933       3.30727113       0.16395221
Si       9.44987517       2.69606103      15.32940595      -0.39839842       0.23257697      -0.27479849
Si       7.60038548       0.91342204      18.83714467       1.79350010      -1.61900208      -2.34032293
Si       0.90306367       2.91203995       5.57815797       1.49434272       0.75496889      -0.50094782
Si       7.10814215       0.01681820       7.67122002      -0.88761909      -1.89564424       2.34580199
Si       0.23756212       7.22996516      14.73256084      -2.39672320       0.67197193       2.73355867
Si       3.23072345       0.67581129      12.50359584       3.72527705       0.39431508       2.44451718
Si       8.13713017       5.57866387      14.70180701       4.27826346       2.84277623       0.86258089
Si       4.95305935       2.42111870       5.47426517      -0.34489689      -1.83370314      -3.28531469
Si       2.65007997       4.54923194      12.31133966      -4.13707877       0.77654527       2.05623730
Si       5.77475828       8.03666313      21.98230351      -1.59401925      -0.74412410      -1.91839117
O        8.92787980       6.08890690      22.30228952       1.21600096       1.24953844      -2.17289849
O        4.47471883       1.76121930      12.16280111      -0.13724138      -1.25155790      -0.17555061
O        1.97892178       4.13660661       5.32143754       0.15415893      -1.25592840       0.56344671
O        6.00658283       8.78485104      15.00736815       1.11096676      -0.59877957      -0.42024081
O        1.30950518       3.60794976      12.24124479      -0.41176695      -1.59298870      -0.96280286
O        6.55873076       9.39228633      22.04690638       0.42175495       1.47181899      -0.63281243
O        9.46118367       6.64308145      15.14726322      -3.07644444      -2.35449828      -1.84803957
O        4.18307040       0.97768514       5.23955889       0.65356331       0.62298840       0.88010434
O        4.03919356       6.17902281      19.24443154      -3.18636661      -3.87761077       0.09192587
O        4.23193049       6.70493851      15.10872866       0.91985705       0.33913024      -0.55834356
O        6.79176485       4.20170388       7.85802266       3.63621722       3.51864083      -1.29654003
O        6.65555582       3.19516947      12.37291457       1.36483511       1.01571085      -0.83369522
O        1.51618503       8.74874775       8.24333086      -1.23318351      -1.16319947      -0.05037749
O        2.76603097       8.56614196      11.88068621       0.69277911       0.07176196       0.78498613
O        9.03368000       1.58492291      19.15605766      -0.31686735       0.50395050       1.45085623
O        8.19142010       1.71331650      15.01176644      -0.52533509      -1.43425125       0.22545437
O        3.03348592       4.90651680      16.55341865       0.24942853      -0.84753597       2.12596370
O        5.76506587       7.42025338      17.76570194      -0.33295552      -0.15466778      -1.87398105
O        7.53224650       4.80033848      10.38565608      -0.53693195      -0.05619668       2.21064231
O        5.08264131       3.18392760       9.53811543      -0.26426081      -0.14179586       0.89974109
O        0.61271754       7.55345005      10.67523229      -1.35594172       1.49172570      -2.17604697
O        2.79626187       0.73193676       2.77340059       0.30553080      -2.02886053      -1.10721802
O        0.55823119       2.16927652       9.71463028      -0.96546490       0.88151670       0.12855050
O        8.11195316       9.75887070      24.34994833      -0.87254542       1.07956421       0.86870567
O        9.55170312       8.75416427      22.11944094      -1.26344517       0.15001963       0.24498121
O        2.07059009       1.01351693      11.51481891      -0.91337271      -1.17355353      -0.80497148
O        1.36116987       1.39100054       4.97112338      -2.08413093       3.02001151       1.09218461
O        8.71912910       9.46950017      15.35201176       0.20823992      -0.98519529       0.89643818
O        4.00255600       4.29958250      11.64302508       2.13053182       0.43637436      -1.02150791
O        6.23285228       6.95766741       9.24121220      -0.52189377      -0.52599488      -0.45440976
O        6.90722907       5.84598032      15.67223513      -1.79845761       1.32582855       0.07330074
O        4.51865513       3.46913798      18.11331394       0.34811101      -0.04240564       1.24719763
O        9.42795008       3.94304349      11.86402425       0.56862909      -2.93854676       0.84314675
O        6.45707656       1.42864351       8.13873951       0.28966710       2.34734770      -0.63275420
O        1.68657224       6.94660514      15.36969367       2.05235266      -1.62726372       0.47678186
O        3.98529295       8.89550487      19.26130355       0.56703941      -1.36434235      -0.75379278
O        8.63844266       4.15664269      15.13355538       1.14540966      -2.68324522       1.21306787
O        6.56887680       2.14915836      18.88382348      -0.84909393       0.22417166       0.28745291
O        2.32624998       6.04593051      11.79862299       0.00955703       1.82073121      -0.44035060
O        4.15326297       8.31477680      22.14926118      -0.11663482      -0.51769849       1.09558201
O        7.84731949       5.67243248      13.09038062      -0.50622323      -1.10634132      -1.42062662
O        4.85414431       3.06386036       6.91132662      -1.47771898       0.14670505      -0.09854858
O        2.61763879       4.67412467      13.96112345       1.09403640       0.92843733       2.17614146
O        5.93625129       7.40574651      20.42498443      -0.02672380       0.44819055       0.94337464
O        0.73009588       2.69441157       7.19694198       0.46626659      -0.25846119      -0.94286490
O        7.63665399       9.44304380      12.96072890      -1.09845746       0.70756801       0.41727920
O        0.55617770       7.37669873      13.18277985      -0.78729956      -0.03975975      -0.32330737
O        2.96793629       0.80387573      14.19430972      -0.16411991       0.12994247      -1.85038221
80
Lattice="9.77192453 0.01751879 6.90363604 0.24348012 9.76890588 6.90363604 0.01370155 0.0133883 13.86910312" Properties=species:S:1:pos:R:3:forces:R:3 energy=-576.75172259 source_file=vasprun.xml step_index=20 time_fs=16040.0 time_ps=16.04 file_index=8 pbc="T T T"
Na       7.61324154       6.38178728      18.18317085       0.52380054       0.23710510      -0.29158026
Na       8.53044359       3.68186374      20.55035527       0.69976443      -0.19701639       0.05370690
Na       2.31475033       9.31437383      16.24638067      -0.17859016       0.05483226       0.33594959
Na       8.81447946       7.45503580      11.91384434      -0.06882983      -0.15004069       0.55367163
Na       3.09451800       2.88642665      15.70420600       0.00963299      -0.00226009       0.03697068
Na       6.19594023       1.66308914      13.88794196       0.27290569      -0.20306299       0.00785104
Na       2.72029135       4.49159381       9.49600012       0.16126622      -0.13852403      -0.33847323
Na       4.56926476       8.36244760      13.08988557       0.20546644      -0.24331353       0.31512382
Al       7.57048357       5.65921371      22.88161678      -0.64918234      -2.37024787       1.07527641
Al       4.95203259       2.99466918      11.41602733       1.86450748      -0.05300358      -0.47285603
Al       3.08623577       4.75589781      18.45530581      -0.19853434      -0.47920621      -0.46664866
Al       5.65359515       7.20572989      15.99258878       3.44377104      -0.00938399       0.71577991
Al       0.59624283       2.31710156      11.42601074      -0.81048277      -0.45218697       2.64601627
Al       8.20902839       9.63921762      23.05381149      -2.61526816       1.80088160       0.71145069
Al       9.81988202       8.08128555      16.05911463      -0.55210892      -1.89928610      -0.13815515
Al       2.34301260       0.67555655       4.34283169      -2.11812630      -1.47922174      -1.60212717
Si       2.92464385       5.89262753      15.32467821       1.42733046       0.02627923      -2.53810180
Si       4.52611381       7.59999207      18.93768448       1.23103058      -2.22305124       1.33802110
Si       7.78146285       4.55952853      12.20274676      -3.79104835      -1.76783331      -1.96051962
Si       5.95687994       2.79536885       8.33036329      -1.68630072      -0.23583380       0.29797759
Si       1.17216972       7.36910603      11.87157284      -3.12195367       2.00867694      -2.00365521
Si       2.95493019       9.39693553      22.25117553       0.10021073      -0.95107439      -1.69260066
Si       9.64712124       2.87569478      15.51910280      -1.88145955      -1.59683024       1.23521187
Si       7.51416809       0.80171312      19.01452582       2.32797518      -2.99551265       1.63173447
Si       0.66412304       3.11272527       5.63961310       0.83128505      -0.83544821      -0.34006131
Si       7.32744323       9.74562342      15.12076384       3.79299380      -3.72656573      -1.37386358
Si       0.19791211       7.26639661      14.80250362      -0.49100987       2.27813312      -0.13328995
Si       3.07940274       0.60842970      12.24106124       1.83210492      -1.07488665      -1.34370695
Si       8.33589086       5.56661966      14.86429504      -0.58253416       0.49447060       1.59955828
Si       4.59164472       1.95220167       5.52562708      -0.02430643       0.04724955      -0.51366092
Si       2.31801259       4.53343976      12.57363073       1.57684861      -1.81865646       0.82762665
Si       5.61802319       8.06753860      21.93498025       4.61797657       2.73695146      -1.55465292
O        9.13165410       5.93455216      22.11040676       0.64076015       0.64392204      -0.37086420
O        4.62124305       1.37050064      12.05609880      -2.35642273      -0.43340269       0.14566695
O        1.53009441       4.43424303       5.41144069       1.34967472       0.46039394      -1.20374965
O        6.00347391       8.91553760      15.25476368      -3.04915178      -3.01311690       0.42554634
O        1.05133696       3.54583576      12.73729978      -0.79569022      -0.65141572      -1.56247293
O        6.50136803       9.53955640      22.28886798       0.45447696      -1.37663947      -0.22159825
O        9.52129570       6.62437517      14.99242686       0.77237577       0.17978993       0.03031344
O        3.57364907       0.57473312       5.51424993       2.53266388       1.98805946       0.73942571
O        3.60939987       6.26191455      19.09615458       0.14850269       0.36685358       0.61857287
O        4.40782923       6.60639677      14.99916238      -2.28078695      -0.11629312      -0.41997640
O        6.92692584       4.05239074       8.18040518       1.43723678       1.70746585      -0.56213996
O        6.37609650       3.55203935      12.41013689       0.38627948       0.74702779      -0.60168164
O        1.53356777       8.63897821       8.48551183       0.55554801       0.63895865      -0.12908944
O        1.87866314       8.74600855      11.39584166       1.31608001       0.05405151       0.50294502
O        8.82185191       1.80099701      19.18139262      -0.22068654       0.58096664      -1.30413077
O        8.60275054       1.53969733      15.94458604       1.87135559       1.19272079      -0.59516851
O        2.96132550       5.02590995      16.61145271      -0.36756639      -1.04208047       2.99388820
O        5.61215380       7.12894360      17.81366311      -0.09439317       1.01139280      -1.81545929
O        7.63582332       5.40762808      10.80884357       0.51829031       0.43069179      -1.03662084
O        5.05252326       3.14185775       9.62566192      -0.52031585      -0.56261584       0.63299880
O        9.75180354       7.13813392      17.61649582       1.56447370      -0.10502774       0.56486493
O        3.05490734       0.78486706      16.38538182      -0.92367024       0.80790695       2.95800951
O        0.67598381       3.30608691      10.04598600      -0.33754275      -0.06128763      -3.02758982
O        8.02226158       9.28516962      24.84910202      -0.29200506       1.90188981      -0.62837347
O        9.43214479       8.73774905      22.39539596       2.43228950      -3.74222719      -1.04157745
O        1.76877179       0.99595157      11.27257525       1.00657015       0.39687743       0.93539442
O        1.04093496       1.74784479       4.83267535       0.87772295       0.34122404      -0.15686982
O        8.45444334       9.12641984      16.11607338      -0.10225852       0.38873056      -0.21109486
O        3.52882666       3.91477603      11.59715587      -2.68895603       1.70385581       1.23137324
O        6.46563742       6.86816279      22.49328638      -0.05436666      -0.41526652       0.62780332
O        7.11399831       5.93662467      15.84681617      -2.05621356       1.70266891       0.73771340
O        4.08334131       3.17775609      18.43350404      -0.97968769       0.41502001       0.18045606
O        8.92654856       3.44287218      12.08086352      -0.19174459       0.01983482       0.44113948
O        6.86905872       1.45330944       8.54768447      -0.88942496       4.52528019       0.41081730
O        1.84553563       7.21102278      15.28890264      -0.45744899      -1.42630469      -0.37337980
O        3.57444043       8.80588068      18.41996794      -0.36394933       1.90832283       0.68778779
O        8.50707333       3.93152572      15.12707332      -0.37634570       1.74183026      -0.21505545
O        6.08803123       1.54174889      18.78093950       0.32512882      -0.35708036       0.21548637
O        2.09215400       6.06931348      12.16922703       0.34763278       0.76655380      -0.75289486
O        4.15741654       8.21191207      22.34358164      -5.06645520       1.16424821       1.94122590
O        7.83076156       5.72520184      13.32035531       0.10359178      -0.12145052      -0.92285728
O        4.86093259       2.51100188       7.01966987       1.10068239       0.32970056       1.87082802
O        2.74168078       4.56850109      14.16919053       0.58539865       2.37642031       1.35883776
O        5.46229127       7.90240489      20.32267397      -0.49255908      -0.05997765      -2.64024485
O        0.83787573       2.93149296       7.27965941       0.07053109      -1.39174515       1.41662132
O        7.96808284       9.58053272      13.54039482      -1.68148088       1.47039252      -1.06246383
O        9.96130417       7.65881262      20.07856841       0.34682133      -1.05132768       1.75344515
O        2.84321104       0.52574944      13.84777433      -0.27726363      -0.81373130       0.82760444
80
Lattice="9.77192453 0.01751879 6.90363604 0.24348012 9.76890588 6.90363604 0.01370155 0.0133883 13.86910312" Properties=species:S:1:pos:R:3:forces:R:3 energy=-576.67078158 source_file=vasprun.xml step_index=645 time_fs=83290.0 time_ps=83.29 file_index=41 pbc="T T T"
Na       8.59767855       4.25649068      20.96213646       0.39041185      -0.44785959      -0.70297421
Na       8.71876114       1.30178153      10.45706085      -0.44819683      -0.29025512      -0.18355922
Na       6.10371589       4.45364857      17.70123768       0.09346938       0.02722616      -0.05412189
Na       5.13349564       6.98226198      11.87483143      -0.17914096      -0.13265869      -0.32989358
Na       2.46974647       2.55978448      15.74619943      -0.07740316       0.01087531       0.07645734
Na       6.47453597       1.62956747      13.99612263      -0.10201331      -0.78514045       0.11016708
Na       1.77557047       6.16180391       7.29747870       0.04128837      -0.12196759      -0.23401902
Na       1.56964921       8.99271341      17.25514626      -0.23826669      -0.16351404      -0.15479229
Al       7.04579312       5.46801962       9.30540635       0.80250760       0.74455253      -1.01829151
Al       4.72950255       3.05653910      11.65429889      -2.52918433       1.40722274      -0.68810863
Al       3.01523816       4.71965676      18.46091637       0.84382118       0.48522842       3.13569659
Al       5.42527090       7.24219148      15.78585576      -2.68081580       0.74525476       2.61167011
Al       0.23337960       2.44698149      11.59275593       0.14935558      -0.92853918       2.05034701
Al       7.97640701       9.60362337      23.02754267       0.61907940      -0.47237583      -1.60268488
Al       9.60800845       7.77029546      16.06067906       0.36435674       1.01750119      -1.34453586
Al       1.96768837       0.48542370       4.73342140      -1.13724865       1.43102857       2.04699375
Si       2.74208679       5.68496159      15.53749462      -0.62794085       0.88524631       2.84763775
Si       4.31647326       7.63725772      18.98930026      -2.52146406      -2.14828042       0.03752300
Si       7.29398823       4.42038295      12.35438259       0.82886005      -1.60110570      -5.16495697
Si       5.76475670       2.66515009       8.75824754       0.77907182      -1.32719301      -1.67684202
Si       1.08455075       7.56656875      12.11650051      -1.60308998      -1.49359174       2.07785311
Si       2.46222054       9.35301975       8.52989406       3.16928237      -2.13514992       1.31541501
Si       9.19328205       2.84720683      15.60648428       2.22460698       0.29751353       2.30548391
Si       7.18084163       0.81510403      19.01317104       0.47723373      -0.62740506      -2.24796392
Si       0.48545088       3.19808348       5.79856651      -1.68805908      -2.44500496      -1.07096067
Si       7.22843894       9.65115675      15.14214546       1.01493877       0.62132252      -2.01687926
Si       9.87086143       7.14222056      22.16970838      -0.99892426      -2.03048041      -0.83666082
Si       2.73881249       0.74968165      12.62966632      -0.98082063      -1.65155199      -0.41775021
Si       7.77121880       5.46626519      15.13623789      -0.44383452       3.26315870       0.52499276
Si       4.46800183       2.11703945       5.76832096       0.55518367      -0.85363635       0.13888319
Si       2.22426322       4.68878320      12.81716701      -2.73216430       1.16956590      -2.24716037
Si       5.37456711       7.93625237      21.83130870       3.13177861       1.29429637       0.29052435
O        8.91891951       5.75340446      22.46991525      -1.12777364       1.06986282       0.47878689
O        4.09306084       1.66233218      12.45725167      -1.70566909      -1.45024124       0.96102213
O        1.73371827       4.16952985       5.68974411      -0.24813000       0.41760595      -0.64087786
O        5.92346906       8.72396557      15.20764335       0.30468844       0.69789913      -0.80253303
O        0.80919618       3.91537266      12.43393365       0.43401907      -1.17422870       0.79109563
O        6.67162108       9.08453632      21.88565673      -0.92761615       0.18642376       0.87151905
O        9.09659232       6.36744652      15.13698497       0.93011497       1.46656636       0.24582687
O        3.14731130       1.23274790       5.70213682       0.46321375       0.56858162       0.46060231
O        3.34601889       6.25461594      19.44850128       0.61779280       0.79389554      -1.40895807
O        4.05517992       6.45613484      15.13173902      -0.05136333      -0.44783222      -1.56725616
O        6.81144711       3.87136880       8.47327299       0.42432144       1.07756898       0.43705021
O        6.22309288       3.14654404      12.45359172       2.17616864       1.36375997       0.43598327
O        1.36060988       8.27974773       8.29620996      -2.13919703      -2.11169113       0.31216054
O        2.16756442       8.71205794      12.39137201      -0.45251464      -0.27074613      -0.40338530
O        8.33681313       2.01311594      19.00950738      -0.17416845       0.63249068      -0.54452310
O        8.24875890       1.60715100      15.44895396      -2.42230495      -3.62844507       0.75043749
O        2.80824839       4.52455483      16.78780231       0.10250615       1.68374638      -1.72929616
O        4.78301188       7.23669472      17.50667885       0.73490292       0.93434717       0.21850456
O        6.96572603       5.42821900      11.05870331      -0.57213894      -0.79732102       0.97541646
O        4.75879351       3.00437113       9.92054118      -0.33303470      -0.06919520       1.14255272
O        9.81676833       7.91467035      17.73925479       1.80974966      -1.23343937       2.92445253
O        2.18933874       0.35117603       3.05480489      -0.02474288       0.81888244      -2.02642119
O        0.45504937       2.81888584       9.99933479      -1.11284604       0.15175216      -3.44928456
O        7.64307953       9.43912198      24.67989412      -0.38036260       1.85646357       2.34063049
O        9.29061223       8.34338972      23.01180944      -0.34907946       2.23248032       0.24583832
O        1.33058176       0.99619332      11.85449868       0.06509369       1.68075212       0.07432413
O        0.49132261       1.67367276       5.03150148       1.36563779       0.68345242      -0.22975051
O        8.54492238       9.15094261      15.92965998      -0.42333347      -0.10865152      -0.51075676
O        3.62362768       4.47802735      12.11525651       2.47827917      -2.50320275      -0.03996392
O        5.70933583       6.63467133       8.86224823       1.61377139      -1.36343188       0.29141970
O        6.51257841       6.02866686      16.02988605       3.12826672      -2.36399778      -0.56301632
O        4.29759580       3.46182567      18.70851791       0.37192463       1.20733757       0.49087464
O        8.81438987       3.86885452      12.05633103       0.87923499      -0.73238290       0.51043029
O        6.74086229       1.28933915       9.05457106      -0.72049910       1.45872679       0.11296074
O        1.64077836       6.89196916      15.91538450      -0.23234171      -0.65339468      -0.40439238
O        3.20160316       8.95491695      18.89213687       1.93787237      -0.28793717       1.13092680
O        8.25742747       4.18099168      15.81877967      -0.02284691      -3.60880096       1.45688376
O        5.58523604       1.25783023       4.81853797       1.09223054       0.73480382       1.47850011
O        1.98811055       6.15213627      12.09854417      -1.29696404       2.02536747       0.01619808
O        3.95640156       8.36887668       8.58425876      -2.60678341       2.26996208      -0.36339863
O        7.35139732       5.28864844      13.60653497      -1.16542177       1.90567436       2.17753824
O        4.97914864       2.23975638       7.38600346      -0.49877069       0.35938369      -1.88571999
O        2.13246894       4.68799993      14.45428908       0.00139602      -1.07888960      -1.33349048
O        5.41956784       7.70715437      20.20313760      -0.69956228       0.28927938      -0.89398202
O        0.29707797       2.86435832       7.37131737       0.40434333       0.92219883      -0.50664014
O        7.42485572       0.11699729       6.56513469      -1.04293324      -0.94005099       3.24839594
O        9.87161756       7.43565189      20.54384490       1.18698636      -0.13312221      -1.64223385
O        2.17423430       0.61845005      14.25691340       1.70586908       1.74370755      -1.23523854
80
Lattice="9.77192453 0.01751879 6.90363604 0.24348012 9.76890588 6.90363604 0.01370155 0.0133883 13.86910312" Properties=species:S:1:pos:R:3:forces:R:3 energy=-577.10456668 source_file=vasprun.xml step_index=665 time_fs=79330.0 time_ps=79.33 file_index=39 pbc="T T T"
Na       7.50323421       4.44937132      20.23882383       0.60958614      -0.09850053      -0.09949477
Na       8.15832960       1.89346010      10.57704998       0.16038514      -0.29644951      -0.22264325
Na       5.32978357       3.50015869      16.55124551       0.15260015      -0.05411099       0.10927961
Na       0.74893292       8.44757766      17.63904621       0.03263467       0.18547227      -0.14962167
Na       1.67953103       2.20367519      15.54175752      -0.03060496       0.04230672       0.10418198
Na       6.36555537       0.84514345      13.40705874      -0.20926931      -0.49458691       0.68694888
Na       4.40641431       6.60653040      11.89734298       0.07324429       0.04639245      -0.13753297
Na       2.42452934       5.53156968       7.76737573      -0.07442001       0.55770864       0.01432473
Al       6.97935431       5.28655414       9.26712527       2.05801705       2.15966642       2.14619224
Al       4.71656555       2.81083290      11.70147779      -0.34926108      -0.41916997       1.74970629
Al       3.02947141       4.72498803      18.75669658      -0.76385308       1.18155410       0.79212517
Al       5.34043767       7.08103346      15.92378569      -0.27913954       2.72544489      -0.97068761
Al       0.22871218       2.25733139      11.83894110      -0.90734525      -1.14163649      -1.21669888
Al       7.73294772       9.56939858      23.09075774       0.61535815      -2.12866855      -2.01079213
Al       9.39597253       7.85153254      15.94170672       2.11726421      -0.53520315       1.63377581
Al       1.78030699       0.48335233       4.83303252      -0.83594244      -1.28069704      -1.21818990
Si       2.71710632       5.81057436      15.64649636      -3.50903083       2.08406569      -1.24231991
Si       4.33703634       7.54897595      19.03778051      -0.31386259       0.11727064       1.82543841
Si       7.45378592       4.21350554      12.34308408      -0.66636927       2.02315146      -1.65946778
Si       5.54714408       2.60428584       8.52864934      -0.23200804      -0.71296775       1.78111418
Si       0.70057799       7.37069477      12.15480759       0.45142899       0.02853744       0.21581129
Si       2.37753376       8.86836530       8.67304428       3.13923649       2.27258533       0.89331087
Si       8.95384484       2.41550260      15.60525138       0.54808787      -0.70253864       2.53525906
Si       7.31236594       0.93728199      18.97024288       3.41225401      -1.01717026       3.70651443
Si       0.42898464       3.06070675       5.87436966       1.08740142       1.09078614      -1.78539363
Si       7.22404327       9.55201219      15.03113915      -3.05953770       1.40548558      -1.54913551
Si       9.58803167       6.82879819      22.00454273      -1.70546702       0.55777637       0.97444997
Si       2.71316859       0.44700787      12.81429768      -0.77457795      -2.40829471       1.26239499
Si       7.56425760       5.32893566      15.27796227      -0.92101397      -1.70400591      -1.22567447
Si       4.58330941       2.08042198       5.45296616      -3.89577597       0.28117542       1.99304850
Si       2.17779556       4.69963832      12.71582905      -2.62145813      -0.82867864      -0.01582165
Si       5.32150200       7.98269626      22.10085126      -1.02688625      -1.78021690       0.27028171
O        8.68147710       5.57435780      22.57824034      -0.11501782       0.00607694      -0.96306404
O        4.08249346       1.29202834      12.70494693       0.87408948       1.55230301      -1.71172781
O        1.58802434       4.26904852       6.00994375       1.03132830      -0.96973147      -0.94222615
O        6.23468985       8.30270252      14.90293578      -0.97635362      -1.69076744       1.66058845
O        0.88440088       3.71532516      12.31609513       1.78694603       2.06970710       1.15130335
O        6.07956881       9.36630492      22.35609363       1.22617592       0.58744598       1.17917069
O        8.74542033       6.37468765      15.40957424      -0.74462040      -0.31382107       0.00417409
O        3.21057657       1.12624598       5.51561613       2.40261957       0.86965113      -0.35724610
O        3.80043722       6.13712182      19.56386173      -1.44407940      -2.52337283      -0.09388123
O        3.79157506       6.91807183      15.17023862      -0.23944829      -1.34739797      -0.52893669
O        6.54978159       3.93173223       8.36707019      -0.98668376      -3.01606366      -0.84935164
O        6.49687128       2.86514828      12.48251439      -1.14035104      -0.05420729      -1.35411725
O        1.24244746       7.91633015       8.19491027      -2.32950495      -1.46268921       0.09775078
O        1.56769854       8.68219361      12.45357369       0.37826182       1.68797493       0.39546113
O        8.28831920       2.19893237      19.40051468       0.66332322       0.19312594      -1.25159696
O        7.86893156       1.23854158      15.28023341       0.09078586       0.49091614       0.29546333
O        2.76512492       5.04436412      17.05502285       0.24104173      -0.45557303      -0.56736967
O        4.88023642       7.39862211      17.54341113       0.78182540       1.15155705       1.65696739
O        7.08885341       5.20488809      11.06672038      -1.14778619      -1.12983446      -0.09319808
O        4.75829796       2.87553055      10.00227161       0.23797905      -0.04872707      -2.13939777
O        9.70012015       7.58747210      17.68525270      -0.90193481      -0.14545707      -0.62338544
O        1.87500199       0.14332416       3.03546705       0.15220206      -0.54953860      -0.03668010
O        0.15205501       2.00209167      10.07480966      -1.82804256       1.05347825      -2.40974257
O        8.00725495       9.64481733      24.78046534       0.42194143      -0.09245494      -0.05746951
O        8.89843201       8.21444288      22.57432585      -0.53693273       0.95581921       0.29108503
O        1.26044823       0.92411637      12.33265005      -0.00421107       0.29866627      -0.74110638
O        0.59335662       1.86948108       4.70837819       0.75361111      -0.32349867       1.40592303
O        8.52660819       9.32616649      15.85203454       1.72152557       0.29733503       0.97836611
O        3.59764191       4.10069398      12.22812526       0.74862686       0.46261994      -0.07808894
O        5.96874538       6.64709277       8.95713208      -0.45837891       0.99599372      -0.94483643
O        6.00094473       5.52244782      15.93850961       3.43327441      -1.42180826      -0.49584541
O        4.23746448       3.52425550      18.58125177       1.39235595      -1.89637579      -0.07740149
O        9.00911426       3.88231924      11.97978806      -0.75741362      -0.58615665       0.66224190
O        6.20930319       1.07260364       9.00992994       0.70180650       1.15371515      -1.77915349
O        1.30650338       6.81063026      15.74213748       1.08050878      -0.44408139       0.64615830
O        3.07284269       8.58569115      19.18337425      -0.51671203       2.12520236      -0.84202639
O        8.07007093       3.80787809      15.73970595      -0.26117893       0.31118054       0.92789913
O        5.89658843       1.46442646      18.60007603      -3.18284260       1.41912752      -1.04994762
O        1.81136563       6.15743314      12.00061532       2.06187990      -1.41037228       0.06776972
O        3.77288559       7.84669144       8.94116510      -1.11263731       1.53168819      -0.69124331
O        7.27695464       5.11953253      13.65177211      -0.16947674       0.44046364       1.02266834
O        4.73561519       2.52755416       7.07854467       1.05973360      -0.40195713       0.53210420
O        2.14068223       4.80099408      14.40323578       1.28290605      -0.44412715       0.04337887
O        5.15194277       8.00520975      20.45963020       1.09839205      -0.07992697      -1.20587064
O        9.78867815       2.55815461      14.23437764       0.95331101      -0.03377742      -0.26947953
O        7.22855731       0.13797954       6.55498474      -0.08027827       0.34121305      -0.18361165
O        9.62119644       6.80169215      20.35389929      -0.64255364       0.28219934      -0.22962274
O        2.42147732       0.31107116      14.46609702       0.70278586      -0.55281255       0.35527275
80
Lattice="9.77192453 0.01751879 6.90363604 0.24348012 9.76890588 6.90363604 0.01370155 0.0133883 13.86910312" Properties=species:S:1:pos:R:3:forces:R:3 energy=-576.19874321 source_file=vasprun.xml step_index=445 time_fs=18890.0 time_ps=18.89 file_index=9 pbc="T T T"
Na       7.46974265       0.09474415      10.88757349      -0.31830242      -0.05443282       0.01018417
Na       9.04013126       4.52393238      20.01431147      -0.29451775      -0.00349928       0.32500334
Na       1.23274047       8.80414828      17.26214441       0.64530991       0.26888835       0.89287371
Na       7.31150897       7.42139016      11.88890587      -0.00168773      -0.07956640       0.19782371
Na       1.33259716       2.29126744       2.55390266       0.17953031       0.29601804      -0.28705103
Na       6.01673355       2.02748479      14.75028738       0.31666109      -0.11070418      -0.40895768
Na       1.93640975       6.57166878       6.50047601      -0.15475910      -0.37583658       0.07091717
Na       4.05857325       8.89536113      14.07628185      -0.16697392       0.01746742      -0.20512322
Al       7.26502077       5.32560215       8.94378382      -0.50957106      -0.99509468      -0.17580419
Al       4.92575059       2.91203504      11.47390309       0.40548753      -1.04175822       1.15013286
Al       3.59326171       4.61372474      18.51833508      -1.77116179      -0.63618694      -0.80362879
Al       5.69991909       7.20411759      15.88299142       0.59331595      -1.27802294       0.65808147
Al       0.75568265       2.34987467      11.54785547      -0.15838553       0.52804498       2.02352135
Al       8.27807394       0.04855820      15.87044040      -0.15358671       0.48930722       0.35631350
Al       9.83574264       7.89525567      15.90380570       0.97487673       0.78316050       0.61097286
Al       2.33442328       0.14878121       4.61551636       1.11368023       1.51249823       0.34723377
Si       2.89397151       5.62903076      15.62354147      -1.81351100       1.72294020      -1.68490134
Si       4.80439479       7.75991371      18.79043792       2.50155663      -2.25575828      -0.53315110
Si       7.66952487       4.09668500      12.07766563       0.75659551      -1.51625558      -0.14791810
Si       5.78340723       2.69534247       8.31098288       0.18176079      -4.01348417       0.18445820
Si       1.03000579       7.46754361      12.09543185       2.22325021      -2.48861946       1.95294485
Si       2.91660376       9.12448004       8.40378571       5.51725677       0.92129111       1.06713503
Si       9.83298981       2.81799418      15.42016277      -3.02009034      -1.21570643      -0.45742888
Si       7.98362502       1.08803875      18.99823967      -3.22714021      -1.92596607       1.00016818
Si       0.99923336       3.03500431       5.70200453       0.16330893      -0.61853390      -4.22731169
Si       7.54553188       9.48893306      14.68061718       0.82491476       1.99819030       0.75659388
Si       9.92644640       6.93464810      21.96419933      -1.41926844      -1.04816718       0.70890896
Si       2.98308972       0.42397658      12.47362373      -1.62163942       0.48792333      -1.47284102
Si       7.97221398       5.42203219      14.88680733       3.84323809       1.89083462      -1.62178161
Si       4.87530101       1.76511662       5.59341571      -1.45651897      -0.30469339      -0.31538825
Si       2.59819751       4.77244247      12.55192371       0.32263604       0.75270703      -0.57866135
Si       5.95383015       8.22352854      21.69605043      -0.54517047      -2.91271529       2.55286773
O        8.85353815       5.66263745      22.25407799       1.78291010       1.36228381      -0.66211420
O        4.21190462       1.41147429      12.26038444       0.42769632       0.62529872      -0.89569208
O        1.95199818       4.30829788       5.38429346       0.04030036       0.92448751       0.79798995
O        6.36372010       8.42715621      14.82271832      -1.77558356      -0.95468880      -1.04573454
O        1.36091526       3.76239186      12.37107774      -0.09376933      -0.77893727      -0.22929129
O        6.82041612       9.42626954      22.23080054       2.93731382       2.31512244       0.35607064
O        9.07930043       6.74141864      14.92385893      -1.17751017      -2.17964988      -0.59391480
O        4.03066702       0.36177361       5.21773132       0.43317219       0.93307328       0.37395954
O        4.18471806       6.20240572      18.88992688       0.59619931       1.50749239       0.60760667
O        4.06891258       6.70946805      15.31354470       0.83697057       1.45169226       0.94339085
O        6.73290510       3.93915654       7.83041084      -0.94006986       0.12330420       1.63245382
O        6.56215538       2.86256902      12.35799832       0.37558838       0.93884104      -0.36484082
O        1.71133596       8.26277007       8.12554612      -5.16133004      -4.58949602      -0.75934935
O        2.00508849       8.67885109      12.60912390      -0.48961638      -0.13075392      -0.17820426
O        8.95207818       2.26165226      19.22158396       1.19739884       2.58367035       1.17922384
O        8.58150408       1.67850001      15.24221200       0.65081007      -0.18098513      -0.06573983
O        3.00841244       4.65278343      16.81667098       1.49825539      -1.86264997       1.44180044
O        5.86565389       7.95902935      17.51406652      -1.24394377      -0.57561147       0.18458566
O        7.29808594       4.77982161      10.66113387      -0.26156701       0.91769720      -0.66612231
O        4.95534872       2.51079657       9.77784561       1.42882992       1.30556448      -1.66584463
O        0.22488392       7.73813923      10.79223296      -1.13066481       0.54658611      -1.91712221
O        2.32722997       0.03625391       2.88995802       0.23090387       0.93713975       0.20169424
O        0.76430817       2.59063990       9.92037039       0.48486959       0.52633657      -2.37131739
O        8.46727920       0.36103567      17.68205505      -0.28155123      -2.03927880      -2.95566535
O        9.82966973       8.55286368      22.44238281      -1.78114885      -0.65643861      -0.32291264
O        1.41673570       0.84980348      12.01892563       2.76776275      -1.73925634      -0.31200008
O        1.49237688       1.69826826       4.60886365      -1.41379696       2.12098888       2.85254466
O        8.59521129       9.12808933      15.87441678       1.04771853       0.47491309      -0.28410892
O        4.11627834       4.26863967      12.20542790      -0.90558531       0.28021292      -0.97575107
O        6.54611156       6.83861088      22.42029658      -1.07558413       1.24668437      -0.52839700
O        6.66818746       5.64164247      15.71876980      -1.53461629       0.88168624       0.80939487
O        4.27344619       3.11348660      18.87054921       0.60671713       0.27363472      -1.30957260
O        9.24651831       3.50015417      12.01944328      -0.20091487      -0.54165116       0.52762416
O        6.85802076       1.22247991       8.28298060      -0.62629055       1.54838336       0.05698438
O        1.34342066       6.30374679      16.04616972       1.81161220       1.30859013      -1.29380182
O        3.46164783       8.65416565      18.55513362      -0.75608667       1.99181148       1.47614890
O        8.97766557       4.21130598      15.24396840       0.29363074      -0.76533937       0.75023019
O        6.43626816       1.72980209      19.05185118       1.89463492      -1.07154162      -0.70860184
O        2.05766039       6.14562789      11.75284192       0.15313372       0.40279606       0.74152731
O        4.52759002       8.46399106      22.43825383      -3.19126434       0.37781675      -0.43501184
O        7.73371217       5.28405046      13.22574779      -0.92062337       0.24222560       0.14748484
O        4.71163367       2.05540027       7.18295122       0.34659212       0.43601241       1.78906731
O        2.66151248       4.98611591      14.15136358      -0.36313620      -0.07120745       1.22189862
O        5.85133883       8.14745775      20.09028731      -1.50602577      -0.19148499      -1.97797411
O        1.06011530       2.62858939       7.23716545       0.15317908      -0.34685595       1.24123858
O        8.16363256       9.48803763      13.10635948      -0.44673887       0.62616431       0.64482066
O        9.83895458       6.94515932      20.30368465       1.03187954       0.45062870      -0.76882648
O        2.83845477       0.30797214      14.05487137       0.31314358       0.24148022       1.40031058
80
Lattice="9.77192453 0.01751879 6.90363604 0.24348012 9.76890588 6.90363604 0.01370155 0.0133883 13.86910312" Properties=species:S:1:pos:R:3:forces:R:3 energy=-576.15553489 source_file=vasprun.xml step_index=805 time_fs=75610.0 time_ps=75.61 file_index=37 pbc="T T T"
Na       8.18443107       4.63043332      20.16592472       0.20253209      -0.67723474      -0.53178500
Na       8.57099059       1.16367874      10.68938397      -0.00855516      -0.16777361      -0.38023803
Na       6.26952475       3.31307300      16.91291608      -0.25744809       0.10241767       0.28465136
Na       8.79206814       7.80271253      12.64488125       0.06269595      -0.26400069      -0.00795853
Na       2.42612327       2.50157812      14.71607377      -0.24696647      -0.82202797       0.27212319
Na       6.12819087       0.98380563      13.39753240      -0.03037994      -0.42120033       0.41639464
Na       3.82578940       8.89050532      14.25006204      -0.38536798      -0.17389980      -0.14438917
Na       3.49677186       4.93971850       8.45792556      -0.17806257       0.39664541      -0.20298878
Al       7.13416847       5.33387305       8.91245672      -2.12482300      -1.28974224       2.21974402
Al       4.59530910       2.96294864      11.59828238       2.10025028      -2.26008666      -0.38031682
Al       2.95951525       4.80779795      18.74028671      -0.63253617      -1.56002387       1.50060282
Al       5.43019691       6.91966989      16.35079567      -0.88220355       1.04169718      -1.84945254
Al       0.26020353       2.26514508      11.71689957       3.39298279      -1.42252265      -2.44181960
Al       7.52990809       9.48869599      23.07432399       2.00642924       1.17622363       0.95055558
Al       9.32454858       7.74982911      15.77487103      -0.43931939      -1.24478547       3.32000952
Al       1.99405789       0.34734562       4.52973486       0.87233062      -0.25805887      -0.42134646
Si       2.35987487       5.85582824      15.81399813      -0.00678837       0.87390388       1.44184210
Si       4.37173230       7.37313459      19.17281706      -0.27462894       0.66469333       1.47575580
Si       7.50107241       4.15272325      11.94313069      -2.46952170       0.28806277       1.50397565
Si       5.43094803       2.58187284       8.63093341       0.39913557       0.47121513       0.21687988
Si       0.89199244       7.31711847      12.00398045      -1.38656058       0.97914622      -3.97502234
Si       2.31373202       8.97817647       8.33539233      -0.31914541       1.84527682       0.42755405
Si       8.98216468       2.45108427      15.34272346      -1.91921966       1.25128399       3.90969666
Si       7.42931030       0.94358044      19.24031786      -1.39285114       0.60049047      -1.23599234
Si       0.45916203       2.97076333       5.57457072       0.44887757       2.32647603       1.31855205
Si       6.90494591       9.59215676      15.22616770       4.08200382      -0.50376776       0.24868465
Si       9.51474202       7.12894975      21.75656221      -0.50240504       3.24207033       1.42502501
Si       2.94577930       0.28914599      12.46450265      -3.07126216      -0.09546073      -0.74634487
Si       7.61159753       5.26726155      14.80933770       2.17478119       0.75698164       0.71457877
Si       4.52342148       2.11492279       5.72602985      -1.73347244       0.67441684      -5.83262235
Si       2.20728704       4.65209695      12.81795444      -1.05568610      -1.10474561       0.76912948
Si       5.09050741       7.80954018      22.19689085      -0.77088114       2.06366931      -2.56211462
O        8.61601002       5.79965968      21.98835831      -0.06186079      -0.90391339      -0.03680731
O        4.10452441       1.28582528      11.97460637       1.43986502       0.12531506       0.66872760
O        1.50299664       4.20374943       5.90695432       0.42548483      -1.07645116      -1.56209794
O        5.90128172       8.41435640      15.32685219      -2.31879904      -2.12132658       0.34575637
O        0.98890660       3.57189406      12.57627801       0.69610781       1.93168348       0.48136934
O        5.89789460       9.17706183      22.64579941      -1.07646240      -0.75899258       0.61767553
O        8.84133601       6.33437170      14.92577594      -0.53581538       0.28281174      -0.31976106
O        3.46164938       0.84128941       5.40534778       1.40168679       1.10918231       0.41483688
O        3.39009693       6.17032911      19.78133806       1.42128417      -0.16140960      -1.36602923
O        3.70165395       6.83359931      15.77183282       0.42438823      -1.08644431      -0.27055452
O        6.54314694       3.68873150       8.21526806       0.75762296       1.06435979      -0.11252576
O        6.35853866       2.92194710      12.25018986       0.30110306       0.90758763      -0.68055135
O        0.85138994       8.35116002       8.06359313       2.63100186       1.27479914      -1.80275014
O        1.71352669       8.67833257      12.29824507       1.00870679       0.15827637      -0.82618770
O        8.58015918       2.10860794      19.43466518      -2.53841717      -1.29690269       0.65576990
O        7.79264918       1.33259019      15.42623303      -0.76188173      -1.39740821       0.00918146
O        2.24655306       4.96481171      17.19805234       0.06294870       1.05329989      -2.05897911
O        5.57224235       7.00647164      18.05250147      -1.77546124       0.48443834       1.77759754
O        7.14071576       5.03411555      10.71555552      -0.93489540       1.92355874      -3.54948245
O        4.53346087       3.15022540       9.87503011      -0.01639790      -0.08761141      -1.34883184
O        9.80337631       7.19033839      17.42243306       1.32608774       0.67785085       2.30792972
O        2.11569045       0.24728168       2.73336659      -0.36262738      -0.40433023       0.45609236
O        9.71402560       2.55984374      16.83304509       0.26373224      -0.48269065      -0.15296932
O        7.84514553       9.53534134      24.97818735       0.05375669       1.00814847      -0.56544156
O        8.55149063       8.42619976      22.19061000       1.26697993      -1.71440284       0.34462382
O        1.51349312       0.97176647      12.13574146      -1.60772050       0.93504900      -1.45308969
O        0.84549694       1.56718927       4.97055098      -0.42806937      -0.35001274      -1.51683937
O        8.31253036       9.16255560      16.06183824      -1.71251886       0.88634629      -0.85344384
O        3.64650170       4.01103867      12.43652042      -1.72644357       2.07904148       1.45175827
O        5.66657775       6.36124234       8.63770182       0.90953678      -1.17679608       0.81289120
O        6.44421314       5.64552993      15.80612017      -1.82187680       0.33186550       0.42471995
O        4.31154284       3.55650407      18.51233110      -1.13028791      -1.16235133       2.39707373
O        8.91025779       3.55133893      11.43301964       2.58645619      -1.97882448       2.46303331
O        6.16135612       1.14404192       9.08821049      -0.95520815       2.01426419      -0.19240056
O        1.19651103       7.12419024      15.80561497      -1.54074122      -1.67316194      -2.21660290
O        3.21029714       8.53515951      18.68947924       1.86848502      -0.01447659       0.36096976
O        7.89650575       3.79692760      15.40089878       1.40085414      -1.46507598      -0.56006088
O        6.01827911       1.86787025      18.94823488       1.73717157      -1.14056950       0.25089257
O        1.89139792       6.02843246      11.98840077       0.92688625      -0.93412903       1.23652326
O        3.40302715       7.80119268       8.45613060       1.49417755      -1.37611801       1.67723306
O        7.43689040       5.29004034      13.21067091      -0.28258488      -1.56813711      -2.05166463
O        4.43797941       2.34726198       7.27480941       0.62646834       0.45833534       3.39095489
O        2.13832494       4.66012682      14.62123991       0.51957028       2.05383906      -1.70119934
O        5.11206885       8.04194737      20.54069556       0.56359114      -0.28468611      -1.83186739
O        0.11783655       2.52587433       7.15630119      -0.24160859      -0.03225384      -1.11992817
O        7.06381325       0.08619933       6.71165223      -0.03266482      -0.47204042       1.44428781
O        9.62420813       7.41583990      20.12831099      -0.60145384      -1.81645370       1.62227914
O        2.68438756       0.23485864      14.10563705       0.72427487      -0.31763279       0.81496582
80
Lattice="9.77192453 0.01751879 6.90363604 0.24348012 9.76890588 6.90363604 0.01370155 0.0133883 13.86910312" Properties=species:S:1:pos:R:3:forces:R:3 energy=-575.64407934 source_file=vasprun.xml step_index=985 time_fs=13970.0 time_ps=13.97 file_index=6 pbc="T T T"
Na       5.82278756       5.25061397      20.00972178       0.13585775      -0.04101195       0.41491997
Na       9.18742736       0.77474700      10.54078181      -0.19964286       0.09840270       0.05179841
Na       1.94404395       8.92571749      16.82937491      -0.25044444       0.63871552       0.12066288
Na       7.45557803       7.31039537      11.63978814       0.24147437       0.97759777       0.52045251
Na       9.21612385       3.08923284      21.00555218      -0.18048440       0.61984868       0.66843600
Na       6.64033518       1.21350381      13.46803537      -0.51896528       0.84372860      -0.60877597
Na       1.94378785       6.82805399       6.66410070      -0.36738091      -0.45981489       0.00895299
Na       4.25223033       8.83031132      13.42642026       0.28888143      -0.38947784       0.55677954
Al       7.65551217       5.54062167      22.88208375      -1.72148880      -0.84684134      -1.07615066
Al       4.88956862       3.01005490      11.46076662       2.20560786      -2.68108192      -1.02288129
Al       3.39062817       4.70707725      18.27375202      -2.90101517       0.60053531      -0.11918416
Al       5.60739893       7.22673683      15.82558951       1.44511771       0.95342917       0.82155882
Al       0.80254950       2.48698274      11.56500623      -0.30965100      -1.81793086      -0.66658354
Al       8.00763821       0.04638089      15.79100027      -1.76904983      -5.87997683       2.61851666
Al       0.39843521       8.11754898       8.84283803      -0.72649111      -0.71236066       1.85196042
Al       2.38591639       0.64379352       4.61401147       0.70378512      -0.26252145       0.92927375
Si       3.02186385       5.96149827      15.26117212      -1.82239718      -2.38658079      -1.06085945
Si       4.41427118       7.56328956      18.71196276      -2.91005498      -0.22466164       5.35061518
Si       7.71099695       4.44450765      11.98382642       0.21909419      -0.74649421       2.35015358
Si       6.17508581       2.77265984       8.48275722       2.62186992      -0.06620848       0.15502733
Si       1.40674604       7.50766801      12.02066429      -2.55561829       3.61045318      -2.01380332
Si       3.16078305       9.56666024      22.31711359       1.29457675      -1.00676277      -0.94844555
Si       9.41627967       2.81925005      15.55186166       1.95871679       1.59920321      -1.33197210
Si       7.82393979       0.70296872      19.08593884      -1.97047039       1.95459287      -0.44448891
Si       0.83828166       3.15304085       5.75873576      -2.49718223       3.84571768      -1.59300210
Si       7.37461941       9.54359594      14.92442255      -0.01618612       0.55368626       0.58444355
Si       0.27649764       7.16961264      14.94881468       1.21616247      -0.34174398      -0.66319607
Si       3.27925100       0.62686246      12.34010379       0.22392092      -2.42649390       2.07134786
Si       8.44853348       5.70959595      14.85675073      -3.97456703      -1.26320549      -0.79532979
Si       4.93544651       2.15953017       5.72336724      -1.10921454       2.60218216       0.79717142
Si       2.34158289       4.71271912      12.47674482       3.18684369       1.03971550       0.37899160
Si       5.86556423       7.97848352      21.64206518      -3.77522793       2.36420067      -2.38827826
O        9.20544517       5.92538805      22.34268162       1.12876719      -0.25598698      -0.34861809
O        4.68444999       1.15535390      11.86917417       2.31303628       1.79117742       0.20301412
O        1.70113466       4.38274178       5.13491133       0.80295250       0.01866813       0.42030118
O        5.77201216       8.92080793      15.15948956       3.04491124       0.84922565      -0.37914200
O        1.03842975       3.86351133      12.55870245      -2.88360085      -1.41483913      -1.24138303
O        6.77250031       9.30338629      21.65211036       2.91793412       0.76004342       1.28743997
O        9.68785201       6.62075969      15.10968164       2.07769003      -0.33903838      -0.62476110
O        3.75755469       1.07886597       5.66577808      -0.03778106      -0.05789400      -0.59614246
O        3.57111721       6.21282492      19.24915478       1.11079725       0.11610819      -2.07318904
O        4.37340835       6.59997755      14.77588294       1.12722124       1.42775518      -0.69309010
O        7.24522397       4.00843331       8.17032443      -0.38187898       0.12799954       0.12509742
O        6.25724754       3.75959984      12.21885651       1.09892957      -0.40759436       1.25238991
O        1.80316014       8.65349831       8.02472744       0.85302026       0.78402636       0.21754084
O        2.39914614       8.78431221      12.28477641      -0.39776286       0.36898495       0.10729506
O        9.08047616       1.74641137      19.30292963       0.12874234      -0.78284858      -0.62269945
O        8.46331737       1.52456822      15.47419569       0.81900625       3.65191613      -1.86676761
O        3.31153758       5.05274211      16.52531749       0.03560554      -0.24754038       2.28895916
O        5.42119994       7.63953099      17.60674756       2.12581005      -1.07416311      -5.67867850
O        7.54836719       5.38447030      10.72871874      -0.10685342       1.20850704      -1.87321123
O        5.37320874       2.87863009       9.81086518      -0.03565164       0.00221300       0.68737508
O        0.56141380       8.13550560      10.58071406       1.53900477      -1.14122917       3.10447808
O        2.87037594       0.58332704       2.95038234      -0.88979584      -0.05074842      -0.79165212
O        0.73443877       2.63591875       9.83561131      -1.59389962       0.55419458       0.03402984
O        8.01476860       9.69920950      24.58338761       0.21008229      -0.53438416      -1.52535383
O        9.45629696       8.47031885      22.58702055      -0.53357618       1.98381622       0.02288746
O        2.18758933       1.39559416      11.56484668      -2.82391485       0.79469094      -0.37018640
O        1.21775631       1.91780653       4.92581460       0.55565923      -4.51711048      -1.87856387
O        8.65101345       8.93900658      15.83686159      -2.63682199       2.23610438      -1.59295330
O        3.57031303       3.90375285      11.69344910      -4.23323966       3.00289203       1.81421527
O        6.40467668       6.60441658      22.09521580       1.66437817      -2.07658217       1.90940775
O        7.08457404       6.36329406      15.62829898       1.71336457      -0.87988866      -1.46398846
O        4.59996356       3.62654061      18.78222409       1.06917349      -1.93029683       0.88049904
O        8.93299149       3.41233881      12.01851499       1.72676120      -2.32003896      -0.11702862
O        7.33947978       1.52202683       8.31781089      -0.90215241      -2.44462116       0.05915274
O        1.91630329       7.20844605      15.44011808      -0.63495263      -0.66310545       0.10683823
O        3.22126503       8.74409613      18.66591626       0.85290174       0.90933694       0.85994097
O        8.42203988       4.12690252      15.36337103       0.80351734      -0.20817898       0.85537362
O        6.37987855       1.66854631      19.19911078       3.14357616      -1.42943634      -1.15601174
O        2.25280850       6.22158018      11.72560095       0.98896287      -2.81224048       0.00304719
O        4.49518195       8.57351100      22.40252337      -0.12351016      -1.05769961       0.25804824
O        8.39117616       5.47211085      13.11979886      -1.36012973       1.83265326       2.12468605
O        5.12959632       2.58919887       7.33403194      -1.91434208       0.00835055      -2.56796266
O        2.37304607       4.87257827      14.13738717       1.60077361       1.82390420       0.32377471
O        5.39170339       7.65040777      20.03002167       1.00541616       1.00449599       1.95142177
O        0.75159375       3.00654706       7.33944277      -0.97346345      -0.63267114       1.36895224
O        7.72218569       9.27361772      13.24521335       0.31465209       0.31972646       1.31012814
O        0.38751888       7.17010052      13.30431631      -0.00002220       0.67764536      -0.67413076
O        3.24484941       0.66695017      14.04015891      -0.52340327       0.31034133      -0.93157804
80
Lattice="9.77192453 0.01751879 6.90363604 0.24348012 9.76890588 6.90363604 0.01370155 0.0133883 13.86910312" Properties=species:S:1:pos:R:3:forces:R:3 energy=-575.43302008 source_file=vasprun.xml step_index=970 time_fs=23940.0 time_ps=23.94 file_index=11 pbc="T T T"
Na       9.08482768       0.75939006      10.41944378       0.25192304      -0.00551027       0.30755703
Na       6.31513186       3.52702896      17.26382739      -0.08353738       0.45928557      -0.01921302
Na       8.32060023       7.23909278      11.71978030      -0.39831510       0.22826893       0.08073157
Na       2.24858860       8.73825356      16.86891985      -1.03054524      -0.04334960      -1.46960434
Na       9.01521084       3.63170793      21.04905446      -0.24615300       0.20474916       0.21466249
Na       5.86613607       1.64032665      14.10392141       0.13961708       0.28597679      -0.43196603
Na       1.75079806       5.93905262       7.45013006       0.19894271      -0.34123299      -0.33836225
Na       4.41719541       8.88578289      13.28666703       0.14529525      -1.66515365       0.82809852
Al       7.32637605       5.53671117       9.13049467      -1.30906014       1.94358995       0.50446369
Al       4.56749631       2.95987847      11.53302225      -1.55150404      -1.36479706       2.41690574
Al       3.06954107       4.66688582      18.50529771      -1.50624341       1.64521848      -0.63915283
Al       5.36477258       7.21686264      16.10179563      -0.17149241      -1.49337342      -0.58622748
Al       0.37338533       2.28413514      11.74657243      -1.16461804      -6.84819633      -3.71808183
Al       8.10791582       9.70778575      23.01951948      -0.15764380      -2.65585938       0.59275252
Al       9.56362742       7.81943377      15.95950245      -0.35480699      -1.09302127      -1.04503085
Al       2.38145867       0.33606566       4.65535610      -1.24966502       2.55997544      -0.18830394
Si       2.72547922       5.68599244      15.42095914      -1.02156849       0.27900108      -1.04670260
Si       4.39151042       7.41343433      19.13245142      -0.20865074      -0.03908175       0.28449939
Si       7.48653110       4.15888957      12.18218212      -0.15364182       2.07145368      -0.42745867
Si       5.85176928       2.68224612       8.59282419      -1.81122270      -0.33451677       0.35964560
Si       1.01119511       7.58937382      12.06996641      -0.56999261       0.91876594      -0.40009564
Si       2.52120206       9.11900585       8.50944223       1.02065571       0.45052913       1.44675607
Si       9.09414877       2.51369166      15.52192648      -0.68471710       0.48793448      -1.96253184
Si       7.67545565       0.76522179      19.14873550      -3.01037732      -0.89257916       3.06068720
Si       0.61468513       2.96592943       5.83369263      -1.79924893      -3.95494681      -0.01782723
Si       7.02432474       9.46184833      14.77179831      -0.75901442       0.09220453      -0.44511578
Si       9.62668557       7.26274616      21.68411190       1.58169302      -3.09785799       1.81181618
Si       2.84878413       0.35202045      12.56801122       0.35367315       3.31977210       0.40199654
Si       7.86183783       5.45002612      14.90550093      -3.60777628      -4.17025711       2.76558496
Si       4.72339764       2.29492266       5.90281442       1.70538997       0.94376921      -3.74931844
Si       2.02235955       4.60331883      12.58694399       1.86951150       1.12689081       1.55555620
Si       5.53289808       8.28649233      22.08421375       1.06216686      -2.35758316       0.44493214
O        8.57002175       6.02047148      21.86576742       0.70710130      -0.98480946       0.15610917
O        4.06743392       1.46426466      12.64564489       1.07554020      -0.06593604      -1.29091907
O        1.45749588       4.24460743       5.51022394       1.69674977       1.62341767      -0.77706049
O        5.58596322       8.84589247      15.29916089       0.71479332      -0.29838842      -0.11809487
O        0.82090101       3.56189459      12.46705902       0.85511877       6.34616486       3.12095434
O        6.48769142       9.67259833      22.32561925      -2.39227060      -1.85325207      -0.60596024
O        9.17103872       6.17020608      15.20002503       4.04821055       2.76583339       1.54457944
O        3.94615791       0.96220602       5.46707016      -1.77440461      -0.79206770      -0.09692529
O        3.48426379       6.14053010      19.49593454      -1.78536669      -1.02311929       0.03721832
O        3.80861657       6.84521674      15.18999753       3.04934383       0.69019548       0.60843541
O        6.75790786       3.99149670       8.63230421       0.68491111      -0.78816428      -0.49860997
O        6.09733846       3.30860431      12.23369646       1.87142243       0.94983571       0.93659239
O        1.30552331       8.04753873       8.15557819       0.54892630       0.64108100       0.52170297
O        2.28825061       8.60800152      12.38175165      -0.56111478      -0.04513804      -0.17751486
O        8.94247649       1.51977882      19.66538336       0.85423122       0.96297220       1.11618977
O        8.42953600       1.09670398      15.09275128       0.75258479       2.45736944      -0.71208583
O        3.03112642       4.75171404      16.67313249      -0.45433049       0.22886118       2.39486146
O        5.17860812       6.95020549      17.84188314       0.91748327       0.99008399      -1.71152554
O        7.69215547       5.15563531      10.83797049       0.16154484      -0.48963844       0.85903150
O        4.89565112       2.50349562       9.97081773       1.89076293      -0.85369735      -4.36280429
O        9.95168279       8.15267764      17.60357621       0.90215314      -0.95290718       1.71574980
O        2.04065952       0.36881739       2.91984697       0.38891128      -1.61006851      -1.08290289
O        9.41003647       2.58027780      17.08051597       0.68560537       0.04510580       0.41708524
O        8.17134711       9.72591140      24.76710639       0.09444230      -1.07695996      -2.89518982
O        9.26153847       8.38163357      22.72968324      -0.22281950       1.13406144       0.81853890
O        1.67531347       1.10684160      11.77070742      -0.59015840      -0.82716583      -1.09393219
O        1.02688848       1.55723072       4.95747868       0.24568756       1.39191811       1.39633082
O        8.18581937       8.86858248      15.64944423       1.99589197      -0.42615457       1.39146427
O        3.32011201       4.10942251      11.81108203       0.22423806       0.09560349      -0.61244580
O        6.27531869       7.09693785      22.98124169       0.41016746      -0.54695228      -0.54907512
O        6.62580460       5.88579029      15.87135438      -0.59192580       1.10865436      -0.32966863
O        4.21535381       3.47213592      18.68318911       2.34726537      -2.33990598       1.09183314
O        8.72212083       3.09101484      12.40024805       0.09973156       0.82821024      -0.63140049
O        6.82309783       1.35552387       7.98641922      -1.39955462       1.24597972       1.71740534
O        1.47133092       6.73401874      15.29508017      -3.63469662       1.55014233       0.34622515
O        3.33137392       8.71912849      18.57672776       1.80551802      -0.64023812       2.98913924
O        7.88744140       3.67307773      15.27220384       0.46611976       1.44857356      -0.08069852
O        6.41047734       1.81392265      19.24480561      -1.95622451       1.32681047      -0.31949973
O        1.73592062       6.15136523      12.09097322      -0.49148908      -0.98139966      -0.69304898
O        3.98345638       8.27644881       8.84565592      -1.09401282       1.16801681      -0.90920277
O        7.53348579       5.49465674      13.37576845      -0.48208393      -1.57218485      -4.05560463
O        4.78168623       3.07896124       7.30350832       0.48282312      -1.61358555       1.26949401
O        2.32236309       4.65286311      14.23391924       0.16816642      -0.69604506      -1.51357851
O        5.36663852       7.66131741      20.43141593       0.00143197       2.16672403       1.46633527
O        0.52026787       2.65990256       7.47049243       0.68931153       0.83497269       0.51112439
O        7.37069062       9.08029299      13.17238873      -0.00254052       1.97936639       0.13258917
O        9.56432065       7.52168243      20.10839903       1.12188049       1.14747504      -1.35572665
O        2.49103101       0.35514008      14.20006687      -0.01371161      -1.29401962      -0.69419503
80
Lattice="9.77192453 0.01751879 6.90363604 0.24348012 9.76890588 6.90363604 0.01370155 0.0133883 13.86910312" Properties=species:S:1:pos:R:3:forces:R:3 energy=-577.03941232 source_file=vasprun.xml step_index=545 time_fs=55090.0 time_ps=55.09 file_index=27 pbc="T T T"
Na       7.44564451       6.66096265      18.14884784       0.19346770       0.05462820       0.01466972
Na       8.34806341       3.74669577      20.78156262       0.33259412      -0.57110321      -0.19855005
Na       0.69119196       6.18174602       6.00978571       0.11444762      -0.14299947       0.26296771
Na       4.77206306       8.20978850      12.93050276      -0.17316655       0.54735844       0.52749610
Na       4.18749011       1.62645072      15.80319216       0.05767030       0.56353608       0.39285043
Na       6.40690620       0.81355473      13.28180561       0.70773626       0.08312704      -0.01833717
Na       2.37635401       0.83999591       9.38506804       0.11047380       0.14083329      -0.44916801
Na       3.59125835       5.75223495      10.07428325      -0.27387547      -0.24377034      -0.02938932
Al       6.94073944       5.33900513       9.07622974       1.29121928      -2.46355434      -0.61905143
Al       4.35758669       2.87955763      11.45016357       2.83276590      -2.58185389      -0.64623029
Al       2.73891318       4.43073889      18.33956031      -1.21829668      -0.53893656      -0.23449209
Al       5.13549568       6.71262095      16.04328175       0.39539972       1.17312675      -1.88770357
Al       0.38534312       1.91287371      11.42287085      -0.84372456      -0.47557739       1.69535090
Al       7.73991591       9.26092643      22.85890420       0.04845337       1.77926860       0.39626057
Al       9.50402180       7.79339307      15.74794898       0.09612896       3.31181749      -0.04121916
Al       2.08897853       0.29171724       4.53953511       0.24275410       1.09638807       2.91117220
Si       2.20783731       5.49620219      15.39069626       3.23921705       0.00317542      -2.33859157
Si       4.22532660       7.11085752      18.96523792      -1.99568890      -0.41552943       3.98419117
Si       7.32717064       4.14194111      12.01792329      -1.15499100      -0.14221369      -4.22948917
Si       5.27030011       2.65731274       8.50482120       2.51124494      -1.70389854      -2.52570564
Si       0.97914590       7.34320980      11.92082134      -1.26278719       2.00613811       1.33535255
Si       2.59684660       9.17983728       8.50682958      -0.11072641      -0.14263022      -1.74855966
Si       9.20161795       2.15265190      15.20961072       0.78661344       1.83678303      -0.64206841
Si       7.32277537       0.58371626      18.95414456      -0.76152169       0.18301245       1.37814226
Si       0.33652159       2.63178688       5.53630046      -0.27908426      -0.24069333      -0.26654393
Si       6.77874252       9.51439697      15.06745715       0.97595990      -1.42899414      -0.02660126
Si       9.54870139       6.91440316      21.86443675      -3.04851522      -1.52584807      -2.74868214
Si       3.15454266       0.43015031      12.54675470      -0.67713038      -0.99676860       1.26046897
Si       7.74002319       5.21758865      14.80824354       3.30200717       0.36325788       2.42657980
Si       4.53796278       1.98743199       5.40590647       1.29500340       1.24346725       0.99343168
Si       1.77458280       4.40268125      12.47892123      -0.87479155       1.24095398      -1.19435253
Si       5.18904494       7.59236682      21.82919489       2.74268253       0.66442120      -1.38133751
O        8.41395596       5.62320151      21.98108462       1.19771137       2.07941311      -0.26554695
O        4.47491463       1.36881237      12.48027463      -0.40464866      -0.28535090      -0.94023467
O        1.24353325       3.95319348       5.38243537       0.50980212       0.65855450      -0.60138537
O        5.69500638       8.32259059      15.37716110      -1.02967321      -1.14001269      -0.06682797
O        0.43101951       3.61956296      11.93181271       0.54272789       0.06703133       0.76331924
O        6.26291690       8.88894028      21.93295960      -0.94238285      -0.34638101       0.64070155
O        9.08355198       6.34609002      14.99324820      -1.96190002      -2.06991164      -1.74668769
O        3.58498343       0.71882687       5.56164816      -0.84563817      -1.28634676      -0.90589328
O        3.06388124       5.90382299      19.40233497       1.35757116       1.54892367      -1.86718155
O        3.69192448       6.22158335      15.16239827      -0.12969551      -0.03663503       0.18883707
O        6.60397955       3.63485620       8.34881527      -1.37675231       1.00397874       1.18327015
O        5.94794982       3.36998748      11.76914680      -0.10782359      -0.25616953       0.53114835
O        1.17059543       8.63802090       8.11096900      -1.17297176      -1.18035509       0.33394746
O        1.97595440       8.62526368      12.33634844      -0.75100328      -2.66110594      -0.68122801
O        8.82368735       1.20103461      19.48817440      -1.07996925       0.38855369      -2.20605181
O        7.98229004       1.10294279      15.08737181      -1.26719473      -0.76308888       0.15785949
O        2.16940667       4.54834452      16.58072410       1.10445362      -2.31358820       4.64961344
O        5.12245996       6.66736704      17.77888510       0.60470773      -0.10988724      -1.66401428
O        7.49344752       5.03260704      10.65184116       0.38315819       0.60955991       1.90846181
O        4.17814029       2.78209542       9.67769168      -0.49976528       0.38961158      -0.06767294
O        9.95096547       7.65074344      17.41325191       0.17297468      -0.83597927       2.04600040
O        2.58911685       0.28400823       2.93631933       0.78301704      -0.68918783      -1.92072999
O        0.20180191       1.72024913       9.71529277      -0.13333672       0.61516004      -0.84840241
O        7.73388579       9.24143774      24.65177164      -0.58515969       1.06461156       0.19195796
O        9.01826137       8.23826728      22.51889428       0.34120417      -0.06062562      -0.32507940
O        2.00133604       1.16166610      11.68822242      -0.75021441      -0.14556620      -0.08538549
O        0.72871693       1.31876167       4.69789198      -0.40690661       0.85456019      -0.80544268
O        8.23619154       9.07826823      15.73747805      -1.02060444      -0.08507052      -0.88407571
O        3.10196029       3.81347005      11.82523879      -1.89448736       2.00717052       0.88125749
O        5.54842482       6.36425885       8.96106595      -0.05228126      -0.00921685       0.18519903
O        6.59761595       5.77167582      15.85812011       1.36341388      -1.55734586      -0.81563511
O        3.88649440       3.10967883      18.29823257       0.05955293       0.44397425      -0.45960589
O        8.52205158       3.12917068      12.18185465       2.20296410      -1.93501394       0.48551349
O        5.86700516       1.07840308       8.73597818      -0.47220628       1.95925562       0.72519701
O        1.15497785       6.62740681      15.69277705      -0.32402332       1.30174231      -0.04568055
O        3.46879637       8.62309417      18.80426790       0.85749297      -0.03478147       0.63363356
O        8.71037607       3.82682616      15.03515230      -0.90801657      -1.23693107       1.16797942
O        6.04182235       1.65660296      18.47875329       0.47278205      -0.21035759       0.73729771
O        1.80899868       5.97698749      11.82316988       1.24403024      -1.69685660      -0.49181836
O        3.67669067       7.90899911       8.38355845      -1.19872757       0.09912624       0.81816017
O        7.14644752       4.94858405      13.35015109      -0.55903743       2.49735930       1.53081519
O        4.66234028       2.70210669       6.93609641      -0.00738779      -0.51027416       0.07049797
O        1.85784304       4.53394907      14.07706548      -0.31361833       0.28854008       0.37813601
O        5.43227281       7.15374692      20.21246980      -1.82240345       0.48384593       0.08632377
O        0.59530922       2.05122990       7.05948123      -1.78706450      -0.02158494       2.49474369
O        6.68554335       9.75635366      13.38739271       1.63603572      -0.59872294      -0.85137964
O        9.69315913       6.97440379      20.12351563       0.27861702       0.70969497       0.28730737
O        2.92710690       0.38141626      14.22812763       0.06305376       0.31207211      -0.92313672
80
Lattice="9.77192453 0.01751879 6.90363604 0.24348012 9.76890588 6.90363604 0.01370155 0.0133883 13.86910312" Properties=species:S:1:pos:R:3:forces:R:3 energy=-576.32596672 source_file=vasprun.xml step_index=960 time_fs=69920.0 time_ps=69.92 file_index=34 pbc="T T T"
Na       8.05599980       4.30994502      20.06309202       0.13450690       0.02060792       0.30959619
Na       8.38795695       0.88170214      10.80744770       0.02864875       0.38889139      -0.11419791
Na       2.44127497       1.73691368       8.73930234      -0.08891111       0.37980470       0.04080437
Na       3.65952308       8.02806622      12.90638999       0.22908073      -0.30739025       0.38841882
Na       3.36917513       2.88975184      15.71182366      -0.24523138      -0.39886749       0.02732511
Na       6.02763111       1.01966822      13.64952992       0.06556947       0.47207976      -0.26532849
Na       0.88893249       7.98678085      18.45078664      -0.19433278       0.05663221      -0.55272468
Na       2.49324531       5.81287725       7.29216046      -0.31225679       0.23566813       0.85051731
Al       6.94712642       5.35928466       8.91264926       1.02329629      -0.25984835       1.33012237
Al       4.45869956       3.09429157      11.55733777       1.55725328      -2.09667895      -1.84508890
Al       2.83522678       4.51543997      18.46078306       1.33896636       0.67085319      -0.71135186
Al       5.45279319       7.14511310      15.93444829      -1.14300952      -2.23584543      -3.35962144
Al       0.34989552       2.09687665      11.56769984      -1.51829556       1.70277570      -1.09076288
Al       7.85296629       9.73917391      23.08955522      -0.15240736      -3.84599641       2.05559407
Al       9.65774375       7.76583740      16.10412079      -1.54234081      -0.03530951       0.22191507
Al       1.91341696       0.36402595       4.47188074       0.44265893       0.38233012       1.27416528
Si       2.58552165       5.81119583      15.50835794       0.21395188       1.73947610       2.20503230
Si       4.48793861       7.27264279      18.92491882      -2.60808609       0.76542352       3.18068453
Si       7.34521670       4.15202317      11.94112430      -0.33378950      -0.07243164       0.66307773
Si       5.57584911       2.60565592       8.46547885      -0.29950990       2.56897929       1.32004517
Si       0.49362516       7.35583885      12.21039460       1.52317388       1.33289649      -1.67865811
Si       2.54266593       9.24802242       8.48471922       2.34595761      -0.13341662      -1.58013390
Si       9.07359032       2.55606040      15.45349005       1.71327181       2.81443298      -0.58469906
Si       7.38968797       1.04548978      19.16667564      -0.64100220       2.91168331       0.33623579
Si       0.34294502       3.01748111       5.53428643      -0.61863026       1.45000101       2.18413494
Si       7.21582185       9.62295768      15.15757341      -1.05553390      -0.00810546      -0.77089836
Si       9.53835269       6.96571039      22.36579808      -0.62592831       0.91450425      -1.78339511
Si       2.80696233       0.30669298      12.45102803      -0.68159459       3.33894814       1.35176100
Si       7.82994763       5.46283349      14.81313246       1.64373492      -3.52391343      -1.11530627
Si       4.29684718       1.77047720       5.66827981       1.63314077       1.66296619       0.80434645
Si       1.89779624       4.66537874      12.61845188       2.56062731      -3.05786034       0.68533400
Si       5.41563894       8.03607398      21.80999097       0.28653948      -1.48522728       4.00287942
O        8.73247592       5.55806452      22.07130955      -1.03798642       0.87084334       0.85360604
O        4.00786802       1.33759596      12.12538864       0.96080549       0.71789345      -0.10790505
O        1.25644730       4.37392432       5.26672400      -1.45786513      -0.44755880       0.73147774
O        5.85467902       8.69697534      15.35374553       1.89115496       1.50821330      -1.08163580
O        0.85199244       3.41673737      12.50884859       1.88807188       2.61693062       0.91055816
O        6.36961028       9.28304470      22.30561131      -1.38704885       0.17159141      -1.30681677
O        9.08559221       6.30627143      15.35073292      -0.25109361       0.89669618      -0.97793071
O        3.34807846       0.48434347       5.53893237       0.22084253      -0.26183247      -0.02142988
O        3.53120829       5.95084200      19.26162855       1.07067042       1.08656646      -0.02741223
O        3.70826230       6.98600351      15.24666917       0.22860480      -0.79041212      -0.71125025
O        6.30685307       4.03523549       7.96042570       0.41818541      -1.83569638      -0.44922345
O        6.11791404       3.08136364      12.17821929      -0.38441308       0.00254234       0.67471676
O        1.43216113       8.11951882       8.47494087      -2.22090668      -0.30820913       0.32653769
O        1.63430550       8.55965426      11.89573075      -0.65931152      -0.14700268       0.29437417
O        8.43381250       2.42601547      19.03309878      -1.45554660      -3.56175457       0.37844701
O        8.09494040       1.29310630      15.32953945       0.59735754       1.10163669      -1.16712380
O        3.10045580       4.88280524      16.75755809      -0.47610965      -0.50386953      -0.27804940
O        5.26339268       7.17502969      17.58425541       0.62709332       0.15527398       1.39184137
O        7.12049023       5.04562809      10.66845245      -0.02019275       0.47473952      -1.72112067
O        4.62688039       3.23885585       9.71963475       0.41161937      -2.25163510       0.23788228
O        9.31301093       7.43277346      17.78893117       0.06189218       0.01523044       1.62491685
O        2.44925480       0.49866211       2.81668808      -0.43163383       0.13304848      -0.05257769
O        0.30260335       2.66523496       9.86884538      -0.20278975      -1.46383854      -1.13347913
O        7.59811550       0.11099146      17.92429723       0.75501983      -0.75381062      -0.51565390
O        8.80212695       8.15872245      23.22289490       0.94693447      -0.44943839      -1.21093839
O        1.51890591       0.86045783      11.62124663      -0.35600327      -1.59340698      -0.11930854
O        0.93039581       1.73407047       4.90859722       0.95377326      -2.95551623      -2.39724402
O        8.48586587       9.15278660      15.97602343       1.41600562      -1.00722019       0.58938254
O        3.45094161       4.36131848      11.92300752      -3.40794585       1.31086496       2.11699594
O        5.90473557       6.71092631       8.81645715      -0.59803140       1.28738804      -1.35923822
O        6.30547661       5.71173222      15.05758658      -2.40982195       2.97273586       2.53471375
O        3.70693846       3.07787410       4.92802573      -0.01838279      -0.57578179      -0.00465326
O        8.60201885       3.09380089      11.77117159       1.03238869      -0.41511835       0.10631630
O        6.69374426       1.36503335       8.76984701      -1.98439577       2.65061417       1.39976694
O        1.28074533       6.76238877      16.17230209      -0.41214108      -0.84982674      -1.36665935
O        3.17705745       8.53778948      19.07797701       1.91700239      -3.71238360      -1.58874126
O        8.21026587       3.92731436      15.35032435      -0.29342225      -0.60913272       0.71754174
O        5.82922080       1.65005502      18.86477851      -0.09635028      -0.52568739       1.58838003
O        1.50020146       6.03249508      11.90762429      -1.06504200       0.97846298       1.05621621
O        3.79845040       8.19879497      22.13078829       1.46605578       0.09304995       0.56927655
O        7.78020781       5.06284214      13.20359739       0.59845161       1.07969773      -0.40506332
O        4.41440530       2.16295112       7.37899886      -0.01557805      -1.13998339      -1.68315934
O        2.10559959       4.71847478      14.39324151       0.11340184       0.76578860      -2.11352234
O        5.44594676       7.78008430      20.24232098      -0.05736019      -0.66099273      -3.63542684
O        0.38041718       2.54629729       7.17840251      -0.88181632       0.66724159       0.59223289
O        7.54313996       0.32194914       6.78928785      -0.25604892      -0.69543650      -2.24046573
O        9.68854961       7.58557480      20.61810988       0.13932309      -0.98732038       1.31300864
O        2.50263373       0.43671618      14.09935324      -0.53585788       0.55395150      -0.09664498
80
Lattice="9.77192453 0.01751879 6.90363604 0.24348012 9.76890588 6.90363604 0.01370155 0.0133883 13.86910312" Properties=species:S:1:pos:R:3:forces:R:3 energy=-576.99446711 source_file=vasprun.xml step_index=85 time_fs=52170.0 time_ps=52.17 file_index=26 pbc="T T T"
Na       2.25071757       2.26889697      15.57968751       0.13221515       1.12959922       0.87238611
Na       7.81261844       4.25742186      19.80181295       0.14307365       0.10572241       0.48021355
Na       1.08319347       5.63624265       6.76568763      -0.07793751       0.17531837      -0.05937344
Na       4.70614485       8.69921980      13.29256672      -0.39657918      -0.48621152       0.03887177
Na       9.53144730       0.34216948       7.26608658       0.23909224       0.27546845      -0.34955106
Na       6.40641128       1.03693040      13.21892850       0.00408829      -0.26575861       0.12013937
Na       1.27781751       8.83637678      17.40882127       0.12172726      -0.10458449      -0.11512107
Na       3.78717298       5.60849593       9.48523837       0.09778401      -0.01221084       0.42283128
Al       7.32327594       5.38811700       9.20476189      -1.35317746      -1.23372259      -0.39856887
Al       4.63842396       2.79729623      11.46816732       0.81979409      -1.13516887       0.83502490
Al       2.94265890       4.49695171      18.20243001       1.40047131       0.46941207      -0.59615371
Al       5.61432625       7.01713319      16.10461541      -1.72836704      -0.04600472       1.95415842
Al       0.27471169       2.24232976      11.35391547       0.37514984       2.08486266       2.87079655
Al       8.05885102       9.54046817      22.72629112       0.76642865      -0.47880352       1.28143136
Al       9.50537044       7.77022623      15.98359549       2.79894716      -2.90600561       0.83618048
Al       2.19054308       0.43430947       4.91992567       0.00728983      -2.08743406      -1.30058171
Si       2.73250557       5.46865375      15.27188692       0.23269031       0.94088737       2.87629887
Si       4.37736709       7.43811738      19.00629383      -0.24598071       0.48958032       0.56832856
Si       7.45870677       4.19735800      12.03373186      -3.30173709       1.26112977       2.66875702
Si       5.82900619       2.58456938       8.48203890      -0.39833304       0.39972468       2.66176598
Si       0.90068838       7.36859295      12.15295229       1.16364384       0.08528710      -1.08527411
Si       2.72322514       9.06501952       8.57020151      -0.76083170      -2.06263907       1.19896963
Si       9.26159527       2.29785466      15.18538542       0.20641544       0.58899446      -0.55456582
Si       7.40989733       0.98694295      18.97132177       0.29202595       0.13628254       1.00693694
Si       0.45998174       2.90112846       5.39134534       2.59963468      -0.44607368      -0.61750410
Si       7.08495288       9.41436553      14.90423137      -0.24494718       3.67899079      -1.01328027
Si       9.81998065       7.04297697      21.86318997      -1.96124507      -0.91174016       3.00189802
Si       2.64262764       0.48615942      12.67163646      -0.27773753      -2.03945593       1.28837842
Si       7.94707078       5.16378049      15.09526503      -1.01427711       1.28639508      -1.79261920
Si       4.60065381       2.18292232       5.75689661       0.59409924       0.80913444      -0.74523761
Si       2.32746347       4.68946147      12.37211000       0.37649100      -2.69163243      -2.04097784
Si       5.53799135       7.71313655      21.90518762      -2.61911796      -0.19254297       0.49464067
O        8.73868601       5.88016767      22.31920160       1.49928614       1.07525928      -0.40656629
O        3.90499984       1.39704457      12.54325923       2.04377830       1.95173225      -1.62793466
O        1.34451979       4.16743208       4.81780511      -1.45138202       0.03969642       3.24109628
O        5.87952914       8.46922633      15.17718152      -1.52388519      -0.75605040      -1.12680623
O        0.99552126       3.76642666      12.15284572      -0.60757687      -0.65324575      -1.15056997
O        6.53811767       8.92144456      22.07585989       1.60796990       1.89127270       1.40007786
O        9.21125640       6.17526284      15.18369354       1.03763603       0.53213030      -0.20374616
O        3.63513143       0.94944684       5.83202472      -1.76521470      -3.23499541      -0.55220278
O        3.75916741       5.94090149      18.83262461      -0.70877482       0.65862517       0.84914726
O        4.03390117       6.41549419      15.53392830       0.53728341      -0.70185137      -0.83097646
O        6.83398140       3.86052274       8.37783507       0.01538840      -0.59637180       0.09238806
O        6.21258214       3.09733102      12.30244957       0.12182037       0.34767479      -0.77222341
O        1.40247025       8.10704073       8.39402262      -1.71511921       0.73369620      -0.72712679
O        1.66852127       8.75050458      12.61724487       0.51275200       0.01610955      -0.33359914
O        8.61591672       2.08400129      19.43897079      -0.45521997      -0.87901193      -1.58870514
O        8.36735477       1.04175048      14.68474215      -0.88076750      -0.27493171       0.70264252
O        2.42593608       4.43310205      16.53175682       1.36058474       0.28817925      -1.87653787
O        5.18978820       7.84525742      17.72353936       1.32599137      -0.58652684      -1.99693160
O        7.26245103       5.31815440      10.91926933      -0.23234035      -0.15967647      -0.52005511
O        4.91787558       2.37283809       9.84265401       0.23011883       0.77231163      -0.95032204
O        9.86352432       7.51956278      17.66553503      -0.10924540      -0.09402775       1.03095440
O        2.77785179       9.73281230      10.02111457       0.39502248       1.11663331       1.07311678
O        0.24455567       2.01413027       9.68341751       0.11287721      -0.33224533      -0.63080439
O        7.80451632       0.11451977      17.66462671      -0.48996308       0.66709036      -1.10185976
O        9.48205840       8.43381768      22.78009841      -0.23994989      -0.99032841      -1.78667140
O        1.19811777       1.00316253      12.13429959       1.20697948      -1.88909544      -0.28429758
O        1.04592169       1.60638304       4.53136312      -1.72257445       1.90096667       1.24534626
O        8.32059279       8.87451802      15.64995463       1.97373286       0.39001515       0.61930889
O        3.59618394       4.13693048      11.36829177      -1.93265076       1.43459522       1.48610254
O        5.92625729       6.28668032       8.61177046      -0.18928426      -0.06569851       0.80722455
O        6.90814690       5.83809960      16.18307812      -0.36414408      -0.58707874      -0.83850366
O        4.04280863       3.25579876      18.65360144      -1.04781230       1.52417585      -1.17510983
O        8.79134240       3.39275796      11.87233142      -0.22723257      -1.45092731      -0.53749123
O        6.64543623       1.20083303       8.58283004       1.18528878      -2.11914546      -1.57023153
O        1.52648321       6.59805492      15.39838874       0.91404861       0.15991211      -0.06507034
O        3.11824788       8.60222557      19.17837534      -0.79130313       1.20109455       0.01201726
O        8.38209987       3.63952414      15.36680428      -0.86437532      -0.09745303       1.09233428
O        6.07341962       1.96251815      18.94212159       1.63758470      -1.62145653      -0.21898719
O        2.19849613       6.19760414      11.87503869      -1.58413564       2.55919960       0.27319971
O        3.83997090       7.82953323       8.53554095       2.19585871       0.80033577      -0.29551648
O        7.47345845       5.14811894      13.43113161       0.49799676      -0.20648380       1.59177646
O        4.77517537       2.62652372       7.26810801      -0.00659797       0.78651553       0.62485801
O        2.63053945       4.51379300      13.96381576       0.58215656       0.13104297       0.08639798
O        5.33403505       7.78381357      20.34601850      -0.90242859      -1.02037820      -3.55918215
O        0.50917050       2.73004576       7.07555021       0.84284465      -0.08634861      -1.42053832
O        7.52463005       9.56401031      13.25416293      -0.61913771       0.62065046       0.10671448
O        9.70365856       6.77290131      20.28724670       0.57911977       1.39683106      -2.76540126
O        2.41572831       0.53598427      14.38216968       0.04948801      -1.40625936      -0.18342701
80
Lattice="9.77192453 0.01751879 6.90363604 0.24348012 9.76890588 6.90363604 0.01370155 0.0133883 13.86910312" Properties=species:S:1:pos:R:3:forces:R:3 energy=-575.76729567 source_file=vasprun.xml step_index=75 time_fs=54150.0 time_ps=54.15 file_index=27 pbc="T T T"
Na       5.89168473       3.45171550      16.91148777      -0.04689019      -0.14103536       0.01724750
Na       9.19113715       3.19281930      20.67784369      -0.73253813       0.39109097       0.03322251
Na       0.27738213       6.88393600       6.13261454       0.07491288      -0.26136070       0.06156382
Na       4.13844628       7.84855594      13.24674057       1.28387289       0.09460547       0.99009699
Na       2.06226379       2.53335556      15.82685083       0.19954012      -1.04688046      -0.04087211
Na       6.45447622       1.08707913      12.71034124       0.70494272      -0.16764824       0.56181928
Na       2.32664943       2.71160291       8.75622679       0.10288560      -0.12229491      -0.05894576
Na       3.48664835       6.07102344      10.48730883       0.50734897       0.82718039      -0.91589223
Al       7.19360739       4.90233680       9.08247905       1.12741315       4.73348563       0.92543454
Al       4.49706755       2.98262682      11.60501666       1.26660155       1.47057371      -1.96836349
Al       2.55918959       4.64427108      18.41911986       1.59363794      -0.68046429      -0.88939557
Al       5.44107133       6.75620553      16.11206100      -0.67379510      -0.27037491       1.13732982
Al       0.45514231       1.81282735      11.27028011       0.74348206       1.30802802       0.76483488
Al       7.67394317       9.18817910      22.72884294      -0.85089836       1.47688507       0.27852309
Al       9.54410731       7.79895879      16.20877431      -0.21958866       1.55076624      -2.56045420
Al       2.25307573       0.25306313       4.57309868       0.57012691      -1.76233198      -1.77425110
Si       2.53371914       5.45156126      15.35307709       3.03838240      -0.93414035      -0.73651210
Si       4.25998364       7.09277820      19.19829604       0.57275329      -0.08010945      -2.43366640
Si       7.51271562       4.35196433      12.09257372       1.28214435      -0.82589964      -0.22435959
Si       5.46914280       2.47109352       8.48950359       0.21135401       1.45704988       0.87853767
Si       0.97632897       7.44092881      12.32907322      -0.05518725       0.82230394      -0.70744553
Si       2.55712280       8.89323665       8.31098439      -1.95819224       2.81197907       0.63425920
Si       8.92633348       2.24943524      15.25903540       0.29656839      -0.49049758      -1.90514171
Si       7.20836934       0.85399075      18.88705607       1.67885078      -2.19400817      -3.43046062
Si       0.46738334       2.61791824       5.67783089      -0.96695828       1.69469252      -2.89424909
Si       7.00723417       9.36202156      14.83898321       3.27988510       2.57287127      -0.04972843
Si       9.54017274       6.84968730      21.85959500      -1.48996766      -1.04730163       1.06869295
Si       3.10504555       0.33492067      12.50735261      -0.29338254       3.52476633      -0.78067605
Si       7.74154586       5.31236558      15.00717305       1.69129194      -2.75128676      -2.78811384
Si       4.52127767       2.14001391       5.53483427      -0.82476384      -0.78632094      -0.06646323
Si       2.01706765       4.45212692      12.45591870       2.82353866      -1.08157137       0.75642963
Si       5.31453053       7.45197517      21.95752340      -0.39197379      -3.91294251       1.58466878
O        8.67040403       5.45393120      21.77550524      -0.34526427      -0.58138777       0.62623959
O        4.30744508       1.47579130      12.33696023       0.12099294      -0.96061031       0.98165974
O        1.31371306       4.08573937       5.52506915      -2.21200633      -2.03001806       1.04012624
O        6.22776205       8.06085260      15.19933491      -2.16775608      -1.89567730       0.24221338
O        0.95834990       3.41401950      12.03226957      -2.78301952      -2.30493173       0.33828215
O        6.23653021       8.68812953      21.75378439       2.30453009       1.56230324      -0.28919954
O        8.75844060       6.30949094      15.70773831       0.59108380      -0.02701632      -0.30206443
O        3.77666627       0.70122793       5.29881891       0.67670404      -0.23918741       0.24404534
O        2.86542588       6.28700875      18.94489275      -0.17684438       0.16993563      -0.15706568
O        3.89195430       6.40699103      15.22265694       0.01138135      -0.43755903       0.63101853
O        6.62617463       3.59824742       8.23698566      -0.17181158      -2.45309566      -0.69726260
O        6.01701114       3.76096718      12.08241664      -0.38546988      -1.16167169       0.58348530
O        1.25672674       7.85175274       8.11490034       0.70270280       0.82373766       0.25676330
O        2.40545793       8.32967061      12.30594502      -1.81265732       0.45390598      -0.34874649
O        8.75822120       1.45647838      18.98357254      -1.23522823      -0.10027163       0.68921868
O        7.78641281       1.10005603      14.90796343       1.01939734      -1.29471414       1.34208682
O        2.33646696       4.51891538      16.65542276       0.25338150       0.46017152       0.13367421
O        5.32340963       6.83450947      17.97454623      -0.18242773      -0.32683075      -1.82671582
O        7.84944551       5.13458948      10.74150887      -0.16351581      -0.26282960      -1.54777868
O        4.61282835       2.88491135       9.80978401       0.03605785      -0.96530608      -0.82524455
O        0.38821449       7.74267579      10.86877314      -0.90786753       0.48072250       0.54142768
O        2.06370771       0.24808143       2.61738634       0.44626882      -0.83643260       1.63224118
O        0.12600892       2.26287821       9.64668709      -0.39606744      -0.42520278      -0.14150833
O        7.28526722       9.65733354      24.40687604       0.39874911       1.41223657       0.85989535
O        8.74412581       7.83779070      22.85860519       1.11741611       0.20812494       0.13925294
O        2.00237107       1.06765242      11.48842618       0.17780749      -2.26418727       0.19528238
O        0.96110586       1.26023488       4.88890010      -1.28484405       2.38457780       0.76612603
O        8.54957963       9.23785584      15.51324029      -0.90632471      -0.83471857       0.01759183
O        3.30417472       4.22888107      11.45340424      -0.74820662       0.23114291       1.42871496
O        5.82032141       6.21258984       9.19312950      -0.41572096       1.20114431      -1.71818058
O        6.36682812       5.26302249      15.74697547      -2.19938114       0.79792435       1.20350871
O        3.64095520       3.13188584      18.44641063       1.36780563       1.45527506       0.44566528
O        8.67918434       3.03944847      12.06372781      -0.72337710       0.48291807       0.71742689
O        5.95188235       0.96256174       8.46385177       1.62353163      -2.57371928       0.49222482
O        1.36978885       6.46049980      15.18969399      -2.62073631       1.81074732      -0.08619128
O        4.12199877       8.74093319      19.18336590      -0.48729539      -1.35175150      -0.30726593
O        8.10177974       3.59302391      14.93477576      -0.48319076       2.69107980       1.23143087
O        6.12783110       2.07408184      18.76103764      -1.46113250       1.06302612       0.95818276
O        1.47861241       5.87706485      12.08032084      -0.50924072       2.38554721       0.82498443
O        3.91567274       8.13117952       8.68666917       0.05584263      -1.26386909       0.19055863
O        7.62466836       5.51601453      13.29955150       0.79765736      -0.08317725       1.38864170
O        4.50391925       2.43643491       7.19007159      -1.35912039       0.77601465      -2.49011433
O        2.59119646       4.29135227      14.05796700      -1.08610557       0.91972972       0.21467975
O        4.82973742       6.58317535      20.60108738       0.86556646       0.61270974       1.39816632
O        0.41354185       2.29036431       7.21213170      -0.08785590      -0.87793278       2.70290937
O        7.18687233       9.63955585      13.15385763      -0.78866136      -1.07957612       2.77555631
O        9.62334494       7.69856092      20.48523022       1.76078967       0.09390775      -3.14813908
O        2.54748000       0.39847006      14.03635316      -0.72346564      -2.03117030       1.16490977
80
Lattice="9.77192453 0.01751879 6.90363604 0.24348012 9.76890588 6.90363604 0.01370155 0.0133883 13.86910312" Properties=species:S:1:pos:R:3:forces:R:3 energy=-574.8116521 source_file=vasprun.xml step_index=410 time_fs=28820.0 time_ps=28.82 file_index=14 pbc="T T T"
Na       6.09445822       2.18592405      15.07275127      -0.43282256       0.06782930      -0.59942175
Na       6.89867582       4.75719933      19.84309195      -0.06101381      -0.20750990       0.13444003
Na       2.10682996       5.68792215       7.18260065      -0.43469332       0.17807268       0.47668113
Na       1.54446927       9.39662629      16.51139235      -0.23573522      -0.10544106      -0.16787367
Na       7.48749071       8.71598395      17.70634708      -0.04987860       0.03925607       0.03655147
Na       1.92683318       2.44171890      14.93625430       0.03559401       0.35879788      -0.09669312
Na       7.95474737       7.23593050      11.92489134      -0.04001239       0.29584103      -0.24310287
Na       4.27394906       8.38321513      12.72507748       0.78800984      -0.18082931       0.62634030
Al       7.08394605       5.31001319       9.16663639      -0.76240155      -1.09897594      -0.43028975
Al       4.60501334       2.91910883      11.52176025      -0.91773943       1.35978016       3.77407622
Al       3.08041278       4.74414929      18.38823310       0.99404123       0.93586241      -1.97182458
Al       5.48949347       6.91727386      15.75563322       1.08977955       3.04117046       1.86065041
Al       0.34486974       2.09195471      11.42502837      -1.34382704      -0.43414751       0.62323958
Al       7.88358614       9.31903442      22.49537112       0.12936802      -1.69540542       2.31571884
Al       9.78329559       7.68326256      15.89133818      -0.88624277      -2.28926747      -1.07851790
Al       2.16119820       0.30181067       4.53143112      -1.54024123      -0.05544532      -0.93363089
Si       2.73085342       5.73736996      15.35263754      -1.39353870      -3.08061207      -0.21779300
Si       4.35064657       7.55028855      18.75006128       1.26064459       1.61355061      -0.36678488
Si       7.45309008       4.22038254      12.06869796      -0.20070338      -1.65840135      -0.09219473
Si       5.95386675       2.20211471       8.69207033      -0.02598632       0.11593083      -2.08860260
Si       0.99970819       7.39109741      11.88995437      -0.97379413      -0.91932579       0.95570214
Si       2.61306428       8.87550574       8.35924631      -4.01987209       1.53426197      -0.38143376
Si       9.02743096       2.40721361      15.20799516       0.62938189      -1.12640790       0.91901529
Si       7.36720593       0.57850750      18.76305544      -1.39168346       1.45835729      -1.51503842
Si       0.58220721       2.95793708       5.49499994      -0.16318538       0.87766838       2.13349685
Si       7.28214949       9.25279899      14.65540439      -1.93868365      -0.55265204      -1.79302669
Si       9.67346156       6.88651884      21.86336070       0.45721766       1.99867107      -0.26161568
Si       2.68335438       0.65019772      12.56258774       4.28125922      -0.05102340       1.68138527
Si       7.85797206       5.24974235      14.84528309       3.90546310       1.61264926       0.95220988
Si       4.58280156       2.24790938       5.49138440       4.53914458      -3.70796914       2.03349431
Si       1.97778235       4.59844899      12.33766739       1.39960054      -0.75510723       1.15845158
Si       5.44106250       7.60764812      21.45594785      -0.73891541       1.94206696       3.88346101
O        8.45275425       5.77107688      21.93173444       0.89276384       0.60578129       0.45802721
O        3.72227152       1.96811877      12.85739828      -0.54672112      -1.86449274      -1.08094318
O        1.65922683       4.36714127       5.40060380      -2.39753694      -3.35298521       0.36034725
O        5.87116702       8.49858148      14.95569352       0.12130385      -1.39077811      -0.37041425
O        0.84876596       3.42205914      12.43444130      -0.19213698       0.59708644      -0.57795213
O        6.50162204       8.82616982      21.49695014       1.09884824       0.43900355       0.38959412
O        9.26249407       6.06621421      15.27647548      -0.63312698      -0.90344981      -1.14451856
O        3.61936031       1.01780713       5.03317808       0.71012238       0.97796859       0.62610101
O        3.20742253       6.50043312      18.71028411      -2.07858086      -2.32485453       0.32016070
O        4.07522152       6.49772234      15.02036097      -1.34440830      -0.10422762      -1.05616581
O        7.03195293       3.44603183       8.68970207      -1.02273410       1.77300149      -0.23488382
O        6.26743496       3.20030296      12.45936305      -1.50877250      -0.34975756      -1.06008188
O        1.64814105       7.53757779       8.44786736       0.08673567       1.58240993      -0.86789397
O        2.16983042       8.46620203      12.18881484       0.36772021       0.96311872      -0.48213700
O        8.58987193       1.55852026      19.10921381       1.53525088       0.01654896      -0.65063035
O        8.09749530       1.03868993      14.90464917       0.66035041       2.43401912      -0.12332527
O        2.86463324       4.61311084      16.59617079       0.29846009       0.41901472      -0.33417148
O        5.35174953       7.39825219      17.51067578       0.44369758       0.34171548      -1.48359870
O        7.14464278       5.33727750      10.96211239       0.25056087       0.44322210      -2.87472660
O        5.05908017       2.30757508      10.04871094       0.33533960      -1.22946440      -2.34458446
O        9.69816474       7.79047668      17.60433111       0.34797812       0.24305290       1.72973407
O        2.51563557       9.74689898       9.67307261      -0.79277020       1.67416599       1.98794008
O        0.10884693       1.95225094       9.71664902      -1.34222829       1.55130945      -2.57505246
O        7.45621502       9.33821156      24.37992257       0.83273175       0.42735513      -1.50116410
O        9.37094479       8.25836661      22.79357356      -1.47348590      -0.43847363      -1.40769184
O        1.60699265       0.85958037      11.46183931      -1.41632223       0.24556102      -0.80353142
O        0.98236599       1.40856116       5.25584093       0.27922555       0.65271269      -1.95695192
O        8.60377207       8.80443779      15.32526290       2.47210436      -1.78017082       0.81493075
O        3.29930711       4.19806692      11.54236593       2.40752537      -1.63923476      -0.46808715
O        5.73827428       6.49770916       8.73872825       1.20721367      -1.76704719      -0.31745799
O        6.82434064       5.91161794      15.78411094      -1.86056006       0.03824660       1.16529719
O        4.52820606       3.80445651      18.97270450      -1.35091990       1.07183034      -0.64905826
O        8.87339764       3.37743750      11.78855678       0.06567745       0.65623202      -0.10570852
O        6.91717334       0.82224252       8.55953329      -1.75963953       4.34541376       1.39753862
O        1.44787774       6.67857192      15.62608861      -1.14475725       0.40876373       0.11788276
O        3.74377611       9.05570235      18.97733211       0.68434701      -0.48457725      -0.38726591
O        7.90266738       3.68704063      15.18342463       0.93295550      -3.22777433       1.20263029
O        6.09999786       1.64475693      18.62989927      -1.69845876       1.11328484       0.73133735
O        1.79462066       5.95877286      11.47097547      -2.59228275       2.34494991       0.86828423
O        3.97936268       8.30595529      22.04753414       7.37713278      -3.34067548      -2.09901246
O        7.47766674       5.29506942      13.28282691       0.89233193       1.40619832       0.65374074
O        4.95200932       2.10071207       7.19115959       0.29775034       0.64259062       0.42444806
O        2.18090764       4.90409179      14.00343218       0.44061899      -0.28585628      -0.44886453
O        5.37985403       7.07194486      19.96148853      -0.13772901      -0.65119808      -0.34149026
O        0.32852903       2.80213980       7.14931712      -0.03487060       0.50316686       0.42644645
O        7.44756232       9.24250654      12.98812157      -0.38673537      -0.73096758       1.82306150
O        9.86158285       7.40569751      20.25427889       0.31694489      -1.23263925      -0.24786115
O        2.21337060       0.25760368      14.06872976      -1.58785068      -0.32329376       1.18989598
80
Lattice="9.77192453 0.01751879 6.90363604 0.24348012 9.76890588 6.90363604 0.01370155 0.0133883 13.86910312" Properties=species:S:1:pos:R:3:forces:R:3 energy=-576.14382464 source_file=vasprun.xml step_index=125 time_fs=90250.0 time_ps=90.25 file_index=45 pbc="T T T"
Na       8.24942750       4.08062449      20.40024059       0.13051950      -0.24907154       0.17909086
Na       1.45373672       9.67216098      16.74225736      -0.28721971      -0.10958634      -0.14079148
Na       5.82308171       4.23801346      17.30854671       0.34941220       0.37426614      -0.20179541
Na       7.96056275       7.45057270      10.89576597       0.25014815       1.58476696       0.96938802
Na       2.35583546       2.61322014      15.56341856      -0.18122459       0.45635235       0.09108410
Na       6.65194899       0.45338394      13.00837497       0.03537021       0.28745460      -0.02056811
Na       1.76381403       6.52590141       7.86401902      -0.04430317      -0.68659536      -0.58329615
Na       4.11232862       8.80236593      13.63632275       0.04524917       0.05319001      -0.17051108
Al       7.03781144       5.42274847       9.09229965       1.90641379      -0.48283627       0.64801432
Al       4.56417700       3.07662585      11.64252704      -0.61190599       1.11179983      -0.74991090
Al       2.60554505       4.91055031      18.71848704      -1.52124969       1.31932728      -0.74875035
Al       5.16719050       7.17177135      16.02378624       1.47443591      -0.49896305      -0.86974344
Al       0.38271545       2.21380541      11.73434830      -1.09050714      -1.34372485       0.01672069
Al       7.23353375       0.05606500      16.11353671       2.32730564       1.00368210       2.22517434
Al       9.48506104       8.03112913      16.13574782      -6.16422375      -1.20577506       2.98420944
Al       2.01562113       0.56128865       4.67525724       1.23344454      -0.40784759       1.02201462
Si       2.40979427       5.98240764      15.61838591      -1.31561702       0.34617606      -3.23765753
Si       4.30201917       7.39443173      19.12431742      -1.50736791      -0.28126367      -2.20913294
Si       7.30950139       4.40553701      12.17712363       1.55387482       1.50741258       0.74530262
Si       5.44929111       2.89358300       8.62490738       1.39406808      -2.88181578      -5.06235108
Si       0.94462822       7.54311060      12.19041125      -0.80645752       1.41905002       1.79617505
Si       2.53621686       9.31680119       8.45557015       0.17850509       0.46014006       1.12756050
Si       8.88124109       2.54488146      15.57671280      -1.84655314      -0.61756370       2.97130148
Si       7.33868867       0.93732641      19.23886628      -0.79124544       0.66813740       2.16850169
Si       0.18718630       2.95382296       5.94426531       0.03040878       0.48539518      -2.29583200
Si       6.95315444       9.64335991      15.16260964       0.16546318       1.50311663      -0.80364148
Si       9.28573442       7.36117422      21.98895310       4.43250965       2.45970134      -2.00390550
Si       3.10637063       0.62102047      12.47629751       0.11260863       0.35479184       1.26663786
Si       7.90124128       5.60396436      15.01329393      -1.25707667      -2.68264864       1.26041909
Si       4.48491391       2.54239154       5.64155764       1.25494087      -1.43610446       2.75249542
Si       1.91459204       4.62938124      12.76733991      -2.98185990      -0.65289730       2.47505277
Si       5.37891699       7.80639354      21.87305235      -0.94351540       0.40703541       0.54781571
O        8.57597634       5.96528577      21.99064299      -2.78049881      -1.24821829       0.99607850
O        4.52528144       1.42488358      12.18416992      -1.34403791      -0.37609754       0.79806298
O        0.97484397       4.40215892       5.52416569       0.75856421      -1.44706380       0.94852324
O        5.66747273       8.70430896      15.35718798      -1.12111474      -0.78223771       0.33990777
O        0.54183514       3.59306927      12.66160271       2.19453582       2.96115760       0.85839011
O        6.40403045       9.02110318      22.07973418      -2.51058791      -0.22903058      -1.60813089
O        9.09763254       6.58201829      15.13888656       2.66971692       2.13853315       1.34995221
O        3.55141936       1.22835183       5.47910951      -0.32248047      -0.42277338      -1.11699946
O        2.78499893       6.63601826      19.45323907       2.61949065      -0.99137770      -0.23099224
O        3.74583255       6.71142306      15.05816669       0.52855515       1.05663622       0.68990382
O        6.71331606       3.88640270       8.31554221      -0.14370124       1.08308905       0.20084319
O        5.84582980       3.78202355      12.56643731       1.21241793       0.94312418      -1.27899327
O        1.05828731       8.54190701       8.64420653       7.79086749       2.94335033      -4.03994466
O        2.14670557       8.69169057      12.42920271      -0.72365332      -0.06291633      -0.83391100
O        8.73601226       1.69492765      19.63104781      -0.96508116      -0.74648470      -0.91053568
O        7.50138613       1.55622543      15.31434788       1.87896036       0.95138702       0.37238752
O        2.52760539       5.13218185      16.88716252       0.60823087      -2.09333380       4.43779405
O        5.04007788       6.90934766      17.70843599      -1.31216559       0.02064218       2.65798028
O        7.78146222       5.45516355      10.84202643      -2.70606351      -3.18695782      -0.08913916
O        4.64064619       3.19963485       9.86402034      -1.69123042       0.92149796       4.12830676
O        9.81018418       7.64952222      17.83168522      -1.05009006       0.98867459      -2.65278969
O        2.51472588       0.28007282       3.00479574      -0.30059913       0.85391042      -0.99457487
O        0.07689426       2.22068968      10.02212364      -1.48042395      -0.38727459      -1.07206156
O        7.31267395       0.05453860      17.91943269      -0.59931544      -0.23346154      -2.02949243
O        8.85768034       8.71757896      22.88826515       1.00701892      -2.21988378      -0.86980214
O        1.69420184       1.05868936      11.84398398       0.66451939      -0.37376918      -0.97824903
O        0.81238717       1.76122910       5.00376783      -0.13878648       0.02676694       0.36354281
O        8.24427781       9.36219297      16.08071423       0.32159101      -1.25832877      -0.52758764
O        3.11554203       3.96165466      12.07019973       1.67486067      -0.95544133      -0.92677169
O        5.82514126       6.66708066       9.04385363       0.04158045      -0.79595655       0.00265684
O        6.61657098       6.11273284      15.85343082      -0.63433293      -0.64044414      -0.40920687
O        4.08181413       3.94503682      18.83096604      -0.44137750       0.42256591      -0.96615486
O        8.35580560       3.14017464      12.26230137       1.28169537      -0.56694616       0.60978162
O        6.18665211       1.39502628       8.67634693      -0.05442202       0.09872639      -0.42281493
O        1.12371459       7.02605929      15.77015054      -0.92436387       0.75331571      -0.78345526
O        3.81742021       8.94339473      18.78100863      -0.61317386      -0.25256895       0.79279443
O        8.23636336       4.00176265      15.63219183      -0.84919088       2.67999633       0.21607982
O        6.18552221       2.32458608      19.07040132      -0.69404833      -1.19239225       0.38363442
O        1.38440013       5.99722694      12.09673689       1.51708278      -0.38559549       0.72598441
O        3.75645664       8.14842703       8.33834267      -0.52687589       0.32703086      -0.63832785
O        7.79617079       5.39116965      13.44635922      -1.26279197      -0.36396370      -2.31836994
O        4.35222139       2.83599773       7.28989415       1.62336512       0.27694859       0.68171149
O        2.18292392       4.74669464      14.47613613      -0.66729158       0.28881629      -1.64053006
O        5.49188643       7.47485981      20.26425103      -0.62735311      -0.60127277       0.08050137
O        0.19159901       2.42078372       7.55399607       1.80129442       0.37143405      -4.07407886
O        7.17258424       9.45690559      13.42450643       0.11358385       2.28015024       0.65301599
O        9.55889659       7.77334452      20.30866413       0.07208947      -0.31424599       2.59863510
O        2.58219847       0.79388872      14.18702982       0.57888165      -2.51985933       0.34768589
80
Lattice="9.77192453 0.01751879 6.90363604 0.24348012 9.76890588 6.90363604 0.01370155 0.0133883 13.86910312" Properties=species:S:1:pos:R:3:forces:R:3 energy=-573.39103581 source_file=vasprun.xml step_index=970 time_fs=77940.0 time_ps=77.94 file_index=38 pbc="T T T"
Na       8.58301873       3.95406643      20.35457250      -0.41485167       0.22653027       0.35422299
Na       8.32120990       9.31620487      18.20443361       0.15320492       0.23163128      -0.10757204
Na       5.52176117       3.60937256      16.57633314       0.02980638       0.26067002       0.55883370
Na       2.26943773       3.20872887       8.95422936       0.02561930      -0.31929458      -0.35981674
Na       0.89739277       2.46558471      15.83072038       0.30316209      -0.24363809       0.31738906
Na       5.95324370       1.14570823      14.18467279      -0.22071325      -0.38257167      -0.43848566
Na       4.74219236       7.30547749      12.89176356       0.16069166      -0.07240296       0.33498699
Na       1.36803477       7.28306979       6.17714773      -0.94784996      -0.61826022       0.16560681
Al       7.00600056       5.06053476       9.17403616      -3.02052905       2.81669250       2.54129536
Al       4.39111064       2.77858272      11.58876244       0.97217409      -1.22615257      -1.74712728
Al       3.12361146       4.70778340      18.74736577      -3.25023245      -4.71142934      -2.21173802
Al       5.17849203       6.96687041      16.10731130      -0.63323648      -0.02150280      -0.74390314
Al       0.23765684       2.08772352      11.60060529       1.88237452      -1.50576342      -0.31378200
Al       8.03992472       9.18965509      23.09457056      -2.63465619       1.74161204       0.40958311
Al       9.71599460       7.61057285      16.08669869      -0.37284564      -0.09320702       0.13483276
Al       2.02044886       0.45623033       4.94769118      -0.48697127       1.64952692       4.04807325
Si       2.48935764       5.34429667      15.56755486      -1.59572065       2.67931991       0.85034400
Si       4.12057109       7.29790074      19.25254088      -0.10829128       3.42355342       3.26035624
Si       7.06198338       4.51451969      12.12416493       2.20982378      -0.52741402      -0.29147663
Si       5.69903360       2.37750122       8.75356028       2.05917298       0.46185488      -0.41048568
Si       0.73262511       7.40377654      12.40860758       1.73931599       3.06513188      -0.58349760
Si       2.61844188       9.17894854       8.65879114       0.32786897       0.35225554       1.88970182
Si       8.74581652       2.44183170      15.54931256       1.53195363       0.77588493      -1.32972259
Si       7.33925402       0.70426125      19.18499503       0.57281585      -0.91399087      -2.28799790
Si       0.29842181       3.00129508       5.79052964      -0.73868693       4.35938642       1.67236481
Si       7.16828034       9.29944688      14.95876543      -2.32272682      -1.99078576       6.00624301
Si       9.62668371       6.87904166      22.12857560      -2.04485774       0.18262176       1.15299678
Si       2.73273585       0.39947458      12.67777459      -1.54097004       1.26972299       0.41443034
Si       7.69053470       5.36487466      14.94518565      -4.37584646      -1.98983812       0.57001031
Si       4.69421003       2.30308505       5.88838446       1.88027472       1.57663616      -0.02289909
Si       1.98700073       4.57456078      12.68161757      -0.55529349       1.22612379      -1.11244833
Si       5.42112107       7.45876813      22.05726909      -0.54969065       4.22308639      -1.02947660
O        8.37925152       5.61521138      22.35138172       5.96259913       3.50777743      -2.27657401
O        4.08535030       1.26496917      12.41288094       0.56907284      -0.87147904       1.42356667
O        1.57511134       4.04064402       5.69339716       0.46294035       0.07520574      -0.64956521
O        5.78429688       8.27024570      14.99491467       1.29285728       0.12623010       1.10472493
O        0.81791045       3.54167842      12.24312665      -0.14874921       2.51139435       0.98280873
O        6.68728773       8.41858107      22.26506666       1.20979042       0.75672786       0.67631089
O        8.95543615       6.24096649      15.13445305       2.46209539       1.47872164       1.17939078
O        3.58919820       1.22444036       5.79320039      -3.57790084      -2.75200395      -1.41251232
O        3.26406979       6.02196086      19.67023983       0.18334991       3.00068835       1.82297216
O        3.76166486       6.21667832      15.24780452       1.67009130       0.96302489      -1.31034334
O        6.99084829       3.48229503       8.75236269      -1.54588627      -4.28588926      -0.49009485
O        5.97151199       3.27672550      12.01154764       1.75403453       0.66799941       1.35150486
O        1.48518312       8.06154574       8.31317609      -1.44680429      -0.83875314       1.22085386
O        1.53152380       8.84671704      12.69484383      -0.10362406      -1.01666247      -0.26090624
O        8.67177808       1.62304640      19.42254333      -0.82803267      -0.41558627       0.62738661
O        7.87513411       1.10270414      15.29658133      -0.06024599      -0.80759576       0.85552638
O        2.79131774       4.53537494      16.88651375       0.33245647      -1.62461471       2.03766097
O        4.57483714       7.27603915      17.78719999       2.17668339      -0.40235163      -3.44575018
O        6.90966172       5.52083385      10.87633858      -0.01120674      -0.61299948       0.20536039
O        4.50263155       2.42356514       9.78992999      -1.07644875       0.52482846       3.14686798
O        9.70834876       7.42960593      17.92933159      -1.26735350       0.70863556      -2.94926325
O        1.97715715       0.21895383       3.33533262       1.33571476      -1.65222696      -6.82521124
O        9.62622851       2.56899920      16.92979460      -1.03579893      -0.05018062      -2.41381954
O        7.37550811       9.58084613      24.72292903       1.78701045       0.04404140       0.15061626
O        9.47499051       8.41002065      22.78363185       0.73465740      -2.35810673      -0.49480171
O        1.66549382       1.04246536      11.65608833      -0.94575679       0.20004924       0.23706591
O        0.60638331       1.67554239       5.06987179       0.69471579      -2.93462989      -1.83245398
O        8.51258369       8.92033635      15.85787841      -0.39855781      -0.62339789      -0.08319684
O        3.35225153       4.03084158      12.01829705      -1.23433999       1.58715045       0.79204330
O        5.55196882       5.99432290       8.64746860      -0.19110528      -2.41264450       0.34835373
O        6.30346203       5.62851371      15.90376141       1.47923463       0.68721323       0.38722896
O        4.51154105       3.72574365      18.95468194       0.60837968      -0.67866689      -0.75300222
O        8.67656693       3.90959583      12.23838484      -0.36285079      -1.03965309      -0.24264448
O        6.50154832       0.92467511       8.77154504      -0.85221181       1.24325614       0.31625695
O        1.28816657       6.46550351      15.93163655      -0.59835738      -0.79522360      -0.92162626
O        2.93233876       8.58189318      19.30224039       1.43423424      -1.21986073       0.08749888
O        7.67595895       3.68847016      15.30444344       0.25304021       0.58890417       0.32828268
O        6.12347969       1.70919918      19.03321514      -2.39215204       2.21762653       1.29040082
O        1.85457412       6.30152597      12.15447568       2.02743910      -4.96741198       1.41039055
O        4.10894710       8.41316937       8.72301551      -1.75569502       0.74019361       0.83494846
O        7.06281610       5.55023712      13.42679403      -0.40651802      -0.50413990       0.05182670
O        4.78638498       2.80123064       7.48532435       0.37277888      -0.81687954      -2.38388114
O        1.71892465       4.52101482      14.34733495       1.31766424      -0.50869305      -0.50686343
O        5.17257704       7.83609600      20.46513378      -0.80215120      -1.70361737      -3.00102329
O        0.09500920       2.73577979       7.42850552      -0.01051573      -0.54109178       0.87238797
O        7.42162263       9.50721394      13.50440715       1.28065466       0.06022367      -4.97844408
O        9.43651535       7.10837490      20.45455804      -0.11700072      -0.97595632       1.94104468
O        2.11003658       0.55262945      14.36345066       1.74623185      -0.17593649      -0.14263885
80
Lattice="9.77192453 0.01751879 6.90363604 0.24348012 9.76890588 6.90363604 0.01370155 0.0133883 13.86910312" Properties=species:S:1:pos:R:3:forces:R:3 energy=-577.64303086 source_file=vasprun.xml step_index=955 time_fs=63910.0 time_ps=63.91 file_index=31 pbc="T T T"
Na       8.04370163       3.84893335      20.46189771      -0.30105732      -0.62501964      -0.60248613
Na       7.42436009       8.58269386      18.14344603      -0.23238714      -0.26784344      -0.06880354
Na       8.10895321       7.56548644      11.35252513      -0.31024780      -0.68003247       0.33493803
Na       3.69658214       8.82476627      14.37174627      -0.73853362       0.10599223      -0.83169738
Na       1.41978282       2.31927023      14.96802837       0.27805689       0.29866838       0.33230303
Na       6.40549421       1.74675153      14.09920860      -1.30836531       0.39251450      -0.66878251
Na       2.46536391       2.26407657       9.31578207      -0.61195939       0.23252784      -0.09660953
Na       1.43452018       6.27434809       6.66768875       0.18800059      -0.12953547       0.05216731
Al       6.99767338       5.26281500       8.95376584       0.07101089      -1.61139721      -0.08366650
Al       4.59031672       2.74838990      11.56230798      -0.24298184       1.98943688       0.58089775
Al       2.85083635       4.48830672      18.35791809       1.70058917      -0.94535464       0.67144478
Al       5.27870888       7.03381583      15.90462376      -1.27084105      -0.54640680      -0.39127644
Al       0.11448546       2.05737106      11.65965112       2.32840894       0.81287826       1.22983535
Al       7.81242916       9.42936480      22.85176476      -1.07462398      -1.48445403       0.70323728
Al       9.41065914       7.45227567      16.07475813       1.75385516      -0.26332276      -2.86380554
Al       1.86412075       0.34700120       4.57745444       0.85806989       1.67629970       0.70938383
Si       2.45757066       5.45395143      15.53911534       0.30949705       1.18976899       0.61661583
Si       4.31357383       7.45376900      18.89278644      -1.54041152      -0.71007356      -1.27041045
Si       7.37051594       4.28044159      11.96701126       1.35628346       0.88656980       1.41966753
Si       5.45362456       2.35933880       8.47450918       2.70112309       1.19919448      -0.35484077
Si       0.60351232       7.28361310      12.09667463       1.18932879      -1.35147760       2.40941884
Si       2.43420970       9.04421741       8.55903130      -0.80269982       1.81729744       0.25879539
Si       8.85846053       2.38351717      15.41511711       4.27708080       2.95061528       2.75804836
Si       7.35146833       0.80091234      19.02713357      -0.53033935       0.49248804       1.76268690
Si       0.47414661       2.92101747       5.88127078      -2.53341034      -1.45383077      -2.74480979
Si       7.03190116       9.30503834      14.71182526       1.27152588      -4.89003826      -1.52487279
Si       9.35473013       6.69530005      21.96788332       0.47806532      -0.05137543      -1.64180014
Si       2.70844759       0.40275684      12.55835779      -1.93228071      -1.81349029       0.25358396
Si       7.69954026       5.25130831      14.99242598       0.91734770      -1.18176924      -4.34887431
Si       4.49010205       2.01371082       5.59397970      -1.79998459       1.03233988       1.50384732
Si       2.17077806       4.49107753      12.61000333      -2.45613384      -1.74869172      -0.81966550
Si       5.34175130       7.89290852      21.94923751      -0.93970051      -1.87940871      -1.74633218
O        8.38128234       5.41531287      21.66856390       0.51074695       1.02316350       1.35673496
O        4.04078804       1.29983473      12.41613137       0.60529570       0.39390592       0.15795686
O        1.53885501       4.09526162       5.73388559       0.57302330       1.61831671      -0.39914110
O        5.73063428       8.23271912      14.69486377       0.93234779       1.86615081       0.51209863
O        0.99689076       3.23506100      12.69343083       0.58444902       1.21837113      -0.23475711
O        6.19662218       9.26370393      22.07449863       0.85330450      -0.07859079       0.44954466
O        9.15342569       5.87286070      15.26446644       0.50873945       1.26080180       0.20402826
O        3.47702415       0.80626457       5.44185360      -1.95547272      -2.06980075      -0.50006836
O        3.39690657       6.10869702      18.69898587       0.04707216       0.20773885       0.89954911
O        3.59984849       6.57694591      15.47860496       0.99068578       1.34518938      -0.32214263
O        6.60510561       3.56241318       8.53708103      -1.43936818      -0.69581429      -0.77011185
O        6.15400664       3.31986718      12.22302237      -3.29916276      -2.40644882      -0.12586583
O        1.33192359       7.84146430       8.28495948      -1.89247514       0.83104522       1.80698269
O        1.50221381       8.59043177      12.06830149       1.37193108       0.84370610      -0.28917982
O        8.37150529       2.05227157      19.40519420       0.11535394      -2.51283067      -0.05030866
O        8.07856829       1.09020707      15.17354799      -1.02267560      -2.68845120      -0.85750996
O        2.79329496       4.33158211      16.60753422      -1.09947903      -0.74695857       1.46077310
O        5.23408544       7.63909571      17.51752893       0.38254705       0.77913627       1.62315659
O        7.40259617       5.11365669      10.62693116       0.29872317       1.31558410      -0.63158065
O        4.64930222       2.36313610       9.87471198      -0.12404364      -0.94583397      -0.50006728
O        9.39608586       7.29913003      17.75270200      -1.19285485       0.08847500       0.59436982
O        2.16504577       0.49453583       2.86116311      -0.60383481      -2.62240135      -1.62822623
O        9.45407801       2.46837156      16.99371034      -0.01739109       0.07729117      -3.77047482
O        7.84062507       9.73166885      24.60553610       0.26022779      -0.07544205      -2.06162085
O        8.38165738       7.72900730      22.76102123       1.04246153       1.13646694       0.96527792
O        1.48180857       0.92050931      11.58704998       0.13770200      -0.23870756       0.26623159
O        0.77575268       1.71602576       4.85929209       0.83733125      -1.02409117       0.09425720
O        8.21287536       8.65669810      15.71630669      -1.37919430       1.10771560      -0.38443893
O        3.35437349       4.18222850      11.56160308       1.08284845      -1.68306217       0.51868819
O        5.80711379       6.45491214       8.76839227      -1.17594598       2.44229373      -0.72751324
O        6.47292652       5.86306430      15.67400913      -1.00555820      -0.07288178       1.53423151
O        4.20316553       3.39917885      18.77454864      -1.20612407       1.36107677      -0.89308918
O        8.65362210       3.31002320      12.08207726       3.00221832      -0.61195493       1.80401252
O        6.43965690       1.02151764       8.05502584      -1.20153279       2.65028308       1.67129384
O        1.00914178       6.22955271      15.81484380      -1.09926187       0.35007619      -0.50923460
O        3.03913786       8.55855985      18.91493301       1.48242741       1.37531497       0.98293903
O        7.84310162       3.65411947      15.34558210      -0.23570725      -0.80389379      -0.86755382
O        5.99709579       1.70561599      19.10292462       1.77926089      -1.61697760      -0.52417256
O        1.38041284       5.82132327      12.15201215      -0.27587183       1.53336341      -0.59454054
O        3.77687255       8.22005083       8.49923817       2.52357416      -1.28225088       0.35979549
O        7.37947598       5.35286668      13.20983770       0.87924546       0.64929470       2.57630941
O        4.36139140       2.35525742       7.28016454      -0.08762560      -0.18597865       0.18465138
O        2.45774810       4.59651049      14.19412986       0.44984362      -0.53922350      -0.85456307
O        5.27885467       7.52355098      20.20254781       0.27023603       0.66634265       1.39437356
O        0.42929975       2.24123942       7.39869269      -1.56437523       1.50914094       1.58974519
O        7.62939595       9.18827485      13.08617702      -0.44280823       1.54402139       1.34207812
O        9.65442259       7.43495878      20.49808684      -0.32128120      -0.31887931       0.05817239
O        2.26287359       0.33072917      14.23436529       0.05818540       0.60113867      -2.47792175
80
Lattice="9.77192453 0.01751879 6.90363604 0.24348012 9.76890588 6.90363604 0.01370155 0.0133883 13.86910312" Properties=species:S:1:pos:R:3:forces:R:3 energy=-575.68259868 source_file=vasprun.xml step_index=345 time_fs=76690.0 time_ps=76.69 file_index=38 pbc="T T T"
Na       8.22229765       3.69007865      21.44237239       0.29758597      -0.00387216      -0.75116046
Na       8.18245113       1.07707970      10.48921118       0.39620090       0.07234338       0.63677114
Na       5.81352804       4.95482176      17.70799278      -0.07307271      -0.86533064       0.57887623
Na       1.94960700       0.05623844       9.73078692      -0.03667099      -0.77212127      -1.24797212
Na       1.64539344       2.36784999      15.26635073       0.48024260      -0.41761325       0.20887074
Na       6.18138077       1.07692066      14.12428033      -0.57883355       0.59495900      -0.72333921
Na       6.39471279       7.96323159      12.11284954      -0.37643814      -1.04620184       0.01478699
Na       1.73407615       5.35155695       7.65399170      -0.19036997       0.41499983      -0.00458268
Al       6.63412194       5.46123301       9.22204445      -0.27688373       1.71352600      -1.34206353
Al       4.42134945       2.92870782      11.54299413      -2.69270963      -2.37054422      -1.12873137
Al       2.78389571       4.62693364      18.83912733      -1.88528850       0.04405802      -1.20329462
Al       5.18535611       7.14148534      16.00633576       0.51444972      -0.49996378       1.79440025
Al       0.25379762       2.17446658      11.66042500      -0.18558442      -3.81202466       2.13161632
Al       8.04730564       9.54347953      23.15264516       0.29164244      -1.03370988      -1.02994255
Al       9.49000852       7.63322493      15.93120128       0.87040186       0.52447127       0.48381283
Al       1.96787037       0.33420097       4.68530534       1.38118848       0.42056922      -0.20021648
Si       2.43714378       5.42194000      15.61789580       0.70774449      -0.95630882       4.07215941
Si       4.29537556       7.33737047      19.18841566      -1.19388600      -0.50623886       0.43981516
Si       7.23246001       4.23728571      12.08391340      -0.03865960       0.75641265       0.04206180
Si       5.38159499       2.76969385       8.57186239       1.16847924      -2.22069451      -0.29676530
Si       0.70153816       7.38726391      12.06859123       0.86962599      -1.96969412       3.16021047
Si       2.45437993       9.12783522       8.53469490       2.17669339       1.41995902       0.70793547
Si       8.83976679       2.65300102      15.69709807       1.36196783       1.34823366       0.07627803
Si       7.19336199       0.75879611      19.07896558       1.39857614       0.48733126      -0.19113120
Si       0.21693803       2.70625094       5.95214450      -0.48605795       0.25493872      -1.39252736
Si       7.09034310       9.65682127      15.10234196      -4.43537127      -0.52434878      -0.78161956
Si       9.41346088       7.05246445      21.96848175       0.71722047      -0.85589126       1.54646165
Si       2.69716618       0.41399984      12.52847381      -0.10582430      -1.79921908      -0.60626748
Si       7.65172473       5.41468955      14.98486596       1.33409978      -1.16869790       0.58403397
Si       4.48596823       2.15735119       5.53271670       0.91036929      -1.25214449       2.27917152
Si       2.02873977       4.36228359      12.79109761       0.15179159      -0.75863129       0.30131045
Si       5.35951629       7.95689268      22.06538541       1.03941182       1.37067377      -3.21859350
O        8.08444763       6.09760227      22.29526200       1.72634036       0.16674314      -0.91700620
O        3.94602359       1.40952970      12.49429710       1.29273010       1.18522371      -0.65454175
O        1.16721626       3.94168359       5.51898296       0.78219138       0.40837720       1.00863754
O        5.72788476       8.59886871      15.26978231       1.07748972       1.86164062       0.22387064
O        1.06086080       3.01418771      12.82729659       0.35589156       2.67703524       1.79738719
O        6.48538743       9.13261567      22.29882175       1.27082006      -0.85114414       0.66515418
O        9.05290458       6.25539066      15.02732323      -0.38763292      -0.57836937      -0.38056709
O        3.61443868       0.82581439       5.24820896      -1.31428480       0.72924046      -0.03530568
O        3.22359022       6.07227002      19.69565950       0.88074037       1.76991489      -0.47192422
O        3.77825204       6.25276201      15.59588408       0.77516442       1.42955779      -1.11353301
O        6.15093991       4.10586470       8.24416369       1.36693656       0.73862693       0.65266269
O        5.84959748       3.41860052      12.13972401       2.62525320       0.39630294       1.17422499
O        1.43941505       7.90509243       8.56058209      -1.19364206      -0.31751351      -0.39522142
O        1.88404696       8.59002367      12.34668270      -2.14796343      -2.76702752      -0.98382419
O        8.49081618       1.67751906      19.33820371       0.29629884       0.57466656       0.45750111
O        8.02325398       1.39337509      15.34130648      -2.53010581      -4.15428218       0.77068621
O        2.64350280       4.52338518      17.12495153      -1.13633780       1.21132845      -3.23561612
O        5.18405786       7.10111197      17.87068603      -0.24120974      -0.34789737      -1.24618800
O        7.25636474       5.22824713      10.77428591       0.12798366      -1.13221118       2.13012351
O        4.37296206       2.70661554       9.76262019      -0.10522280      -0.34886503       1.82550895
O        9.63171017       7.18441620      17.60162031       0.51773900       0.98542288       1.50864140
O        2.00299448       0.42429988       2.91040845      -0.66841577      -0.54265384      -1.43436007
O        9.66195231       2.50036127      17.03217698       0.08124114       1.01116317      -2.11291436
O        7.82507146       9.29827834      24.92662653      -0.88422282       1.66406952      -0.73616293
O        9.45448566       8.41423402      22.83308663      -1.47077572       1.75197773       0.34978254
O        1.44763036       0.75478564      11.56983115      -0.87068277       1.16467006       0.46168044
O        0.61655438       1.35657123       5.07720507      -1.11595346       1.25991823       1.12516470
O        8.27719746       8.94178625      15.84322838       2.02040296       0.26563791       0.64868557
O        3.18816092       4.05765663      11.71782716      -0.79995540       1.07921722       0.97028972
O        5.30963527       6.59562624       8.94335186       1.26069231      -2.64363713       2.19305948
O        6.48095470       5.90526426      15.93040856      -0.62959173       1.38948450      -0.96640518
O        4.17801985       3.67987004      19.04260159       0.82024261      -0.68644684      -0.55516319
O        8.36852271       3.04009897      12.18329447       1.68211561      -0.40938349       0.59345570
O        6.71791784       1.52747677       8.74168207      -0.26546704      -0.89862735      -0.07168754
O        1.14289015       6.37233061      15.64364143      -2.05233647       0.12863704      -1.00561822
O        3.35310891       8.65113254      18.82365032      -0.06514122       0.88009924       0.74195418
O        7.87830296       3.94277744      15.77503599       0.07381033       0.68312533      -0.97619710
O        5.95441551       1.77471033      18.69313300       0.44338036      -0.18883876       0.16317437
O        1.37552215       5.75068743      12.37702390      -0.89010002       2.48094116      -0.37907850
O        4.05834618       8.69301560      22.56291612      -3.08438154       1.08148466      -0.02123604
O        7.38700640       5.24411286      13.38479701      -0.54524336      -0.13260029      -0.27937711
O        4.68070760       2.37714880       7.24357653      -1.43256668      -1.95425058      -3.51111240
O        2.38214604       4.27459063      14.47498842       0.09929153       0.14656796      -1.69895425
O        5.40119859       7.59262735      20.36141647      -0.34784801       0.91248650       1.98752824
O        0.21775878       2.60558751       7.62707211       0.62985333       0.85885865      -2.32774814
O        7.08101409       9.61774402      13.45724712       0.36361458       0.55285587       0.08031132
O        9.43843397       7.38742092      20.39784073       1.00929154       0.31930110      -2.80991453
O        2.23567563       0.29237167      14.08424358      -0.90074798      -0.35887309       1.86356700
80
Lattice="9.77192453 0.01751879 6.90363604 0.24348012 9.76890588 6.90363604 0.01370155 0.0133883 13.86910312" Properties=species:S:1:pos:R:3:forces:R:3 energy=-574.1399336 source_file=vasprun.xml step_index=575 time_fs=9150.0 time_ps=9.15 file_index=4 pbc="T T T"
Na       7.28086787       5.10159065      17.81761790      -0.13574413      -0.09283000      -0.03481035
Na       8.12721103       9.50530730      19.86561353       0.21319229       0.08931908      -0.62798375
Na       2.80325346       2.55843891       8.67400150       0.33860090       0.14839073       0.23686262
Na       7.60727050       7.74943509      11.19309472       0.12520191      -0.50673086       0.10679653
Na       9.34174961       3.60808886      20.91340991       0.31871524      -0.44729733      -0.35637775
Na       4.61865625       1.93280866      15.07969418      -0.14604367       0.06479979      -0.14676348
Na       1.51227885       6.24915712       6.37588537      -0.47115272       1.31331779       1.27762434
Na       4.03721816       8.79811119      13.38477965       0.66119663      -0.29371746       0.64592676
Al       7.38092477       5.22817560      22.51374515       0.64221427       0.52718756       1.61716580
Al       4.98411636       3.05621237      11.90171445       0.20635726       1.76721907      -2.69122433
Al       3.05824351       5.00948336      18.56704211       3.59721157      -1.26109822      -4.00138900
Al       5.78800240       7.16118453      15.84221352       1.41143388      -0.58304409      -1.00984429
Al       0.95373729       2.55479973      11.22613662       0.03085841      -0.36227770       4.35846893
Al       8.29133689       9.61192342      22.79178200       2.66588663       1.04234337       0.89103328
Al       0.19950273       7.61143352       9.15071319       2.31514694       0.51301625      -0.00675605
Al       2.60538063       0.62413911       4.31410528      -1.48465724       3.36014962       3.08284011
Si       2.92020420       5.84097782      15.53231778       2.51444859      -2.65170002       0.85542395
Si       4.94140293       7.66252565      18.79445427      -2.43694115       0.04548633      -1.57927912
Si       7.71926501       4.33198931      12.06053766      -0.11749197      -0.08938561      -4.32011388
Si       5.92740400       2.40969920       8.68715498       0.21634649       1.21075345      -0.15578790
Si       1.31235980       7.77345218      12.27551939      -2.03802765       0.64278930       0.10710538
Si       2.94517863       9.10777502       8.44117837       0.51119836      -1.98520140      -0.79117988
Si       9.64650759       2.73642216      15.06399589       1.80027429      -1.55028295       2.62456074
Si       7.80801335       1.16237444      18.82749056       1.82319463       0.80079185       1.41418490
Si       0.73874251       3.15974475       5.29900150      -0.52889283       2.30740474       0.79387564
Si       7.62835811       9.42331721      14.72785949      -1.12157726       1.35714598       0.90614040
Si       9.81521063       7.01954138      22.08047887       0.53450139      -2.68230552      -2.51367506
Si       3.39168057       0.51517461      12.36390011      -2.16680191       1.48244853       0.07932762
Si       8.43487573       5.32011508      14.77420298      -2.13729996       4.96988016       0.09168261
Si       4.83849494       2.34410359       5.75826645       1.99275100       0.67807813      -0.42748251
Si       2.61787677       4.92054398      12.70417985      -5.47248273      -0.58045032       1.39555928
Si       5.96415428       8.13691232      21.73908728      -1.95221294      -0.08351558      -0.42089117
O        8.99987115       5.60368201      21.75724510      -0.94216191       0.20121274       1.26105351
O        4.65393787       1.50043982      12.50842832       0.16369615       0.24734440       1.96647767
O        1.43829014       4.62078405       4.98125434      -1.60860582       0.10968391       0.69769223
O        6.27546532       8.42901071      14.66712519       1.02922163       0.57380614       0.71675181
O        1.17295716       3.99527130      12.28447057       2.34008575       1.35761292       0.15573778
O        6.94292938       9.47646685      21.76372117      -1.52175698      -0.49199815       0.18618774
O        9.80360668       6.13449436      15.13478910      -0.68797917      -0.48406498      -0.10660803
O        4.21891329       1.04697085       5.05344402      -1.50068444      -1.42331714      -0.68135867
O        3.58972528       6.65881100      19.00025905       0.77856968      -0.09576127       0.70037227
O        4.20131176       6.87726432      15.26120084      -2.12198147      -0.40135954      -0.53594595
O        6.87450999       3.66652526       8.01531590      -0.96651259      -0.95723273       0.21437530
O        6.57417025       3.36542971      12.59329094      -1.70220424       0.54530755       0.87814222
O        1.78451742       8.05419303       8.42552675      -0.90572229      -1.37440630      -0.67469451
O        2.08741406       9.25737727      12.27873747      -0.25752340      -2.44043052       1.33172170
O        9.23674400       2.04939480      18.95960565      -2.05892742      -1.37965039      -0.21261823
O        8.88828193       1.28642763      15.09510895       0.21562601      -0.57897441      -0.34984562
O        3.35767341       4.67138834      16.62082744      -0.31487343       1.89765004       2.86829001
O        5.85723555       7.05769478      17.58758773      -0.14497551       0.67249408       0.78580215
O        7.36441975       4.78653924      10.39709251       0.82065941       0.95214448       3.01258718
O        5.08575577       2.79921749      10.08323897       0.71598888      -0.71419129      -1.74632072
O        0.52364708       7.64947357      10.87643323      -0.99303061      -0.25253552       0.21066566
O        2.42825661       0.30109885       2.73869266       0.78798594       1.21207835      -1.71390751
O        0.65972377       2.96397811       9.67710795       0.04350431      -0.21699269      -5.21235497
O        7.77011800       0.14066197      17.57166728      -0.59017880       0.50301436      -0.24003965
O        9.14305874       8.01319143      23.08627946      -1.10049157       2.25310731       0.68193608
O        2.21913923       1.37380032      11.54677425       0.77368037      -0.95361789       0.58145543
O        1.34851614       2.01592077       4.54233020       3.03982319      -4.02777034      -2.22527185
O        8.97716689       8.90386783      15.50752176      -2.40826640       0.67600553      -1.08295297
O        3.83711487       4.55043031      11.85349213       3.62884901      -2.56205924      -0.75373435
O        6.62493968       6.86654071      22.43292853      -0.22266864      -0.72530496       0.07288769
O        7.12524447       5.95000094      15.64910508       1.07194663      -0.59045254      -1.09597140
O        4.07951610       3.71885752      19.22813498       0.89969368      -0.05180478       0.28197675
O        8.91007596       3.22541567      11.87282955       1.18936434       0.15163425       0.88499513
O        6.87016916       1.05685022       8.75922325       0.09556544      -0.77084122      -0.93894984
O        1.50694326       6.53357713      15.77249381      -0.98337788       1.72108194       0.07910600
O        4.16122486       9.12274199      18.27624265       1.01044122      -2.53166496       0.79929245
O        8.50136004       3.86989100      15.33459188      -0.20042075      -2.43035531      -0.83972396
O        6.61197693       2.24467268      18.99024919      -3.17828293       1.45144605       0.60944918
O        2.35961781       6.55469107      12.40810797       0.43203171      -0.10515886       0.81815063
O        4.43106326       8.38335339      22.50374112       2.99972540      -0.48914666      -0.77649498
O        8.25914855       5.53573275      13.09032843      -0.46509200      -0.56004869       0.37310990
O        4.72193823       2.18555775       7.42523185       1.05143496      -0.14915672       0.46772912
O        2.63836894       4.69610083      14.37336518       0.50681858       0.54304439      -2.80849619
O        6.00346462       7.92912466      20.01403872      -0.98422818      -0.04037568       1.45092048
O        1.12111588       2.92373798       6.94021863      -2.83353063       0.03659177       2.30444846
O        7.55890021       0.08564099       6.21932585       0.56885568      -0.52296994       0.92389494
O        9.78844464       7.64908787      20.50707996       2.60634316       1.22486346      -1.44906876
O        2.99464951       0.03192391      13.97831116       0.21660975       1.85850324      -3.27316403
80
Lattice="9.77192453 0.01751879 6.90363604 0.24348012 9.76890588 6.90363604 0.01370155 0.0133883 13.86910312" Properties=species:S:1:pos:R:3:forces:R:3 energy=-576.38063335 source_file=vasprun.xml step_index=55 time_fs=84110.0 time_ps=84.11 file_index=42 pbc="T T T"
Na       8.35247837       4.14057033      20.22411058       0.11543197       0.04702768       0.35211004
Na       8.91237893       1.10452993      10.83088477      -0.23030931      -0.31085144      -0.25107446
Na       5.95729731       4.15741981      17.60248837       0.20216170      -0.45894083       0.30042867
Na       4.31881080       6.63262535      10.71248677      -0.19182246       0.15980337       0.27397276
Na       1.70028301       3.12457489      15.70497070      -0.02607216      -0.56589252      -0.35163892
Na       6.14314937       1.48668840      14.10203806      -1.09057131       0.52615686      -1.16379283
Na       1.15087539       6.20036285       7.26237168       0.71278883      -0.20608235      -0.77262262
Na       1.78153436       9.53357547      16.34759488      -0.15592705      -0.03548942       0.20121814
Al       7.18504018       5.44337342       9.30307812       1.55238030       1.42963712      -1.39470553
Al       4.70319427       3.17226775      11.52426358      -1.03883537      -0.00507347       2.96733598
Al       2.84958147       4.91567582      18.47126429      -1.01916447      -0.66639759       2.45019145
Al       5.62207252       6.92291422      16.31784664      -1.02622602      -0.44784193      -0.55289347
Al       0.33843024       1.83695339      11.90059395       1.61460043       1.10137696      -0.31422389
Al       7.63225366       0.03270270      16.05882530      -1.68576116      -0.03375693      -1.28699910
Al       9.57368471       8.11691981      15.98050545       0.63884740       1.79900193      -1.21261964
Al       2.30803448       0.43899359       4.79464718       0.18622632      -0.85862411       2.99266101
Si       2.76775998       5.86615375      15.39590712      -1.16315071       2.91931233       3.62795412
Si       4.21800753       7.41615116      19.21428605      -1.34422460      -0.44438006      -1.99362772
Si       7.51884147       4.32806941      12.36723374      -1.10273634      -2.14590051      -3.00242083
Si       5.77629213       2.81499823       8.46513338      -0.43439309       4.31245056       0.67766942
Si       0.93029673       7.63644128      12.17373657       1.23931721      -1.49251727      -2.93024146
Si       2.73107645       9.31804757       8.74055602      -0.41629139       0.81224195      -1.17620753
Si       9.04229077       2.59838272      15.85134950      -2.01219251       2.15038369      -2.26992942
Si       7.30689176       0.84376842      19.12845376      -2.53199033       1.09987172       1.36986460
Si       0.52370324       2.85109457       5.89319453      -1.12607225       2.47690669       2.02171006
Si       7.05977310       9.62547764      15.05125847      -0.00291970      -0.58005487      -2.10290035
Si       9.76084936       7.40141154      22.02450145      -2.09872328      -0.22445184      -1.86034649
Si       3.05361524       0.62524239      12.75676576       2.32653980       0.61650288       2.05845869
Si       8.06681105       5.37881189      15.31795765      -1.05651806      -1.29060989      -0.29385299
Si       4.55742721       2.44627287       5.72087852       2.40373647      -1.70996141      -0.06411893
Si       1.96419734       4.64625880      12.51727032      -2.63972955       1.19027374       1.15795754
Si       5.49944832       7.90676216      21.88876798       1.79706229       2.57238619       6.37302444
O        8.88186017       6.09258798      22.33745149      -2.37831100      -0.59794956       1.05464498
O        4.24957114       1.72200431      12.57416631      -0.61018586       1.19300929      -1.60959249
O        1.65088452       4.07123426       5.82098718      -0.99827775      -0.82297822      -1.11950847
O        6.15410249       8.41725546      15.68451184       1.09880283       1.51401116      -0.35295696
O        0.86455202       3.44590520      12.62417778      -0.46387005      -1.44126749       0.08492408
O        6.58480970       9.19158019      21.75366110      -0.83290397      -1.54135795       0.92492914
O        9.07886250       6.60048484      15.29174263       0.13629080       1.22847282       0.40187879
O        3.87909296       1.01926045       5.38843492      -1.16336707       0.53611729      -0.55888311
O        2.80851214       6.49520903      19.25137896       1.24162128       1.19756805       0.27109013
O        4.14023679       6.73743024      15.37019980      -1.45749915      -1.45819931      -0.09583883
O        6.95378709       4.04790233       8.28737913      -0.90990312      -1.64951713      -1.65588782
O        6.02063960       3.59228680      12.66883254       1.85502868       0.50705435      -0.24751303
O        1.44815237       8.38075231       8.29838393       0.18097021       0.07619213       0.19449057
O        2.42344421       8.44699722      12.20617822      -1.83644030      -0.13764060       0.15489617
O        8.69844297       1.40828065      19.65393571       1.23812902       0.98337746      -0.25556219
O        7.63423405       1.73708960      15.51847055       1.96375197       0.62479789       1.03539016
O        2.46284640       4.86434079      16.80773686       0.81208171       0.80813987      -2.59634923
O        5.06259306       6.70001203      17.97409748       0.02424354       0.92632097       0.89544278
O        7.35405056       5.14428808      10.95306844       0.53599361      -0.05706105       2.25713456
O        5.44870988       3.28656117      10.02701338      -1.31248689      -1.06894175      -2.05103663
O        0.22269789       8.03490711      10.69131223       0.10851111       0.19726607       3.64432684
O        2.06494071       0.50507673       3.14504303       0.24747027      -0.00698102      -3.26529355
O        0.11670263       1.98071614      10.13244951       0.91931666      -1.04490777       0.89258981
O        7.16882532       0.21582834      17.69030170       0.19280775      -0.71780819      -0.12894321
O        9.23104250       8.92306370      22.40862669       1.79340878      -1.10345894       0.97584730
O        1.69244184       0.68458991      11.98579205      -2.06942132       0.81338780      -0.99762710
O        0.84084273       1.34297517       5.50742597       1.79867718      -1.33685779      -1.26218246
O        8.55180411       9.63968198      15.67334115       1.34277390      -1.67290820       0.75742245
O        3.19694007       4.32757554      11.61660404       3.04708774      -0.75015479      -1.04208347
O        5.95122057       6.74092720       9.18128650       0.23596467       0.47902911      -1.66972851
O        6.61221858       5.44833416      16.07046021      -0.12026560       2.09177864      -0.92752125
O        4.15571889       3.82634556      18.90902188       0.02527639       0.82492091      -1.60149582
O        8.86391098       3.22234269      11.99548555      -1.15718308       0.61109903      -0.21249103
O        6.33658091       1.38487191       8.47053949       1.11577520      -3.21113648       0.40127336
O        1.45577422       7.05314120      15.64585118       3.16988016      -0.09931867       0.33728964
O        4.02007350       9.05520574      19.16723018       0.34809564      -2.76566190      -1.27671325
O        8.65863963       4.21022122      16.31169728       0.74329377      -1.93153013      -0.60819218
O        6.27609360       2.30861659      19.21680510      -0.12617965      -1.04518183      -0.36055475
O        1.05899145       5.93195941      12.03397712       1.73961876       0.21923360      -0.83463636
O        4.12984447       8.48733319       8.94110676       0.26271345      -0.82295526      -0.12132519
O        7.94587652       5.10204493      13.66800761       0.47471987       0.85472965       2.19887019
O        4.57295315       2.68817186       7.30236512       0.34093160       1.10269585       2.84421171
O        2.32426467       5.02087755      14.15382078       0.10883209      -1.80872827      -1.81976297
O        5.04494989       7.29849074      20.57305382      -0.13809402      -2.22923911      -1.95107219
O        9.67953295       2.85286391      14.35104023       1.17100953      -0.44094336       0.92758415
O        7.15547170       9.50001823      13.30253872      -1.03715543      -0.33278072       2.50111636
O        9.75077472       7.48306200      20.34013713      -0.57338914       1.71871901       1.38331757
O        2.98433951       0.59775137      14.43083910      -1.45828780      -0.16005963       0.66202359
80
Lattice="9.77192453 0.01751879 6.90363604 0.24348012 9.76890588 6.90363604 0.01370155 0.0133883 13.86910312" Properties=species:S:1:pos:R:3:forces:R:3 energy=-574.11175607 source_file=vasprun.xml step_index=210 time_fs=54420.0 time_ps=54.42 file_index=27 pbc="T T T"
Na       7.71483267       6.42632374      18.22103147      -0.36617519      -0.25857874      -0.06326106
Na       8.59412004       2.34218833       7.76481436      -0.02087900       0.42737402      -0.17244628
Na       1.32966366       6.52041307       6.33992800      -0.49687494      -0.24394392      -0.16019002
Na       3.16914559       8.44516014      15.35923540      -0.90564520       1.99390656      -0.51033358
Na       4.30839812       2.08178969      16.22618541      -0.20343147      -0.27914649      -0.56486435
Na       6.03494203       0.72029614      13.09478197       0.97036827      -0.04905043       0.64945970
Na       2.11044423       3.08312007       8.70809235       0.42888566      -0.15475704      -0.08556150
Na       4.35339310       6.17394109      11.06824092      -0.05967359       0.27407117      -0.17493686
Al       6.94634556       5.42578073       8.94534604       1.19310424      -1.86031146       0.34971896
Al       4.53854686       2.42513959      11.30858469       0.01042273       1.35205156      -1.02603165
Al       2.74802164       4.11005606      18.28078428      -1.13921718       1.06091349      -1.87474023
Al       5.29085905       7.00781558      15.95085583       1.38688759      -0.67602991      -1.77286409
Al       0.31905215       2.06482786      11.45481774       1.45310101      -2.64110119      -1.16887573
Al       7.61648187       9.36451778      22.78734334       1.16547414       0.58552234       0.67848485
Al       9.53544241       7.72824890      15.60547158      -1.28529444       0.42036882       3.24022628
Al       2.13585373       0.28112853       4.41706270      -1.00429291       0.11623952       1.26332834
Si       2.32218142       5.71666469      15.37158917      -1.31406864      -2.28397068       1.17052413
Si       4.00087404       6.86053426      18.92424269       3.26411127      -1.39086386       0.09754867
Si       7.27118052       3.92249226      11.82170885       2.08938952      -1.51001485       1.07818279
Si       5.41144591       2.83961196       8.25750559       2.08696359      -2.30096169      -1.80348975
Si       0.86973409       7.12011646      11.89993040       1.40293127      -0.01977332      -1.33303889
Si       2.53976091       9.20322810       8.32191129       3.82570955       0.76446791       0.67189923
Si       9.05612390       2.44040806      15.35514081      -1.96707805      -1.73717790      -0.40947666
Si       7.42143470       0.59390794      18.94861370      -2.01055995      -1.49077287       1.64719316
Si       0.35382034       2.91083055       5.42660977      -1.29861931      -3.70317684       1.65111585
Si       7.04812793       9.52057986      14.94688795      -3.12626478       0.33847410      -1.80805430
Si       9.42420536       6.81121737      21.70472076      -2.02936710       3.14304859      -1.31447654
Si       3.19805654       9.69288542      19.11368177      -5.28790736       1.71148468       0.86203212
Si       7.86955713       5.20245019      14.72242047       0.41846388       1.80485465       1.56043347
Si       4.42537858       1.74318757       5.43595541       0.03128149      -0.86128361       3.35222344
Si       2.20137721       4.38434860      12.49460132      -3.17686839       1.10011687       1.08797435
Si       5.11133792       7.77663049      21.97686788      -1.51718675       1.73300143      -1.37666481
O        8.56520360       5.58801064      22.19203681      -0.14878256      -0.66396851       0.59882951
O        4.29688589       0.73306689      11.79444135      -0.10770029      -0.12709413      -1.17404250
O        1.06757709       4.20930637       4.98792088       1.45931478       2.43895569       0.98274016
O        5.57813351       8.72368897      15.41982287       0.88774124      -0.36879832      -0.76143022
O        0.84197934       3.45326753      12.25712164       1.39393526       1.41198015       0.02441898
O        6.05769660       9.21894544      21.93901498      -1.96405254      -1.88421536       0.08173950
O        9.18368573       6.29504099      14.76205531      -0.85073053      -1.71885394      -1.10557978
O        3.53689647       0.33510135       5.53992253       0.92035506       1.66647834       0.05018933
O        3.64663798       5.31218708      19.12186151      -1.32381451       0.35507779       0.76231796
O        3.70170151       6.46918597      15.27989403       2.18842364       0.73452854      -0.54605944
O        6.44795096       4.02607860       8.02033403       0.20646066       0.08594864       0.43845939
O        6.02021907       2.92857371      12.09105991      -0.04577117      -0.82141261      -0.04658203
O        1.25391984       8.36230742       8.13998996      -2.32610654      -0.74410098      -1.52312996
O        1.99073392       8.37015740      11.80702867      -2.40089763      -0.28619204       0.41853600
O        8.66716413       1.51283456      19.08295507       0.49101172       1.83326184       1.20111870
O        7.93476331       1.16376778      15.36170906       0.94251768       2.62186335      -1.31331525
O        2.30313716       4.63000348      16.62439640       0.54790328       1.08619346      -0.45225368
O        4.92075757       6.81129179      17.57383394       0.48695969       1.00893391       2.46898905
O        7.00641455       4.92329164      10.62196355      -0.10217101       0.05289509       0.02071055
O        4.43875238       2.81855924       9.50481696      -1.07232292      -0.33301971       2.29348734
O        9.66905861       7.06701840      17.45544491       0.47813126       0.81658121      -0.34012705
O        2.35631457       0.43156557       2.67273385       0.03983799       0.90880746      -0.35568255
O        0.24810207       2.06791018       9.66940580       1.17323582       0.93046309       1.40522277
O        7.63462838       9.49839866      24.57684668      -0.23239913      -1.95990129      -3.61140109
O        8.63623829       8.27187334      21.90492367       0.67928529      -1.89892744       0.15834410
O        1.42720344       0.55024453      11.64842370       3.04183353       0.07182655       0.73851494
O        0.98028021       1.62493615       4.72860417       1.45184821      -1.62639426       0.16882415
O        8.17713989       8.90020319      15.82214514       2.58802753      -1.02197247       0.93041112
O        3.53107674       3.71120558      11.95598864       0.24324890      -0.26526280      -0.33616799
O        5.77130957       6.63207525       8.98095055      -0.19737505       0.33411115       0.50267656
O        6.69046159       5.90083410      15.68496158      -0.05004342       0.14839437      -1.19686656
O        3.59773542       2.58420116       4.35421403       0.57573890       1.04670232      -0.67091088
O        8.62238528       2.78540560      11.75950142      -3.30946107       2.34239257      -0.03834001
O        6.49458321       1.39224866       8.44999011      -0.32188911       0.10607876      -1.07168978
O        1.13662042       7.00957575      15.33112376       3.44511909      -1.71197405       1.50751993
O        2.88216895       8.02645456      18.70149558       0.31105893       1.76088385       0.94013004
O        8.20319558       3.85576033      15.61370980       0.53862727      -0.54971752      -0.68878635
O        5.98887088       1.40347490      19.03855689      -0.23951368       1.02358888      -0.45771509
O        2.08183327       5.93875115      11.81537687       0.15380535      -1.85864490      -0.04343629
O        3.58017680       7.96474730       8.90794303       2.03967241       0.38347678      -2.25647597
O        7.62217075       4.85475399      13.15256835      -0.51910507      -0.00149226       0.26981601
O        4.53533454       2.82238693       6.87958947      -1.21224977      -2.22784302      -1.70780434
O        2.09316020       4.68769337      14.12173850       0.44911427      -0.07847620      -0.75080251
O        4.80939599       7.15394439      20.37661596       0.36050442       1.56156886       0.84570617
O        0.41223332       2.66643561       7.20438126      -1.09481420       0.41859685      -1.24382752
O        7.61922281       9.28098537      13.26721476      -1.20081393       0.86362130       2.91118096
O        9.66160311       6.56492206      20.08454942       0.39433281       1.23263156      -2.13114449
O        3.03418883       0.30462623      13.92380315      -1.27061352      -2.42857011       0.36913522
80
Lattice="9.77192453 0.01751879 6.90363604 0.24348012 9.76890588 6.90363604 0.01370155 0.0133883 13.86910312" Properties=species:S:1:pos:R:3:forces:R:3 energy=-578.40093855 source_file=vasprun.xml step_index=360 time_fs=38720.0 time_ps=38.72 file_index=19 pbc="T T T"
Na       9.14019494       0.99367707      10.19303495      -0.09716799       0.06240912      -0.19432327
Na       5.82581251       4.81614123      17.38008626       0.79182186      -0.40696613      -0.33347886
Na       4.02917805       5.87808953      10.11253305       0.46265144      -0.01867950      -0.44235652
Na       1.35613256       8.95073880      16.50381296       0.28033756       0.17018775       0.44812780
Na       6.07520621       1.29609662      13.75942445      -0.32062382      -0.09628696      -0.09235019
Na       9.27038859       3.78514934      20.82534114      -0.33697617      -0.50069260      -0.15386283
Na       1.56819644       6.22535297       6.65639681       0.04993047      -0.18659337      -0.28349381
Na       4.19024283       8.41090079      13.45645729      -0.45660562      -0.06575542      -0.51117402
Al       7.31028824       5.32608762       8.98717163      -1.40267066      -0.71788505      -1.16392185
Al       4.74450521       2.69296180      11.22958723       0.23471806       0.10508809      -1.11447939
Al       3.11398613       4.60130621      18.45750133      -0.78737648      -1.29789621      -1.63043223
Al       5.57137231       7.25295455      15.90992067       0.49422470      -1.99427506      -0.40257686
Al       0.52989351       2.05195107      11.36042464       1.21765120      -2.01364213       0.93646706
Al       7.98232530       9.40966554      22.83675502      -1.59515570       1.75814101      -1.84595775
Al       9.53824883       7.72136514      15.58451855       1.32819316       0.00877824      -0.73209579
Al       2.45474438       0.15871489       4.31127298      -0.71532715       1.13316449      -0.26623390
Si       2.63189636       5.80682655      15.42087095       2.50341054      -0.32053426      -0.51627137
Si       4.58148496       7.22868115      18.93671379       1.02645127       2.01530988       1.96549676
Si       7.64657871       3.79704949      11.87381699      -2.36070038      -0.63858082      -1.09433816
Si       5.71963539       2.62095048       8.11453487       0.88308361       0.32450957       2.69922722
Si       1.11325272       7.23517582      11.66911855       0.91989823      -1.42495617      -1.27235617
Si       2.60409619       9.14924454      21.98913105       3.45824660      -0.64031745       1.51097395
Si       9.10483947       2.39230020      15.35583345      -1.36505434       1.12247184      -1.62028821
Si       7.63929597       0.82649972      18.77629111      -2.59002712      -1.64641493       1.71734616
Si       0.69905732       2.67994698       5.55133955       0.49306328       1.59659261      -2.02055448
Si       6.96068278       9.51203933      14.68740782       2.34556802       3.79473127      -1.11033789
Si       9.77546648       7.04338674      21.57855483       0.98390688      -4.25895967       1.28018760
Si       2.96384415       0.25946750      12.20340678      -0.19796652       0.15490858       2.44104210
Si       8.11258869       5.19183193      14.67252092      -2.04623441       0.79650891       2.47778360
Si       4.82475726       1.96921243       5.13340693      -0.36338731      -0.88655522       2.50771478
Si       2.31457976       4.49845834      12.33182043       4.24013162       2.41885434       0.61837122
Si       5.59190549       7.88776015      21.67675937      -2.09974630      -1.01502415       1.71294103
O        8.83453908       5.65908035      21.87118327       0.19422049       1.84708297       0.32630529
O        4.23247957       1.19735850      11.99048540       0.24928888       0.00814175      -0.44830482
O        1.57834413       4.09017594       5.22521480      -1.00717083      -1.19070255       2.00307449
O        5.63937735       8.69072914      14.97020625      -0.25506914       0.23230861       0.69517754
O        1.41796856       3.26533824      12.15291582      -2.60771181      -0.94687806       0.77199055
O        6.39947178       9.18994638      22.06486848       1.54917201       0.73423402       0.40277706
O        9.29766526       6.27232463      14.58607239       1.07220213      -0.02916311       0.60170701
O        3.98685915       0.48433946       5.08632292       0.64673379       1.71758299      -0.30724331
O        3.88474721       5.84209744      19.42201467      -0.20172935       0.31062319      -0.77918150
O        4.07285198       6.61375101      15.25346080      -0.86103950      -0.00538354      -0.02780352
O        6.80709617       3.84614495       7.98780957       0.01140954       0.77974336       0.36244307
O        6.33157331       2.74379641      12.00798492       1.70801357       1.06318683      -0.04422468
O        1.38095082       8.20762629       7.71346650      -2.58400186      -1.25214022       1.14476487
O        2.04338528       8.50264951      12.00590621       1.07527151      -0.15370942      -0.20676530
O        8.84303351       1.82791369      19.22650386       0.14433732      -0.53146063      -0.34336686
O        7.89789390       1.32100362      15.09364565       1.32438635      -0.97643271       0.63782237
O        2.54889933       5.10676326      16.83350094       1.51677004      -1.53544834       1.49859258
O        5.59037142       7.30020253      17.68858306      -0.37561368      -1.03873797      -1.99072362
O        7.32426565       4.87244053      10.71307070       0.30764905       0.53251656      -1.25119752
O        4.74788486       2.66309042       9.43705482       0.10331227       0.70024990       0.67119997
O        9.86182239       7.49207754      17.35152812      -0.24649209       0.37160156      -0.76926752
O        2.21923855       0.20895810       2.59587346      -0.41233251      -0.55845995      -0.32326179
O        0.19756684       2.09326722       9.73344322       0.22869772      -0.15278495      -0.81483320
O        7.92455128       9.46300666      24.52564644       1.57213946       0.51700558       0.42872794
O        9.20853070       8.29167484      22.32939338      -0.58149028       1.73687893      -0.30074410
O        1.68230686       0.58472799      11.28717182      -1.08803775       0.92603481       0.35386647
O        1.34467969       1.49289307       4.65059851      -0.55646578       0.02000492       1.13498387
O        8.34430148       8.92640594      15.23352828       0.92021247      -0.69179266       1.67689575
O        3.76570726       4.09466781      11.67346371       0.24265306       0.06587715       0.67166990
O        5.95228978       6.55251577      22.53311272       1.87041471      -1.26624941       0.76253427
O        6.84716457       6.04094518      15.35229316      -0.51382993       0.12046790       0.55839718
O        4.36864027       3.32812251      18.23119276      -0.93100702       0.14270415       0.10540847
O        9.00816968       2.94974509      11.59328178       0.92142453      -0.89310877       0.51583096
O        6.74126577       1.34672683       8.44680330      -0.01119934      -2.45979733      -1.01029141
O        1.41864189       6.81585414      15.65776436      -2.50209591       2.17456495      -2.05332593
O        3.42583923       8.42335521      18.91746757       0.53197101      -1.49081113      -0.77976197
O        8.21903112       3.83697982      15.64949069       1.62383232      -0.19667922      -0.53048810
O        6.32998766       1.74832979      18.39303975       0.05069477       0.89427227       0.08696742
O        2.03634276       5.76130779      11.22567155      -1.76326733       1.99729123       1.94599969
O        4.03799345       8.11878746      22.28725547      -1.69070064       0.53454443      -0.99288670
O        7.86899069       4.56202428      13.25316542      -0.18733101       0.17963044      -0.65894893
O        4.73467673       2.36440203       6.88556673      -0.16279963      -0.76947259      -3.87854441
O        2.46943179       4.93535562      14.02315942      -0.83385012      -0.63932883      -1.92897928
O        5.73672652       7.66433542      20.08345283      -1.00677968      -0.31435401      -0.59491539
O        0.45488503       2.38083964       7.13940145      -1.13118435       0.37851366       0.74987128
O        7.20321624       9.62140848      13.05639998       0.32173103       0.76064049      -0.04465651
O        0.52149472       6.87021588      13.12812947      -1.52461169       0.12385874       0.78872055
O        2.76862944       0.38640317      13.91483656      -0.10820961       0.88858692      -2.34541665
80
Lattice="9.77192453 0.01751879 6.90363604 0.24348012 9.76890588 6.90363604 0.01370155 0.0133883 13.86910312" Properties=species:S:1:pos:R:3:forces:R:3 energy=-575.44463037 source_file=vasprun.xml step_index=15 time_fs=44030.0 time_ps=44.03 file_index=22 pbc="T T T"
Na       9.37411460       0.69249372      10.52368419      -0.27127481      -0.11276516      -0.16917730
Na       6.05052738       4.42780426      17.30498683      -0.24982497      -0.42522322       0.78362392
Na       7.40089223       7.64242644      11.56758923       0.21171007      -1.16578550       0.15346283
Na       1.63880821       8.76836695      16.34708438       0.25201625       1.15724973       0.62421034
Na       8.96145451       3.27407822      21.21639407      -0.03212307      -0.01558389      -0.64508494
Na       6.42704025       1.58692885      13.81027760      -0.56620925       0.06427161      -0.39821437
Na       1.59921610       5.82676144       7.17959739       0.03279338       0.55781451       0.63642533
Na       4.42551094       7.92670119      13.48086953      -0.24081836       0.44481658       0.02076077
Al       7.38515340       5.26236743       8.88634862      -2.62617658       1.37535138       1.23152277
Al       4.77308522       3.02444621      11.52286979      -1.26623471       0.58410340       2.37773895
Al       2.82396197       5.07258556      18.62784680       3.56513973      -1.69167107      -2.11358810
Al       5.23128190       7.04530350      16.18564443       0.46966792       1.19462811       0.06557086
Al       0.64131949       2.14286086      11.63430256      -0.80171252      -1.59279925      -0.71247666
Al       7.62662150       9.57580888      22.90970724       2.43426682      -0.55075041       0.22074364
Al       9.84331625       7.69889600      16.04681698       0.99662639       4.62641554      -1.53150996
Al       2.42081025       0.46260251       4.76543540      -0.57122507      -0.68928095      -0.37404442
Si       2.36945842       5.99689441      15.43172107       2.44645431       0.67133186       3.04630976
Si       4.54682462       7.36153422      19.42371059       1.70689656      -1.96764596      -1.54517569
Si       7.63914444       4.44608217      11.99103949       0.92976827      -0.92525979       1.01075868
Si       5.90283752       2.44065112       8.78240399      -3.81176686      -0.66804447      -1.93393945
Si       1.23360537       7.47530293      12.00499844       0.96480659       1.18752983       2.13891956
Si       2.75946946       9.19602066       8.53922832      -2.40547038      -0.32419960      -1.26773741
Si       9.05223245       2.63625919      15.56298966      -0.93084418      -1.10722026       0.78301243
Si       7.34864077       1.02518987      19.05628707       1.51155948      -0.55971136      -0.23685610
Si       0.53101158       3.04535685       5.78624228      -0.05608027      -1.02776690       0.21206392
Si       7.29261013       9.44611721      14.96843690      -2.75351190      -0.27602504       0.19060748
Si       9.43769830       7.05648578      21.51804315      -1.24374333       2.65151670       3.60172045
Si       3.04796472       0.58758246      12.77646368       1.15397535      -0.63499736      -4.48894989
Si       7.79056299       5.42293613      15.01853922       0.26742377       2.56576318      -1.75569880
Si       4.71957927       2.42828348       5.72385303       0.42516441      -0.11665395       0.65791478
Si       2.22029605       4.57705316      12.58655868       1.30257072       1.69095566      -0.89122560
Si       5.47257585       7.65438909      22.14342747      -1.06996263       0.02959162      -0.07188844
O        8.41616971       5.80845406      21.45963657       1.46417681      -1.01147650      -0.32912921
O        4.25073955       1.67242140      12.60697340       0.79072929       0.21550707      -0.16357733
O        1.46549112       4.33587629       5.42135880      -2.49300492      -1.28960605       1.63675937
O        6.01960340       8.51192761      15.45756394      -0.11377142      -0.41437967      -0.51180851
O        0.92802108       3.56966429      12.62759249       1.09563107       0.51419043      -0.40635440
O        6.17098908       9.12903417      22.09033593       0.51878724       0.92742383       0.54758313
O        9.13866525       6.43755417      15.36036267      -3.64412007      -5.93998206      -1.58180200
O        3.89112418       1.11378156       5.28058133       0.48111677      -0.31314305       0.50840989
O        3.50999727       6.18285830      19.75911821      -2.39099067       0.18449938      -0.24652109
O        3.53504097       7.21474179      15.54697687       1.03910782      -0.78920216      -0.82759809
O        6.76811355       3.71960188       8.37452869       1.95299503       0.27960328       0.72736909
O        6.29859544       3.60858663      12.24379156      -1.10226070      -0.46427139      -0.31005145
O        1.48713486       8.19035669       8.18203300      -0.52583824       0.04471508       0.60117203
O        2.47373832       8.51949412      12.37513168      -0.38991809       1.24824180      -0.76718301
O        8.86093617       1.76732163      19.35484812      -2.13915425      -1.28548079       0.06394384
O        8.16434074       1.29023144      15.21829463      -1.42927962      -0.19075618       0.13886750
O        2.46595614       5.31124518      16.89327918       0.36826810      -0.77003838       0.89309524
O        5.31601278       6.72452820      17.94248616      -0.90656259       1.58498543       0.67467574
O        7.81751993       5.25323568      10.61763600       0.53078408       0.11945997       0.09211335
O        4.69982807       2.56708319       9.92634478       2.63186897      -0.82031198      -2.44644473
O        0.27680817       7.85502315      10.80369484      -0.33594962       0.56145070       0.01515387
O        2.37544899       0.19576025       3.00264059      -0.69570401       1.14063631       1.67026041
O        0.10125675       2.14473552       9.95200689       0.35229536       1.35523804       0.46574376
O        7.61524094       9.58369732      24.74453182      -0.13650906       2.82700857      -0.73389561
O        8.71680483       8.15259888      22.58535185       0.04498914       0.27143126      -0.54043900
O        1.89049152       0.81958323      11.59559933      -0.46962760       1.03847206       1.33377259
O        1.08744491       1.62749530       5.16821906       0.01653877      -0.06100547      -0.02453268
O        8.68501067       8.97678987      15.41056776       2.95709426      -0.98106111       1.56466485
O        3.53432415       4.29234490      11.66183746      -0.30864211      -1.41964870       1.57512046
O        6.00009758       6.40703932       9.16421295       0.42347639       0.74078543       0.50298833
O        6.19023006       5.73911813      15.37282173       0.87046275       0.67574709       0.47560825
O        4.30991442       3.78429518      18.86796776      -2.06355616       1.83232084      -0.98632850
O        8.76049497       3.17618948      12.07507582       0.52554068       0.70238834       0.01386403
O        6.91036895       1.07834924       8.91893330      -1.14548468       2.65183108      -0.06616596
O        1.09724479       6.94806062      15.49727302      -2.32229918      -1.07404127      -1.11334174
O        3.76832640       8.78187158      19.24925639       0.91321393       0.13009170       0.15017888
O        7.88784604       3.97583860      15.72088281       2.13236983      -2.56974805       0.19795742
O        6.25403410       2.29406529      18.86511103       1.63813012      -1.86250754       0.31044537
O        2.04697852       6.07414909      11.79012905      -2.12896596      -0.34297540       1.22569926
O        3.86598914       8.09137412       8.55133756       3.50211465      -2.14255936       0.10123254
O        7.88519806       5.48385828      13.30587021      -0.05217415      -0.54661038       0.03576487
O        4.83764793       2.49561866       7.36935914       1.16327390      -1.06805755       0.47009791
O        2.42306207       4.96423262      14.22938328       0.11502825      -0.81188979      -1.73397612
O        5.62526180       7.02183745      20.65428887      -0.36134233       1.38126144      -1.96786506
O        0.33477128       2.90432470       7.47067478       0.52867590       1.07383257      -1.71021552
O        7.18774729       9.64497787      13.31506006      -0.13666789       1.01443931      -0.10592573
O        9.93835719       7.80881631      20.22282343       0.65965239      -0.86601235      -2.46544452
O        2.68804302       0.57156216      14.27878922      -1.17167004      -0.44747485       3.43008801
80
Lattice="9.77192453 0.01751879 6.90363604 0.24348012 9.76890588 6.90363604 0.01370155 0.0133883 13.86910312" Properties=species:S:1:pos:R:3:forces:R:3 energy=-575.56064184 source_file=vasprun.xml step_index=725 time_fs=47450.0 time_ps=47.45 file_index=23 pbc="T T T"
Na       7.08485262       1.37841376      13.19560924      -0.03515785      -0.54276884       0.24974298
Na       5.56955828       1.71627729      16.30935644      -0.25286224       0.34975301       0.11218640
Na       5.14002726       6.09068840      11.22879395      -0.05705401       0.23148948      -0.33705131
Na       3.20718750       8.68522131      13.99840528       0.38859146       0.09645855       0.27110632
Na       8.97769923       4.56567105      20.33742729      -0.16384308      -0.67134092      -0.56343278
Na       9.40743105       0.84173422       9.86988659      -0.21366140       0.08671248      -0.15157561
Na       1.38054498       6.43930393       6.21426608      -0.00859402       0.19015175      -0.13626927
Na       2.80878310       2.96806162       8.52774719      -0.06457451      -0.16219292       0.05348142
Al       7.33329791       5.42546070       8.94986111      -4.46180545      -0.75589100       0.14575704
Al       4.64861962       2.67416639      11.37070721      -0.31634348      -1.28480144      -0.50960354
Al       2.96731252       4.57064792      18.42732559       1.39343623      -1.34165086      -0.70006375
Al       5.67444238       7.35941706      15.97934063      -1.31176374       0.49619965       2.65953148
Al       0.63397815       2.18905882      11.64244489      -2.00762830       1.34737352      -0.36722481
Al       8.03918092       9.72430949      22.73360737      -0.58911483      -1.13003868       0.97338366
Al       9.86707745       7.60964843      15.58030074      -2.32520617      -0.50913386      -0.20860938
Al       2.06627120       0.38606012       4.60134103       0.04383327       0.58343695       0.42167775
Si       2.63591905       6.15109376      15.60525537       0.04396425      -0.16331644      -4.39140390
Si       4.51352105       7.26671218      19.04423673       0.61505069      -0.06246730       2.23146596
Si       7.29768983       4.25334855      11.98289817       3.19064181       0.42882846       2.37068834
Si       5.94424343       2.52128333       8.42601098       0.19871306      -0.58699685       0.59866902
Si       1.02683033       7.13569205      11.80444594      -3.44721812       2.92572190      -0.22764864
Si       2.65702635       9.19278964       8.24010751      -0.89812960      -0.34673666       1.85060208
Si       9.26561539       2.92759240      15.72059975      -2.19539638      -3.50049963      -2.29556025
Si       7.59910844       0.76555789      18.82064868      -2.07087293       0.36516056       2.91072952
Si       0.53328420       3.00353317       6.01157533      -2.29210461      -2.74904495      -2.03053545
Si       7.31005309       9.64892024      14.91427988       2.14216020      -1.25766397       0.19415969
Si       9.54650434       7.14574316      21.48534782      -0.06266796      -2.50788594       0.04266087
Si       2.86422996       0.31195978      12.41641536       0.02881606      -0.74175744      -2.54395422
Si       7.86317591       5.47701782      14.64744313      -1.88098604       0.84761722       2.49343450
Si       4.81637425       1.98910949       5.50358677      -1.25448362      -1.28911403      -0.69361306
Si       2.43532309       4.55416420      12.79745790       0.13938856      -3.27997643      -1.38866378
Si       5.56194611       7.96584807      21.78286972      -0.85361635      -2.30480215      -0.27206628
O        8.75694308       5.81011643      22.12952493       3.54448202       1.22778990      -2.12418872
O        4.23160693       1.00790054      12.01627054       1.95102844       2.78064053      -0.29414572
O        1.59078411       4.02647606       5.55059339       2.77940039       2.64627141      -0.17387550
O        5.96066539       8.87931069      15.13998773      -1.79002263      -1.14540323       0.49556515
O        1.31170684       3.26570545      12.82642506       1.03018905       2.56007423       0.28525817
O        6.32383714       9.40316792      21.89643806       1.33843908       1.14195127       1.17560373
O        9.13492185       6.37801719      14.45651067       2.81033601       0.80158425       0.09552219
O        3.54119228       0.90124568       5.50353446      -0.12065025      -0.95187915      -0.23521328
O        3.80282800       5.83058650      19.18548745      -1.00526934       0.41210215       1.10357231
O        3.95259103       7.07903650      15.56137968      -0.58099210      -0.01225426      -0.69085677
O        6.70660642       3.87057699       8.23897273       1.30145895       2.22556358      -0.10114739
O        6.28816519       2.98724388      11.96723725       0.20419179       0.42414203       0.08103237
O        1.51800514       8.06081245       7.86453642       0.43278880       0.95014135       0.08385923
O        1.90097927       8.49298336      12.12437717       0.41820081       0.67695931      -0.18084277
O        8.72339866       1.83998169      18.90008075       2.11072224       1.77872330       1.08296983
O        8.14710959       1.59306239      15.36453586       0.69151372       0.38080077       0.78700667
O        2.33787187       5.42980152      16.94833501      -0.40549373      -1.66347607       1.64730675
O        5.42722236       7.39044099      17.83697430       1.99633764       0.71292949      -4.89761648
O        7.43298638       5.05719860      10.61236671      -0.48845310      -0.22092509       1.73115711
O        4.82304905       2.46015224       9.57311152      -1.50991552       0.92019540       1.56274291
O        0.21634881       7.35850077      10.38395561       1.47665585      -0.95557951       1.29425920
O        2.03277186       0.35481979       2.82335053       0.67864858      -1.57513721      -2.39572649
O        0.29049837       3.12385823      10.11307698       1.60437398      -0.16363890       2.04190444
O        8.12763154       9.61652123      24.51825837      -0.30768297      -2.11650744      -2.95130257
O        8.85809414       8.33683967      22.17306801      -0.16810856       2.23123228       0.26281761
O        1.74426838       0.97957141      11.39674618       1.22658470      -2.24216411       0.37394279
O        0.78801147       1.66668369       4.97733003      -0.33032744      -0.30353234       0.95251035
O        8.60078961       8.78408180      15.47527808      -0.62178951       2.19174177       0.44290777
O        3.73210217       4.18753958      11.75099476      -0.33531260      -0.87797940       0.70323855
O        5.99364520       6.65680868       8.84592362       0.79626307       0.44812730       0.91672049
O        6.84173408       6.16258013      15.75189250       1.01360968      -1.29165732      -1.19830033
O        4.31854569       3.19356890      18.47283663      -2.22038260       2.84023439      -1.03324208
O        8.85073845       3.74677978      12.60007532      -1.24153856      -0.95575701      -1.09940890
O        6.99939350       1.32409457       8.80598750       1.14371387      -0.26388128      -0.10439553
O        1.37015150       6.97243885      14.74209684       2.57601233      -0.01197593       2.84777332
O        3.36173965       8.45963776      19.15316099      -0.59506187      -0.36168877       0.07669399
O        8.27405921       4.00849941      15.22084765      -1.40489311       2.04936145       0.02445845
O        6.16856594       1.59945434      18.51442612       0.23471059      -0.86259496      -0.04325051
O        1.88026194       5.86098376      12.08959812       0.33426598      -0.21083453      -1.57604163
O        3.92520411       8.15306074      22.22739803       1.53917863       1.09282589       0.21222209
O        7.03526683       5.33154689      13.27728887      -1.51348932      -1.07130960      -2.86842958
O        5.17263455       2.12180815       7.06768182      -0.65685823       0.23624262      -0.34100791
O        2.83659004       5.01774581      14.23424058       0.91853945       0.42505082       3.31851292
O        5.70047667       7.28061729      20.27736429      -1.48341470       1.50685204       0.59930944
O        0.57794962       2.59017205       7.61556918       1.54256938       0.30206321      -1.01841345
O        7.29328062       0.01876140       6.42734223       0.46680198       0.70820422      -2.22399118
O        9.53214341       7.00221830      19.87136482      -0.21237843       0.19961773      -1.73096079
O        2.53870744       0.49282314      13.96542520      -0.55161446       0.62473802       2.31070360
80
Lattice="9.77192453 0.01751879 6.90363604 0.24348012 9.76890588 6.90363604 0.01370155 0.0133883 13.86910312" Properties=species:S:1:pos:R:3:forces:R:3 energy=-575.18576446 source_file=vasprun.xml step_index=440 time_fs=62880.0 time_ps=62.88 file_index=31 pbc="T T T"
Na       9.00218726       2.28516280       8.07420379       0.21237050       0.06324261      -0.18678539
Na       7.55428439       5.91687719      18.01680440       0.23760420       0.06901238      -0.05972520
Na       9.11149241       6.77232983      12.36745739      -0.09129413       0.14934329      -0.68116011
Na       3.80152321       8.57582330      13.77319710      -0.36388231       0.50154936      -0.24882650
Na       6.70237427       9.28664997      17.87073149       0.15662911       0.18646861       0.34148146
Na       5.24541451       1.85594640      15.79918770       0.09481892      -0.12870482       0.03051688
Na       2.45082909       3.30374696       8.04055691      -0.00134345      -0.23663468       0.35844340
Na       4.80100810       5.43551862      11.00472318      -0.07394593       0.70183417       0.09349236
Al       6.89074033       5.62824346       9.02249026       0.67697051       0.44443153       0.91358809
Al       4.54972091       2.63142702      11.20037346       0.56423476       2.14183515      -0.57963369
Al       2.79185534       4.52880986      18.06195370      -0.30122352      -1.61454413       0.48889633
Al       5.19035445       7.23161832      15.97946439       2.04232410      -0.99117439      -1.66638944
Al       0.38623565       2.16346870      11.51014841      -1.35011177       2.53625457      -0.58964039
Al       7.78701854       9.36091512      22.93435966       2.44744852       1.30689241      -2.16431363
Al       9.53024808       7.81188361      15.57555200      -0.61731561       0.89151806       1.64420591
Al       1.72246055       0.52374699       4.52014573      -0.54702524      -2.17887736      -1.47703984
Si       2.27449989       5.91011352      15.24807316       0.29245525       0.77565598       2.29156315
Si       4.17651892       7.44512338      18.90022065       1.93838551      -3.48863243      -0.58903927
Si       7.40747354       4.28573110      11.92712485       0.23059434      -1.02389143       2.35294857
Si       5.61464225       2.69746399       8.19599045       0.32893309      -0.01962446       2.27016977
Si       0.82616852       7.05501766      11.56374828      -1.22535062       2.21928531       1.32068154
Si       2.43820252       9.41530891       8.41597537      -1.82499108      -0.69353039      -2.46143273
Si       9.12293803       2.56935032      15.53769067       0.67525896       1.02612147       0.29078467
Si       7.46921227       0.52164010      19.00084989      -1.73408986       0.02988377      -1.87705605
Si       0.33653004       2.60080540       5.66265537      -0.72521165       3.67408431       0.87168928
Si       7.06952615       9.65706186      14.99467910       0.66224423      -5.05871011       0.10569977
Si       9.34503866       7.20424895      21.23893858       0.42840755      -0.72839179       2.29390489
Si       2.86629351       0.43681282      12.52445822       0.34231801       2.18692277      -0.84243643
Si       7.75165189       5.45001790      14.81847943      -0.98757358      -0.47754252      -1.29963502
Si       4.53307770       1.87105743       5.16516134      -1.32676527       0.82265537       2.47540906
Si       2.06815623       4.51440326      12.44712501      -1.09229000      -2.39334559      -0.83480407
Si       5.08327099       7.87283958      21.95374244      -0.10401045       2.07009763      -0.61189879
O        8.34539381       6.20123691      22.09499068      -0.51039510      -0.50353394      -0.38188447
O        4.23177794       1.24801961      12.03002136      -0.47632428      -1.98226986       1.12030320
O        1.46467569       3.63216624       5.08814026       2.48671889      -0.40891982       0.67015303
O        5.64364444       8.78073003      15.23897147       1.26809568       1.41081605      -0.59405088
O        0.63158670       3.66906014      12.43179981       1.64042798       0.01377482       0.49829718
O        6.28431404       9.08856882      22.19437884      -3.90273758      -1.48813458      -0.60137320
O        8.87253311       6.58117600      14.53385739       0.59386798       0.16446945      -0.36325843
O        3.28730192       0.76471174       5.32901430       0.38201672       0.53305427       0.30389277
O        3.42051251       6.00098995      18.78674427      -0.22355131       0.27018417       0.20148580
O        3.68354255       6.87274120      15.28505898      -1.57636225      -1.41842146      -0.33753638
O        6.36593577       4.14162206       8.22179510       0.31347088      -0.63368661       0.59075930
O        6.15520192       3.36018263      11.54449177      -0.55341961      -0.92237802      -0.45612539
O        1.00011499       8.70023893       7.82454449       1.30644379       0.57297927       1.29581647
O        1.40702639       8.56967697      11.70912349       1.75482207      -0.50793391       0.45331229
O        8.54329596       1.72804654      18.92747673      -0.70435905      -1.00910697       0.62492086
O        7.97413522       1.42652409      15.60076854      -0.23654503      -0.32318224       0.69519029
O        1.95425717       4.92640033      16.57064640       1.37534345       0.89099342      -1.28716110
O        5.27875715       7.44880923      17.62220470       0.03003891       0.33455417       3.43587488
O        7.47776271       5.54435690      10.99724251      -0.88064947       1.94666386      -4.34813494
O        4.48154278       2.55675661       9.41668722       0.60928850       0.24427511      -0.76205728
O        9.63870602       7.06342997      17.24541084      -1.46479361       0.04082875      -4.32781332
O        2.08974325       0.67895927       2.70818055      -0.47905059       0.18503415       2.17740430
O        0.49215865       2.71409039       9.82835853      -1.10348933      -0.76477610      -0.43790860
O        7.70581538       9.18411171      24.66359295       1.15415597       0.22209625       0.91393396
O        8.86089129       8.65703059      21.60327809      -0.66714409       1.69039822       1.19545430
O        1.50243939       1.03685170      11.90668578       2.05251270      -2.13383586       0.61775134
O        0.14542822       1.19889681       5.00404481       1.16291416      -1.11546435      -1.10518333
O        8.28336017       9.11239229      15.99552249      -1.00150875      -0.22061553      -0.63017173
O        3.43642547       3.89759924      11.77241673      -0.58563084      -0.19522509       0.17493231
O        5.27745140       6.64672086       9.10926825       2.66325948      -2.07814899       0.21863573
O        6.61003129       6.07419711      15.75108908      -1.26488197       0.51890313       0.90819383
O        4.17600689       3.08466526      18.03184295      -0.94286687       1.44268396      -0.25671438
O        8.92989898       3.68639020      12.06666983      -1.93584841      -0.79174259       0.46933914
O        6.76603602       1.40804826       8.37805940      -1.08097369       4.72132277       0.79274869
O        1.11363795       7.07287613      15.17507399      -1.10596891      -0.63399869      -1.92691419
O        3.42049377       8.78896276      18.73267205      -2.24865521       0.53091065      -0.04522586
O        8.40011947       4.12146712      15.43690268       0.76752211      -2.02986443       0.70602308
O        5.92565924       1.23191715      18.66367647       2.30901964      -1.28800042      -0.38703175
O        1.77618153       5.75709984      11.46154227       0.89500645       1.59057381      -0.03587353
O        3.46816842       8.17541937       8.46169630       1.42912399      -0.06489515       0.58789431
O        7.03996364       5.00046182      13.39026836       0.14454830       0.07834406       0.32949525
O        4.92924743       2.40457702       6.81905193      -2.13001756      -0.32464209      -2.97281546
O        2.38733341       4.97357426      13.94813044       0.32066800       0.00302519       0.21281847
O        5.01089599       7.52454513      20.30703154       0.86051426       0.00190042       1.24110321
O        0.46016967       2.38021900       7.35019949      -0.88749433       0.70580527      -1.20799610
O        7.61966820       9.43376691      13.46071770      -0.04032783       0.43918624      -1.07707922
O        9.31193667       6.87644062      19.61146099       1.40269839      -0.33344848       1.10715752
O        2.82330362       0.59110516      14.14413339       0.09597089      -0.16205068       0.01453507
80
Lattice="9.77192453 0.01751879 6.90363604 0.24348012 9.76890588 6.90363604 0.01370155 0.0133883 13.86910312" Properties=species:S:1:pos:R:3:forces:R:3 energy=-575.42596844 source_file=vasprun.xml step_index=375 time_fs=6750.0 time_ps=6.75 file_index=3 pbc="T T T"
Na       8.19187100       6.19184089      18.53181673      -0.96626033       0.32563847      -0.18492447
Na       6.35356037       1.66306794      13.58320717       0.17528799      -0.03906589      -0.32420270
Na       2.81900580       1.64278830       8.60687317      -0.03467293       0.08691122      -0.25040198
Na       8.00162523       7.92528018      11.50734281       0.06492722      -1.25533745       0.08053619
Na       0.30002557       3.64830975      14.01824284      -0.76291179       0.00423598       0.81151904
Na       3.13817823       2.41026559      16.43671219       0.06821754       0.14952758      -0.73534320
Na       2.34045956       6.43030224       6.85139004      -0.06090512      -0.00042414      -0.09578108
Na       4.18934468       8.17916805      13.53214627       0.10457666       0.32637556      -0.36929916
Al       7.54282886       5.49204079      22.78165944      -0.13184270       0.38882656       3.01650853
Al       4.72353147       3.10262948      11.15303894       2.95327513      -0.71661558       0.15460382
Al       3.36857007       4.57120454      18.32517334      -1.33806481       3.99297964       0.12701302
Al       5.85509339       7.09406430      15.70404613       3.79536973       1.03002882       3.21152109
Al       0.92000510       2.13448635      11.45629645      -0.91283577      -1.14904340      -0.58147805
Al       8.25992830       9.75499301      22.70496012       0.16753251      -0.46773810      -2.60325281
Al       9.88553535       7.79644495      15.85735893       0.04728918       1.34816431       0.50099085
Al       2.48707747       0.54486529       4.60780411       0.60776970      -0.58395266      -0.50992143
Si       2.96609853       5.79351588      15.40724468       2.38655665       0.24215718      -3.61290826
Si       4.89683912       7.54389238      18.82867981       3.71092251      -4.21084819      -0.11479636
Si       7.90488899       4.33218953      11.81000776      -2.97993559      -1.21737563      -3.63975618
Si       5.91931232       2.74010786       8.32265382       2.48733547      -0.01592391       0.14829336
Si       1.02158403       7.65772565      12.07481649       1.67124236      -0.09883721       1.46379511
Si       3.23210039       9.14332799      22.38529003      -2.05199873       0.22115471       0.76595537
Si       9.54505826       2.57394089      15.38355523       1.78486748       2.72066467      -0.80829441
Si       7.67610641       1.09476440      18.76872414       0.64861471       1.15212222      -1.31738375
Si       0.86941039       3.02609282       5.34397183       0.58326839      -1.43354806       1.32276491
Si       7.52711364       9.67875177      14.78017723      -0.97466059       1.35840635       0.59219071
Si       0.18807523       7.03747058      14.94817212      -0.09175051       4.17706843       1.64467205
Si       3.10210424       0.50977340      12.51760980       1.95669515      -1.63021930       1.87657979
Si       8.38421480       5.38172766      14.77819119       0.01984248       0.62312843       2.32128452
Si       4.88956389       2.09025604       5.45784659       0.14982120       2.53750497       0.59093502
Si       2.58210175       4.86717375      12.40421288       1.61790119      -2.94951848       3.03069998
Si       6.01114145       7.94721777      21.70872946       1.16475908      -0.51979351      -2.41782594
O        9.08426334       5.74907590      22.08209236       1.19760497      -0.87820239      -0.65280021
O        4.17644442       1.73379478      12.19978925      -0.72197333      -0.73230303      -0.35071786
O        2.08726815       4.10442508       5.60980472      -1.55112767       0.69787459      -0.23419820
O        6.30229604       8.61509906      14.78739801      -1.16429126      -1.60636103       0.18297524
O        1.60863224       3.55446241      12.31078288      -1.09460325      -0.74279977      -1.66010429
O        6.96083691       9.32740716      21.52739345      -0.99560620      -0.54458751       1.47618480
O        9.37352805       6.70493610      14.49803288       0.51990699      -1.01575270       0.63937225
O        4.04345970       0.70854182       5.64985062      -1.20924780       0.44410449      -0.22896272
O        3.91610357       6.20908802      18.69138136       0.00717548       0.36077501       1.32343740
O        4.55628627       6.37217583      14.95959956      -3.74847133      -0.13492563       0.05225141
O        7.10209793       3.92212246       8.42985122      -1.86548348      -1.42605139      -0.38866609
O        6.57501953       3.27931394      11.60695547      -0.54733931       0.58484936       0.08850371
O        1.81686794       8.29647994       8.67410384      -0.50202551      -0.84171497      -0.91065304
O        1.81585722       9.06522480      12.27386064       0.20816313      -1.22956688       0.29092698
O        9.04580398       2.03537681      19.14653355      -0.16541943      -0.65817490      -1.58234469
O        8.23291414       1.70711589      15.26816230      -0.86927155      -1.38405113       0.34503462
O        2.98868740       4.87536992      16.63065817      -0.41611546      -2.19688363       2.48668410
O        5.85492817       7.55729390      17.51086734      -1.02068198       0.38727863      -1.03726588
O        7.75620668       5.68583844      10.81749950       0.97818633      -2.18318945       0.19045998
O        4.69846565       2.62662045       9.38114140      -0.65566151       0.77694889       1.94429888
O        9.84513043       7.48521537      17.76460898      -0.99522321      -0.20270542      -4.10747089
O        3.45306637       9.75253561       9.98839370       0.26111478       1.33829036       0.16931561
O        0.86866115       2.14003446       9.64868957      -0.38577780       0.17381256       0.16815399
O        7.95125385       9.76686426      24.34250879      -0.43445783       2.58531156       4.45594193
O        9.41181918       8.42835489      22.72653614       0.97951916      -1.93421756      -1.46231294
O        1.75138184       0.42866162      11.61103077       0.29690435       2.30178243       1.00567627
O        1.45930703       1.92908679       4.19946099       0.52849895       0.16565652       1.67029986
O        8.78305158       9.15385521      15.59532902       0.90557905      -0.36601921      -0.12934472
O        3.96454464       4.54364726      11.68700861      -0.01443529       0.38709101      -0.71228967
O        6.54702106       6.87670095      22.83281651      -1.10258238       1.74300169      -1.52011892
O        7.30085274       5.91645391      15.99529688      -0.14222060       0.08369786      -2.67100686
O        4.23992897       3.21307942      18.29874801       1.64394545      -3.66943477       0.20553502
O        9.18212177       3.29460661      11.59636235      -0.05998816       1.54355027      -0.06962358
O        6.85963769       1.37294646       8.55426469      -0.81031260       0.00934317      -0.79278796
O        1.79714406       6.92254313      15.46434905      -0.71803102       0.23968549      -0.86099034
O        4.07027467       8.71312393      19.40434652      -2.36624199       3.99970578      -0.61967670
O        9.23272440       4.22955187      15.72499885      -0.42056636      -0.83690455      -1.73743539
O        6.32202025       2.03385301      18.57473442       1.90693187      -0.95636971      -0.42124039
O        2.09992026       6.31566879      12.13685507      -1.40854773       3.40591794      -0.77862985
O        4.40018767       8.18735034      21.92906455       1.74705966      -1.67424722       0.45422616
O        7.85091339       4.80834914      13.30363786       0.49589173       1.37330309       4.21430059
O        5.09433769       2.97610696       6.91026213      -0.07735352      -1.63374867      -1.12605671
O        2.76341511       4.73290375      14.13563296      -0.88257814       0.56343478      -1.01932876
O        6.14377260       7.31104139      20.09791571      -1.58062031       0.04995713       0.26898883
O        0.53900420       2.46567417       6.97126788       0.65468095       0.17789346      -0.72098367
O        7.35400307       0.32489671       6.26364793       0.53259200      -2.05391951       0.72007171
O        9.79602169       7.44490480      20.25297753       0.33086447      -0.57857699       0.54672988
O        3.02662173       0.48368990      14.26721358      -1.13411564       1.66855828      -1.19136709
80
Lattice="9.77192453 0.01751879 6.90363604 0.24348012 9.76890588 6.90363604 0.01370155 0.0133883 13.86910312" Properties=species:S:1:pos:R:3:forces:R:3 energy=-574.50062796 source_file=vasprun.xml step_index=725 time_fs=75450.0 time_ps=75.45 file_index=37 pbc="T T T"
Na       8.50411903       4.21265463      19.98359287       0.38544420      -0.16156009       0.21754242
Na       7.93081842       1.60303980      10.55374810      -0.00055707      -0.13349662       0.06618933
Na       5.31368936       4.30304318      17.01325594       0.73798248      -0.23040687      -0.72298905
Na       7.69020013       7.25916025      12.23597912       0.26355971       0.28232716       0.21970736
Na       1.59365718       2.71643252      16.78359348       0.20436507      -0.14260501      -0.68507792
Na       5.84056709       1.19971368      13.54011047       1.00893072       0.02649041       0.97036241
Na       3.23985930       8.36279689      14.08594835      -0.16321929       0.82288281      -0.66423772
Na       3.24972107       5.49090320       7.86594193      -0.17133972       0.06924782       0.23273308
Al       7.06227944       5.58201326       9.03905847       0.86253992      -4.20468872       0.79762803
Al       4.49546156       2.79169798      11.46101818       1.90131144      -1.38954798       1.53071064
Al       3.03876457       4.61252351      18.61397257      -1.72703063      -1.93860707       0.48104888
Al       5.24502119       7.17661724      16.01895224       0.64354926       0.63553891      -0.53901881
Al       0.66352823       2.04306504      11.39802911      -0.94778203       1.83038021       2.04736427
Al       7.68701251       9.61273159      23.09499248       1.99623375      -0.79618409      -0.12940228
Al       9.56164690       7.96615847      16.02993608      -1.67693827      -3.24835528      -0.97890844
Al       2.00242718       0.35186901       4.66311683       2.94220112       1.02248332       0.35872914
Si       2.55676241       5.61535883      15.44270533      -0.48229672       1.25472697       1.53317439
Si       4.46496266       7.26686432      19.19087515      -4.17239456       3.45257471      -3.39264951
Si       7.35747756       4.32133610      11.89601026       0.06605140      -2.47800046       3.35780869
Si       5.55385334       2.61968466       8.61697462      -1.79956855       2.31775426      -0.09745080
Si       0.66464744       7.43110930      12.02582362       1.67081904      -1.40779848       3.25489036
Si       2.50629505       9.11456796       8.43733539       0.94977329      -1.09789395      -0.04603506
Si       8.90840257       2.60622628      15.67109912       1.13122019      -2.20269957      -1.37607265
Si       7.64263217       0.76793591      19.31129999       1.45291987       2.17257757      -1.82093698
Si       0.39564807       3.01065479       5.77779107      -2.16770170      -1.23359359      -0.97011489
Si       7.07715432       9.52081752      15.10746351      -0.75649670      -1.14285233       0.59095053
Si       9.50351936       6.94459671      21.84924763      -0.74896388       1.04246769      -1.20790512
Si       2.95167294       0.31825811      12.64292531      -1.95654529       1.76606593      -0.56423820
Si       7.81873178       5.22976201      15.13216460      -2.08864554       3.20055616      -1.33436364
Si       4.62197522       1.98221816       5.63914959       1.49903560      -0.49645925       3.56465447
Si       2.19760392       4.68696966      12.52266005      -2.16535252      -0.75748075       3.06054306
Si       5.39001467       7.85362311      21.92003757      -2.50824539       0.86347356       2.74276118
O        8.41528431       5.66064006      21.86848159       2.39146288       1.36073236      -0.09110945
O        4.18366272       1.25682709      12.28273015       1.26351914       0.51190159      -0.57475808
O        1.51587680       4.16723163       5.69195597       0.90674415      -0.54508859      -0.73447301
O        5.84283477       8.41363059      14.88174229       0.53089783       1.87474720       0.69774339
O        0.97728776       3.66113162      12.29931132      -0.90087328      -0.24013213      -1.39828627
O        6.12410565       9.29163140      22.22988724       0.23975730      -1.10105475       0.13564196
O        8.91975753       6.39886715      15.04069836       0.49348303       0.31893009       0.96503903
O        3.63284971       0.75961734       5.66059478      -3.00855115      -2.01883924      -1.46196770
O        3.36977039       6.05886978      19.40063002       2.15836327       0.25591789       0.44426149
O        3.72524691       6.69503955      15.28166157       1.47257530      -0.15256364       0.26216069
O        6.63765751       3.85594552       8.58631644      -0.86760352      -0.34742516      -0.01650540
O        6.27513092       3.02187560      11.89511873      -0.36537332       1.27958200      -0.14584561
O        1.11076582       8.21328217       8.00831467       1.92749965       2.35360193       1.68610796
O        1.55358915       8.75553380      12.17574343      -0.29820506      -1.05967012       0.91283229
O        8.92513461       1.96531511      19.39013427      -2.41030300      -2.61897660      -1.20325037
O        7.78970141       1.45171976      15.42087361      -0.49991463      -1.83450737       1.24015640
O        2.85979273       4.79786798      16.89584605      -0.62784077      -0.01847959      -1.33727189
O        5.06762114       7.64947977      17.70126625       0.21361870      -1.70535512       1.00408187
O        7.57443606       5.31677818      10.71322620      -0.84429558       2.26534003      -0.87690335
O        4.41307266       2.78466943       9.82728046       1.28167346      -0.42611120      -3.73136116
O        9.73624085       7.14294632      17.59569462      -0.67554263       0.61469783      -2.67339038
O        2.29652533       0.29091913       2.94245996      -0.50029590      -0.99107745      -1.52732736
O        0.39158974       2.35875628       9.72211985      -0.40708149      -0.22479182       0.16986126
O        7.87317450       9.45101625      24.95889174      -0.00625074       0.58717296      -1.12666074
O        8.97345311       8.29942778      22.56877571      -1.61053795       0.57451689       0.76251108
O        1.71621510       0.74873496      11.67366240       0.26810592      -0.00114959       0.69688774
O        0.84517147       1.58330620       4.85946181      -1.30587239       3.58414629       1.33553522
O        8.15474528       9.02314210      16.24348100       0.36088709       0.58012302      -0.28364466
O        3.45452778       3.87589028      12.10672177       0.81189847       2.20333152      -0.14138706
O        5.71599784       6.50384095       8.86179986      -0.44260071       1.21099973       0.45687194
O        6.39112068       5.92674672      15.75196901       1.25783806      -2.40321508       0.25751165
O        4.21015266       3.16623259      18.52505332      -1.00192368       2.43272291      -0.66349925
O        8.70705677       3.40279372      11.85890068       2.84358074      -0.98123607      -0.26599647
O        6.49541914       1.30775861       8.66889485       0.13773861      -1.51843557       0.53559372
O        1.30946408       6.71230336      15.45094602      -1.72696517      -0.59774791       0.15485318
O        3.32587256       8.55956708      19.32039792       1.88987239      -3.79313265      -0.08395181
O        8.00191111       3.85697588      16.07970129      -0.99807691       2.91764461      -0.56292324
O        6.17842186       1.49555060      19.21410714      -0.52413464       1.18323396      -0.21431570
O        1.84865068       6.26948922      12.39457627       0.59301936      -0.18281840      -1.15003584
O        3.71099369       7.80323615       8.53795917      -0.47905042       2.45860763      -0.76308206
O        7.41246377       5.16998625      13.36476652      -0.19529164      -1.02581056       0.59360787
O        4.55941183       2.55000807       7.28632266       0.66744380       0.09763640      -1.64271914
O        2.30054540       4.60023540      14.26989197       0.28045748      -1.07951208      -0.68399174
O        5.43981676       7.37165058      20.40412948       2.12117693      -0.05673917      -0.45068115
O        9.48565867       2.80652122      14.15222187       1.42184059       0.35457853      -0.70139648
O        7.84104295       9.67748784      13.69214150       0.59654105      -1.19949179       0.46054004
O        9.40605216       7.26005864      20.18703874       0.33610564       0.01324803       0.45080557
O        2.80927648       0.49839098      14.29426493      -0.94129159      -0.59851001       0.79629743
80
Lattice="9.77192453 0.01751879 6.90363604 0.24348012 9.76890588 6.90363604 0.01370155 0.0133883 13.86910312" Properties=species:S:1:pos:R:3:forces:R:3 energy=-575.87870912 source_file=vasprun.xml step_index=320 time_fs=22640.0 time_ps=22.64 file_index=11 pbc="T T T"
Na       2.32395946       2.64502492      15.88998179      -0.15681325      -0.08944586      -0.32990993
Na       5.59910103       3.97429723      16.99079386       0.32271620       0.33062203       0.28040796
Na       7.93906048       7.16593220      11.93008075      -0.14102477       0.09340003      -0.13886593
Na       1.40008198       9.32053155      16.16574679      -0.40093494      -0.04823534       0.20516877
Na       8.77750321       3.76075250      20.47903397      -1.03107654      -0.01367937       0.33869128
Na       6.51701593       0.71777435      13.70202887       0.05743249       0.85635444      -0.85074580
Na       1.62036447       5.56062749       7.52579804       0.04253276       0.76426019       0.36350432
Na       4.13477456       9.33564796      14.01579921       0.03946769      -0.29027751      -0.54226451
Al       7.12438998       5.17473168       9.10237996      -1.78358843       1.03473821      -0.98561020
Al       4.60268179       3.17002416      11.63953295      -0.19437004      -1.01011712       0.25698727
Al       2.81552293       5.00181976      18.52626889       1.06473593      -1.78776097       1.09193638
Al       5.30337614       7.11590492      15.87318266       2.81804043      -0.35651949       0.00700249
Al       0.66176647       1.89833769      11.56451149      -2.07702439       3.21994747       0.92136660
Al       7.86305423       9.22373095      23.26608260       1.17965613       0.28314563      -5.70484609
Al       9.57900919       7.80098874      16.26476275      -0.05728749       0.08952365       0.64556626
Al       2.25175739       0.60670814       4.52344941      -0.65708214      -1.40462159       4.24815838
Si       2.74713838       5.74748957      15.29726602      -0.92151058       0.80054426       0.33544922
Si       4.38655588       7.46658582      19.00438088       0.99476714      -1.63166110       0.79691728
Si       7.56510160       4.01606355      12.05013063       1.36711171       2.91883352       0.40387403
Si       5.50363460       2.61880323       8.55386541      -0.11198014       2.33756997      -0.16483522
Si       0.89461266       7.64998686      12.43493400       2.21032969       0.19149012       2.06013850
Si       2.48194936       9.14924961       8.57299469       2.71049394      -0.74599658      -0.04453497
Si       9.08146968       2.39863593      15.63912468      -1.94033859       1.18382785      -4.00275100
Si       7.52836257       0.79889069      19.16596906      -1.26920016       0.76451193      -0.58943338
Si       0.60423044       2.96119837       5.91760791      -0.50172727      -0.12706275      -1.31302671
Si       7.28531996       9.66319583      15.05887863      -0.27187245       1.13446038       2.84395529
Si       9.43249256       6.88348041      22.05477350       2.76731539       0.05162079      -2.09514550
Si       3.07157925       0.52001001      12.54875458      -3.87583760       0.27524872       2.48756230
Si       7.86047384       5.34590404      14.85914928      -1.07888385      -1.22827135       2.62640082
Si       4.58801244       2.37066333       5.75224206       1.98131127       0.90077231      -2.45701609
Si       2.04411552       4.62673855      12.70081704      -0.77198812       0.02113684       2.09895540
Si       5.50733034       7.89843133      21.96637842      -1.85689937      -2.56333873       1.32768022
O        8.52902994       5.56616915      21.96165656       0.38628343       0.07194275      -0.24131234
O        4.22037719       1.55390853      12.49536582       1.08456906       3.69738828      -0.51319451
O        1.54517093       4.25919785       5.76305732       0.27551302       1.12737727      -0.57192086
O        6.10442419       8.67510548      15.41836131      -3.10881264      -1.95570757       0.43418987
O        0.87679513       3.48824663      12.58729863       0.84226702      -0.55918554      -1.23590322
O        6.62848772       8.99293106      22.04267710       1.36689496       1.83238618       0.93926576
O        8.97168202       6.36765864      15.38109398       1.02919432       0.36159313       0.27317588
O        3.87422861       1.13501490       4.99478115      -0.62755793      -0.39606130       0.31461781
O        3.03836806       6.52733437      19.25817007       0.72143707       1.40778116       0.43880219
O        3.93783529       6.89480013      14.81523054      -2.39415871      -1.10551958       1.06046621
O        6.54708457       3.82458183       8.09105760      -0.80157425       0.27307242       0.57942043
O        6.21803138       3.25640154      12.36932027      -0.50253275      -0.69897111       0.06420989
O        1.36188299       7.95660488       8.41787816       0.35076955       0.83094030       0.82655341
O        2.09727954       8.76519368      12.47180438       0.60143679       1.70496265      -0.70549151
O        8.94464508       1.59851100      19.33817015      -1.51881151      -1.03703735       0.18990725
O        8.22164156       1.03933836      15.65593166      -0.71138560      -0.57022026      -0.60920172
O        2.98459117       5.04332455      16.77062299       0.46930611      -0.78039621       0.33234542
O        5.05440295       6.91602065      17.58521334      -0.44755679       0.94453994       1.54485558
O        7.36543832       5.14825648      10.83673111       0.73712537      -1.67838385       0.13450713
O        4.70240405       3.02731141       9.89546870       0.10921370      -0.57667112      -0.18884197
O        9.74261230       7.68551725      18.12004113      -1.97144382       0.14929657      -5.08185737
O        2.07575895       0.46280133       2.90834124      -0.45307134      -1.04590852      -3.48828574
O        0.21745767       2.29719014       9.94444194       2.89127961       0.35844815       3.23957974
O        7.79528045       9.41802690      24.83131015      -0.90161352       1.94243468       6.31448607
O        9.14765892       7.95417867      23.17945203      -1.07262170       1.40771758       1.32789511
O        1.70855237       0.60278440      11.52861409       2.54084461      -0.75739009       1.04750004
O        1.10925106       1.80572402       5.00709955       2.04623543      -1.88194902      -1.05325036
O        8.56796639       9.16177363      15.83567670       1.17189190       0.17094985       0.43042277
O        3.34807558       4.34365822      11.94403648       2.81146044      -1.16043678      -2.24501556
O        6.12069080       6.66147715       9.00723518      -0.56195359      -0.11083505      -0.39155244
O        6.39962113       5.65433975      15.52598414      -0.72198237       0.97210918       0.09174504
O        4.25376123       3.92003126      19.12300112      -0.38288536      -0.77408869      -0.87795722
O        8.95810796       3.12840304      12.03630051      -3.11388664       1.58768810      -0.33202205
O        6.56978400       1.45789748       8.62784955       1.51383484      -3.60334358      -0.23151518
O        1.19888163       6.32111386      15.52437472       0.98875281       0.53035956      -0.18213587
O        4.05842436       9.02922693      19.00078008       0.52359569      -2.76945196      -1.85607670
O        8.14963798       3.77953367      15.40923389       0.32551151      -0.84137239       0.64801022
O        6.30590630       2.12104095      18.98612175       0.06295611      -1.52332094       1.29265755
O        1.67211395       6.18721213      12.53328010      -0.58238547      -0.36482937       0.17302829
O        4.06042041       8.46466172       8.76909827      -0.62217657      -0.39479753      -0.54843259
O        7.80685692       5.24912664      13.27562593       0.21780843      -0.52780784      -2.07931236
O        4.35692898       2.20931346       7.35360939       0.84640316      -0.12120984       1.01985111
O        2.60426453       4.43237879      14.32546699      -0.28007439       0.37318518      -0.13959290
O        5.40270185       7.55106772      20.37390043      -0.90879293      -1.18005781      -1.53689826
O        0.34390754       2.46820068       7.40130249      -0.24094879      -0.22624481       2.01107428
O        7.41033392       9.51101153      13.47884170       0.50036052       1.34400849      -2.96732063
O        9.71941246       7.84147160      20.67800440      -0.61393803      -0.93544270       1.12374390
O        2.55606797       0.41146591      14.27744869      -0.32738527       0.55427080      -2.87150245
80
Lattice="9.77192453 0.01751879 6.90363604 0.24348012 9.76890588 6.90363604 0.01370155 0.0133883 13.86910312" Properties=species:S:1:pos:R:3:forces:R:3 energy=-576.75994692 source_file=vasprun.xml step_index=410 time_fs=64820.0 time_ps=64.82 file_index=32 pbc="T T T"
Na       7.94576286       3.39100046      20.30505383       0.24428073       1.11218480       0.72266296
Na       7.31554347       7.59275050      19.19953693       0.21602608      -0.57259858      -0.49041179
Na       2.95823375       5.65228970       9.83427465       0.18440806       0.28838052      -0.12168979
Na       5.14382357       8.25012178      12.32265028       0.31481859       0.16069434       0.27279096
Na       3.33851986       2.72017602      14.89451247      -0.05935286      -0.43349807       0.68555521
Na       6.63970029       0.84923272      13.39309922      -0.26455452       0.72722656       0.41165784
Na       1.83011527       1.06213013       7.59541823       0.32395512       0.08274853       0.21786694
Na       0.53842234       6.54806571      18.49867487      -0.12276610      -0.18606657      -0.00259567
Al       6.82298658       5.21858849       9.19637735       1.54878275       1.11075651       1.23612584
Al       4.54470987       2.86595479      11.59050217      -3.24897683      -0.52190469       0.43673178
Al       2.79824983       4.54154246      18.59942058       2.11014988      -0.64329209      -0.33794810
Al       5.31066892       7.20923488      15.91254129      -0.65538066       1.59655237       1.28992162
Al       0.64654488       2.37726197      11.44745848      -1.11388198       0.55318932       3.28423624
Al       7.95006170       9.40653221      23.10393584      -1.71833430       1.11664875      -0.67416940
Al       9.35887932       7.51993480      16.11443257       0.90136790      -2.22039928      -0.39298984
Al       2.15956829       0.40355829       4.53491140      -0.21065904       2.15010061      -0.96619353
Si       2.59247351       5.46962850      15.72864724      -1.58595183       1.90650416      -0.11659036
Si       4.21146359       7.44916901      18.95668898       1.10562981      -1.96071427      -0.08462824
Si       7.39056990       4.26898756      12.14515417      -0.53787457      -0.42471534      -1.97257775
Si       5.29129553       2.33511292       8.69103657      -0.20794535      -2.65107429       0.58211764
Si       0.75942390       7.56580377      12.21832375      -0.41979717      -1.41056444      -0.17062881
Si       2.39771236       9.14226765       8.57098981      -0.31490056      -2.20472592      -0.86820456
Si       9.11717826       2.48450330      15.56650097       0.77406191      -0.88785572       0.36492748
Si       7.53437893       0.86823972      19.22213832       1.02570941      -0.19544125      -2.44647940
Si       0.42028854       3.08819001       5.61496057      -2.01647796      -0.46482244       2.32901198
Si       7.00946816       9.38599099      15.02306298      -0.26075541      -0.46130223       0.00909002
Si       9.46951056       6.80968663      22.02024014      -1.95594618      -2.95387779      -0.74581521
Si       2.83431324       0.65356060      12.80312673       1.30178549      -2.67170640       1.61428948
Si       7.66994317       5.17774510      15.17570882      -0.93969665      -0.50949406      -0.84451629
Si       4.69844466       1.97594063       5.52741132      -2.40493272       2.66010998       2.50852368
Si       2.06131100       4.86277412      12.73233224       0.79462727      -0.27390776      -1.55408062
Si       5.28130431       7.74883268      21.87509213      -0.50386205       1.76703514       1.14171265
O        8.30517499       5.49909025      22.05210988       0.20701522       1.98578045      -0.00402361
O        4.15963268       1.61291268      13.04397714       0.44515348       0.22085604      -1.25476934
O        1.32056189       4.44559596       5.60727104      -1.76033632      -0.57500809       0.03088131
O        5.61383237       8.52980906      14.74896517       0.26279363      -0.55138837       0.82528711
O        0.73267174       3.96721702      12.42652775       0.25703576      -0.44523009      -0.89355964
O        6.35603469       9.12553145      22.12108254      -0.81534131      -2.06496189      -0.76714916
O        9.03094173       5.96787296      15.25907077       1.64456638       1.84287601       0.65714073
O        3.85854722       0.64973166       5.09085422       0.23800555      -0.22577563       0.59782628
O        3.12125605       6.19668738      18.94566192       1.30698560       2.11076965      -0.35506741
O        3.79275423       6.52654267      15.60692849      -2.06810555      -0.32110529      -0.33949906
O        6.27036507       3.59809857       8.79103900      -0.11438695       1.53465272      -0.22605250
O        6.09383002       3.24876624      12.02090841       1.88228227       0.83508318       0.27311562
O        1.06836367       8.22586577       8.84882219       2.51505093       1.20479328      -1.30054796
O        1.51437180       8.99297575      12.35649207      -0.19961482      -0.23261411       0.09024441
O        8.94336392       1.72648938      19.27699402      -0.36924039      -0.49004942      -0.51028873
O        8.24204447       1.14856342      15.48818454      -0.34059662      -1.12647034      -0.42921677
O        2.76595715       4.38631965      16.86844080      -0.38701168      -0.59663366      -0.55250302
O        5.24531826       7.74423468      17.69736379      -0.57294828      -0.48367792       0.36741001
O        7.61615753       5.37963624      10.95032047      -1.47473237      -0.49077893      -1.05606605
O        4.24603025       2.12508123       9.99331222       1.22576908       1.13972944      -0.73169656
O        9.55749674       7.30931790      17.82284270       0.51200307       0.10051556       2.29070088
O        2.54308728       0.36201895       2.80898527      -0.26557517       0.96750643       3.28537133
O        0.51196005       2.40214274       9.80692662      -0.79055203       0.30978311      -2.24927568
O        7.57625949       9.75098444      24.75889309       0.17554289      -0.16167597       0.80498249
O        9.09411907       8.23867100      22.61293497       0.33240571      -0.50011693       0.97047479
O        2.01187735       1.35868636      11.67101600      -0.60154610      -0.40846947      -0.07279068
O        1.12159762       1.85175628       4.94117060       1.56975087      -1.38803573      -0.53311088
O        8.15114136       8.59543557      15.86748731      -3.17595354       2.37819774      -0.88621605
O        3.35957584       4.33058303      11.83450673       0.26265509      -0.74610038      -0.16501408
O        5.60515760       6.62009655       9.12513630       1.26459376      -2.06993689       0.06978858
O        6.43874776       5.99405285      15.89379725       2.43631515      -2.73927759      -0.43525473
O        4.08974486       3.42541327      18.90496668       0.72187308      -1.53462429       0.21031616
O        8.62045804       3.19845827      11.98600637       1.48355417       0.03822578       0.48432772
O        6.43508417       1.04999781       8.78405972      -0.85424886       1.18799595       0.11192172
O        0.95695593       6.08808646      15.89955138       1.69111557       0.82018240       0.19062759
O        3.40676590       8.71061163      19.44550556      -1.50017047       4.18741690       0.11408624
O        8.07309133       3.64046647      15.72789089      -2.60163588       2.94596527       0.35907289
O        6.31936252       2.00482488      19.28394829       0.68997251       0.03155148      -0.45917578
O        2.05777961       6.51532309      12.37553823      -0.53427299      -0.96123871      -0.60196187
O        3.63709839       7.98124382       8.49532193       0.68416389       0.66325271      -1.03694983
O        7.27207530       5.04439905      13.52353286       0.18217262       0.48433913       2.38793489
O        4.41765618       2.19493872       7.27547414       0.41456918      -0.60527800      -0.17310114
O        2.38532709       4.72386844      14.30642988       0.54916467      -0.96215215      -0.09364320
O        5.29746304       7.16842228      20.29851390       0.16595853       0.63289260       0.17720320
O        0.15765479       2.63444596       7.29402139       1.64597448       0.45503868      -2.75166347
O        7.44446773       9.63368293      13.45997925       0.78837398      -0.56918747       0.36772361
O        9.50993239       7.09828871      20.36595787       0.71882441       0.64109762      -0.03540412
O        2.16629766       0.53116607      14.34626054      -0.15964529      -0.06756953      -2.07419350
80
Lattice="9.77192453 0.01751879 6.90363604 0.24348012 9.76890588 6.90363604 0.01370155 0.0133883 13.86910312" Properties=species:S:1:pos:R:3:forces:R:3 energy=-576.67913029 source_file=vasprun.xml step_index=880 time_fs=89760.0 time_ps=89.76 file_index=44 pbc="T T T"
Na       7.64471683       7.60211088      19.08958458       0.41687475      -0.03710987       0.12702385
Na       8.56375720       1.54624265      10.38932742       0.51189455       0.21079378       0.24431529
Na       3.83791706       6.27729909       9.91883734       0.02963209       0.08056817       0.02233292
Na       2.19893282       9.63010471      16.61961197      -0.61440454       0.10485188       0.34183493
Na       8.83257596       3.72772355      20.59880885      -0.20679576       0.60273136       0.45989408
Na       6.15048219       2.84924599      14.75231575       0.04593558       0.03223104      -0.04235246
Na       1.30548221       6.49292147       6.86285621       0.28926092       0.11426294      -0.37035424
Na       4.01091236       8.99254681      13.89797366       0.12020563      -0.43490327       0.05305520
Al       7.31055975       5.78086059       9.48939808      -0.85996469      -0.33019009      -3.26592260
Al       4.88059389       3.30555781      11.71015709       0.44737971       1.59079384       0.73619404
Al       2.84286566       4.79573640      18.53362820       3.72500705       1.30970402      -1.03650174
Al       5.79258723       7.14254473      16.19513349       0.64814298      -1.66575212      -1.87701945
Al       0.88209772       2.34782034      11.69184776      -0.40909883      -1.88600594      -0.19627311
Al       8.03579710       0.09449094      16.18739483      -0.04784986      -1.34302795      -4.68983993
Al       9.92554420       8.13122820      15.98173841       0.89766424       0.31895140       2.50271061
Al       2.43965813       0.79610893       4.79062702      -1.41602838      -0.65776237      -0.05777511
Si       2.83092764       5.90275314      15.50914643       1.23510186       1.23131361      -0.25640545
Si       4.75414804       7.50948143      19.12369442      -2.08386318      -3.25307448      -0.83274467
Si       7.75702763       4.71606603      12.29012241      -1.39458391      -3.83787809       1.37914919
Si       6.01651502       2.84659767       8.80984868      -1.58122580       2.12108713      -4.04927429
Si       0.94059423       7.77874654      12.24014307      -0.76443545      -1.32377341       1.15277877
Si       3.02149465       9.41295958      22.45423093      -0.96335140      -3.16490402       3.94596617
Si       9.47827470       2.70007509      15.75573175      -0.31418418      -1.17503258      -0.30443974
Si       7.66188029       1.15428086      19.13766378      -0.04685771      -0.37628799      -3.24709119
Si       0.52842073       3.19307446       5.78906311       0.94955965      -0.48654421       0.45867684
Si       7.54928457       9.72416713      15.03070553      -0.58524280       0.71811052      -0.94650236
Si       9.80261054       7.41931631      22.00726813       0.30755160       0.60595255      -0.02604194
Si       3.36020367       0.76165191      12.80204335      -1.29782956      -2.11522218      -0.36018170
Si       8.29253676       5.41235127      15.35190223       1.24165451       1.03984751      -2.04662992
Si       4.85732180       2.46216007       5.88882603      -2.30785363       3.21617336      -2.49339160
Si       2.39910954       4.90496172      12.58067932      -0.73098565      -0.52855662       2.29681953
Si       5.76707938       7.97961693      21.86346012      -1.94248559      -1.18627342       3.04571853
O        8.62522005       6.32232463      22.30610016       1.03593388       0.84039744       0.16476187
O        4.36909426       1.97754004      12.65761492       0.53021720      -0.33325197       0.76733095
O        1.57478300       4.50486881       5.73888027      -3.10162652      -0.95475716       1.49145169
O        6.47032408       8.59958990      15.46465696      -0.11862483       0.51242518      -0.46310619
O        1.13200673       3.84683035      12.55935436       0.55342997      -0.24666148      -0.47118022
O        6.61793299       9.27977188      22.08421761       3.22915351       1.23957587       0.15159274
O        9.27191876       6.73407523      15.32063129      -0.41291767      -1.64565803       0.24275825
O        3.62394294       1.34859815       5.95539089       1.22854520      -1.37688382      -0.93753401
O        3.50130183       6.43611149      19.13460734      -0.10343348       0.93234673      -0.34405347
O        4.23554666       6.95058113      15.42032637      -2.05673996      -0.98839267       0.40038884
O        7.00072730       4.13105640       8.76516730       0.63691408       0.04478310      -0.24133940
O        6.18898845       4.12830166      12.66413211       1.14135476      -0.23841690      -1.42708481
O        1.69561361       8.35916512       8.36052771       0.91580321       0.47705320       0.37134312
O        2.01329350       8.85998127      12.57008909       2.59097651       3.51117395       0.04567251
O        9.03638506       1.97324735      19.25728201       0.57458658       0.79200341       0.32357123
O        8.19142740       1.71188541      15.61911949      -0.68385230       0.89486962      -0.56786890
O        2.39116469       5.17355822      16.84423111       0.96068315      -1.19934866       1.48439068
O        5.83183681       7.20076240      17.91730894      -0.12596213       0.48950717       0.10496558
O        7.86997119       5.62462741      11.02873628       0.42510977       0.98672852       1.78625333
O        5.16071310       2.93439110      10.08620343      -1.25413362      -0.46131443       1.58443204
O        9.89259634       8.11953536      17.83330270      -0.93287894      -0.24452638      -2.08604319
O        2.87857767       0.35147372       3.15334437      -0.62754875      -0.19578102      -0.09715137
O        0.73166331       2.08188192       9.95651232       0.18074086       1.02125582      -0.36563465
O        7.83715507       0.15444408      17.75422335      -1.87928641       1.56284035       6.54890396
O        9.86411775       8.89152254      22.82537126      -2.11156715      -0.84116841      -1.05204499
O        2.03203423       0.90906947      11.82406212       0.63334698       0.83441971       1.04102276
O        1.24288738       2.10821746       4.81070656      -0.09345412      -1.19620722      -0.16404433
O        8.96494834       9.49526074      15.74935439      -0.91613681       1.72250593      -0.09792870
O        3.57033148       4.49837832      11.53815542      -0.34922471       0.59699841       0.42191708
O        5.89592583       6.82066385       9.20050832       1.48963672      -0.70959838      -0.12590724
O        6.75805397       5.65315202      15.46147402      -2.66844764       1.77947015       2.56583861
O        4.34433424       3.84769050      18.88949601      -0.64776894      -1.81213927       0.26949893
O        8.81703272       3.35585771      11.95816572      -0.77268823       0.86239714       0.05926733
O        6.77914660       1.46620832       8.74335511       2.18756700      -3.08106252      -0.48795531
O        1.61660359       6.97098063      15.33881362      -1.27321163       0.86374798      -1.02973105
O        4.34424252       9.04198515      19.16220340      -1.18374120       3.35818966       0.52098202
O        8.90967114       4.18489560      16.22517757       0.47587040      -0.00377903      -0.17771108
O        6.40598136       2.36259703      19.18968765       1.93084383      -2.91565826      -0.47148345
O        1.74242932       6.33884649      12.17794507       0.54163304      -0.12727503      -0.41339875
O        4.22920403       8.36321880      22.33651907       0.01475559      -0.44066125      -0.40040787
O        8.34154136       5.03860088      13.73836309       1.40901116       0.38994159       0.06108604
O        4.94822162       2.78271355       7.41651700       1.90520131       0.80517578       4.73831381
O        2.85676299       4.83730499      14.26553688       0.05139376       0.37166328      -2.29688317
O        5.59218797       7.17604807      20.46134152       2.03658946       0.27149619       0.59396402
O        0.35704470       2.56475495       7.35336359       0.71355563       1.47244386      -1.31460545
O        7.58469998       0.05918730       6.44866281      -1.41321908      -0.71355957       3.05198680
O        9.50241375       7.60772399      20.32906302       1.28778594       0.31155452       0.30149586
O        2.84003851       0.64161833      14.40569440       0.75354044       3.32208757      -4.77736015
80
Lattice="9.77192453 0.01751879 6.90363604 0.24348012 9.76890588 6.90363604 0.01370155 0.0133883 13.86910312" Properties=species:S:1:pos:R:3:forces:R:3 energy=-573.78563968 source_file=vasprun.xml step_index=15 time_fs=68030.0 time_ps=68.03 file_index=34 pbc="T T T"
Na       8.42641840       4.63044262      20.03368748      -0.58295162      -0.01403433       0.10134321
Na       8.93305029       1.70544862       9.70453731      -0.49703586      -0.26419485       0.17614196
Na       2.99575404       5.01754885       8.01726030       0.54445249       1.05811042      -0.26216234
Na       4.72226357       8.05117994      12.97198307      -0.26691778       0.30127642       0.08781281
Na       2.66097787       2.27805846      15.68692136       0.06516641       0.06314269       0.03558397
Na       5.82317719       1.16666517      14.29555770       0.42336135      -0.40020257       0.06048328
Na       2.34727729       2.30206543       8.76946764       0.48938920      -0.91070238      -0.18663560
Na       9.46046516       6.00913452      12.05402441      -0.40897999       1.38820619      -0.52468588
Al       7.03783405       5.22654325       9.14259697      -1.04593653      -2.35385947       0.82197082
Al       4.37835764       2.82824755      11.79437928      -0.67464733       1.03039112      -2.43716170
Al       2.87360813       4.83393034      18.60551747       0.97315537      -0.92179596       2.52501773
Al       5.44892396       6.95692803      16.06829569      -0.78717956      -3.13277586       0.86214815
Al       0.21347797       2.17627751      11.32785172       1.19827080       0.55929169       2.41845628
Al       7.89818824       9.10322958      23.20351727      -0.21465855       2.52797346       0.55789601
Al       9.57436711       7.51111566      16.36972054      -0.23178271       1.18109635      -0.71139721
Al       1.88188730       0.54794554       4.74079161       0.38367620      -1.72093986      -0.82611012
Si       2.53267308       5.36220893      15.58271987       0.79554233       0.95104048       0.61587856
Si       4.24257902       7.62801035      18.92076435       5.50411319      -1.46771003       0.94370969
Si       7.32488249       4.14023853      12.20664862      -1.32021556       4.45428227      -0.01750000
Si       5.49030773       2.26748182       8.74335211       2.57923010       0.74887328       5.77809011
Si       0.61857926       7.45335372      12.36371619       2.14622952       1.70467544       3.65440613
Si       2.56669897       8.92112356       8.60353476       2.37921001       0.51356425      -0.99240347
Si       9.19338469       2.13118142      15.33544553      -3.21674823      -1.35817029       1.55672785
Si       7.29910277       0.84571796      19.15076410      -0.20084209      -0.13205845      -1.61142371
Si       0.28326096       3.01294155       5.74083096       2.81976077      -0.00311000      -1.07330931
Si       7.15509155       9.33047757      15.18403777      -0.10729095       0.91853549       0.12874627
Si       9.58957420       6.82411670      22.08675146      -2.55445414       2.42855848       2.21375363
Si       2.75081568       0.49926971      12.61024935       0.04309905      -1.71345258       0.22643864
Si       8.00294805       5.09317113      15.08339919      -6.01396554      -0.11370708      -0.88961269
Si       4.57323631       2.05480186       5.75483458      -3.61375467      -1.11084100       0.31166799
Si       1.86625692       4.62746220      12.58703276       2.96150383       1.26277366       0.04508338
Si       5.49500660       7.56321207      21.73179775      -2.45491500      -1.15415170       0.44689428
O        8.56301972       5.63963787      22.40658579       0.59727105      -1.04440593      -1.05241819
O        4.06370442       1.48564472      12.86321503      -0.07021147       0.10933062      -1.08762189
O        1.14413462       4.55758148       5.64148789       0.00707211      -3.03592890       0.78531025
O        5.83988217       8.34190437      15.11194029       0.81108642       0.69594288      -0.80859796
O        0.55707961       3.77488758      12.31762096      -1.19830647      -0.36333120      -0.83240012
O        6.45545217       8.55783588      22.46437627       0.89449201       0.77046680       0.13584371
O        9.05685956       6.11267533      15.52603927       2.39536218       0.98412211       0.68071186
O        3.48892846       0.66929701       5.41864516       1.60527204       2.81169056       1.14876189
O        3.36940094       6.39399094      19.30391762      -2.32170869      -3.54824617       0.57112591
O        3.91442037       6.10868210      15.59539683       0.86109266       1.94982723      -0.40868819
O        6.59008481       3.52667564       8.64732225      -0.63831131      -1.24229792       0.65855918
O        5.89445236       3.55128028      12.30693010      -2.24215253      -2.15206792       0.82447103
O        1.32223393       7.96066171       8.67177447      -1.15453385      -1.05635158       0.26900058
O        1.54595986       8.80364529      12.54259711      -0.34999092       1.49444485      -1.35046944
O        8.43825120       2.02200599      18.93328210      -0.86102704      -1.18681177       0.62462095
O        7.99410337       1.00459265      15.40495006       0.57007005      -0.41973814      -0.09540058
O        2.56213775       4.49581769      17.00254833      -1.00663245      -0.75080384      -2.66632699
O        5.31448640       7.28945368      17.79438955       0.34600632      -0.07641108      -1.91920378
O        7.27765954       5.07907773      10.90087020       0.66374083       0.72697121      -1.11887130
O        4.17867595       2.27828514       9.88609560       2.69296163       1.08398227       0.52801040
O        9.38680314       7.44294028      18.10904726      -0.97411358      -0.70099868      -3.03384794
O        2.32592037       0.23140724       2.91045760      -0.72046747       0.71807091       1.45536887
O        0.46482611       1.99124937       9.64523600       0.02022693       0.38531023       0.30214686
O        7.34128952       9.57018980      24.82630291       1.21002180      -0.40276309       0.05369329
O        9.22638808       8.07361218      23.11095880       0.81288400      -0.97327920      -0.22561611
O        1.43066872       1.10721627      11.97396483       0.28672658       0.24473594      -0.12429707
O        0.88074510       2.07198928       4.51533564       0.48293100      -0.95144879       0.69673357
O        8.49465050       8.83467104      15.94097220      -0.65956947       0.51347567      -0.29928882
O        3.04684566       4.02050782      11.60020973      -0.02183697       0.21078177       0.80560239
O        5.85004257       5.92403367      21.97351737      -1.57888999       2.75570085      -0.00351770
O        6.39712029       5.45628801      15.62349068       2.99780230       0.12806962      -0.19063754
O        4.13115925       3.53687669      19.14817046      -2.05879709       0.98596450       0.15381578
O        8.49564190       3.08857679      12.23926521       1.02770987      -1.54829043      -0.05785894
O        6.43208357       0.93011549       9.22067078       0.38098643      -0.22154025      -1.71211588
O        1.21050178       6.29911672      15.61689818       2.71967837      -0.64599851       0.58676084
O        3.32444365       8.81683302      18.63251317      -2.57463129       5.50025313       0.64025561
O        8.42692161       3.56164334      15.48903028      -0.02638496       0.60400230      -0.77645847
O        5.93483384       1.75828172      18.93512093       2.16266217      -0.58948707      -0.01603064
O        1.84076499       6.33868244      12.49683568      -0.95826347      -2.05254202      -0.85520589
O        3.93327022       7.96140653       8.53367808       0.16992109      -0.70006557      -0.10151466
O        7.78407443       5.29853093      13.35776512       0.34858449      -1.52997423       1.17213642
O        4.77366688       2.08160388       7.41942755      -2.76086315      -0.74517256      -4.52339339
O        2.42357304       4.55575397      14.16604224      -0.48725691      -2.05554610       0.20986143
O        5.36972657       7.95863064      20.18009954      -0.98426203       0.08523173      -0.80075076
O        0.41062913       2.05715858       7.15760789       0.98783503       1.73801796      -2.50101257
O        7.60386304       9.68721613      13.57233356      -0.61608076       0.82989892       0.91299513
O        9.33755978       7.33126839      20.59748024       1.05072935      -0.29600382      -2.05087892
O        2.52257801       0.23869904      14.22396738      -0.99043512      -1.35995410       1.35260978
80
Lattice="9.77192453 0.01751879 6.90363604 0.24348012 9.76890588 6.90363604 0.01370155 0.0133883 13.86910312" Properties=species:S:1:pos:R:3:forces:R:3 energy=-575.27657221 source_file=vasprun.xml step_index=260 time_fs=36520.0 time_ps=36.52 file_index=18 pbc="T T T"
Na       8.75723485       0.56417322      10.40253620       0.02004650      -0.12556840       0.22848273
Na       5.37952788       3.84739810      16.81642984       1.31528370       0.39286148      -1.30341084
Na       3.92874502       6.71832720      10.65450322       0.28769648      -0.05900736      -0.37010085
Na       1.90084583       8.12230666      16.83696119      -0.44084665       0.74738790       0.51167996
Na       6.17777911       1.27455427      13.63165699       0.32983195       0.16724755       0.09599914
Na       9.12690960       3.17819701      20.80877192      -0.23363300       1.01640125       0.54031915
Na       1.20633589       6.24322931       6.48373207      -0.04571888       0.01729696       0.17027462
Na       3.68322801       8.88950093      14.16446802       0.45771267       0.09606369      -0.65379154
Al       7.13118390       5.19228421       8.84044274       1.55838862       0.59482199      -0.84997268
Al       4.76523696       3.01900125      11.44958857       2.08868269      -1.14783851      -1.08220449
Al       3.06342773       4.55798983      18.25281888      -0.99031496      -1.76655364      -2.17086210
Al       5.60176635       6.97658989      15.70022280      -0.73103709      -0.04406539       1.43829845
Al       0.55090472       2.16183105      11.34919436      -1.14385398       0.74794524      -0.56630361
Al       8.03874218       9.41891523      22.59406587       0.63604320      -2.03199006       1.30642038
Al       9.59450451       7.71020234      15.72024214       1.06851764      -0.28283192      -0.01868864
Al       2.46449517       0.33405848       4.49198425       1.96939508      -2.65686967      -1.48246972
Si       2.82139110       5.62670534      15.17446206       3.33174993      -2.34776268       0.73773398
Si       4.44245895       7.27698893      18.70289125       1.71017521       0.00664951       0.58576504
Si       7.66967843       4.12220721      11.80130948      -0.21823428      -0.02047265       1.87838497
Si       5.98884397       2.52661468       8.46818533       1.45273099       0.42869824      -6.92814785
Si       1.17643174       7.35061716      11.75248308       0.27147209       3.31335389      -1.79973026
Si       2.70024065       9.10237198       8.21543315      -0.69192548      -2.85226007       0.93453425
Si       9.19353097       2.40600002      15.10462062      -0.21975733       0.47535914       1.33201517
Si       7.55374805       0.83755376      18.70528903       3.97313899      -1.55925247       3.28680762
Si       0.67047079       2.54968109       5.30972919      -4.28711211      -1.64009802       0.24020640
Si       7.10592029       9.47317673      14.85977667       1.08062690      -0.71106686      -1.31915577
Si       9.74875844       6.80141311      21.66122315       0.96656526       2.69491798      -0.92639672
Si       3.03262345       0.53439963      12.40896769       0.86995119      -0.95629922      -0.32255944
Si       8.04776421       5.31629677      14.65249297      -2.37628114      -4.65757535      -1.56226718
Si       4.89505406       2.31505673       5.39886482       1.38795490      -4.36399773       3.91444727
Si       2.23474871       4.57796620      12.35516877      -0.12552227       1.03964162      -3.07956919
Si       5.55500843       7.76754590      21.61697025       0.67149043       0.15444971       2.24733810
O        8.73937857       5.59081820      21.66374992      -0.73172203      -0.44682134       0.85631694
O        4.29795953       1.57208818      12.42537744      -0.41189653      -0.31469306      -1.16201495
O        1.48965475       3.50131978       4.40630967       3.75279871       3.25174267      -0.08864542
O        5.80035726       8.59734930      15.19386513      -1.16373427       1.01976183      -0.67289174
O        0.95174337       3.67689556      12.19967615      -0.51476222      -2.09819837      -0.33842730
O        6.54113013       9.06057592      21.75179595       0.05069700       0.13964288       0.53313311
O        9.33784268       6.08751594      15.00942957       1.90982449       2.49951075       1.34844157
O        3.85806336       1.04612452       5.32306208      -1.80560138       0.02601571      -1.21780525
O        3.30673128       6.02044224      19.09344598      -0.06654163       3.12772418       0.01836166
O        4.06335230       6.67370118      14.91229436      -1.93580595      -0.15372166      -0.27870283
O        6.92462274       3.75103641       7.83671145      -0.00255229      -0.40410886       1.95885133
O        6.23621790       3.53398407      12.29235162      -0.54946593      -1.62944222      -0.02564135
O        1.19674595       8.23186067       7.75854682       2.38031996       1.19794029       1.05881846
O        2.60171584       8.28871746      11.79947804      -0.65870882       0.52469055       1.17790617
O        8.73222952       2.06692852      19.07968798      -1.01457501      -3.43137041      -0.63030850
O        8.29873138       1.01612972      14.87525925       1.36390326       3.14926022      -1.65675427
O        3.30505095       4.64414110      16.45096207      -0.80786419       0.94019571      -0.02625367
O        5.42870688       6.75437025      17.48200117      -1.26346950       0.55305212       0.50395035
O        7.32900030       5.05048458      10.57772553       0.48878454       0.36276503      -2.48303392
O        5.09340469       2.79515284       9.62344316      -3.23050177       1.17340670       6.06550453
O        0.24276804       7.87023923      10.48189759       0.88266310      -0.29163695       1.70738343
O        2.80448928       9.76804877       9.65006844      -0.57110924       1.09777317       0.37662980
O        0.15305450       2.34789638       9.66676101       0.55030041      -0.44134581      -1.33460465
O        8.05771870       9.77821547      24.30135286       0.29332723      -0.76236129      -0.16455030
O        9.33839428       8.15085133      22.54360576       0.10640717      -0.96450269      -0.88185427
O        1.72195065       0.84595252      11.54148025      -0.23808593       0.45898252       0.19053316
O        0.96658709       0.97423140       4.85731559      -2.14581874       2.19805717       1.16852238
O        8.17063318       8.67515585      15.85753329       0.09992675       0.85709643      -1.61720855
O        3.59807900       4.19304110      11.54655772      -1.79210824       1.53167070       0.53485204
O        6.06027893       6.55706988      22.57714942      -0.09550497      -0.12981669      -0.54318565
O        6.54851094       5.68222108      15.17003847       1.67141754      -0.30581286      -0.25930053
O        4.55159648       3.76210225      18.74765117      -0.58476982       0.18720408      -0.46146840
O        8.80333492       2.92468042      11.66468884       0.59445229      -0.86030011      -0.40450443
O        6.86426315       1.18192461       8.71158070       1.01127706      -0.87067420      -0.21154392
O        1.50428878       6.42466235      15.47184432      -2.73796267       1.44462383       0.40755654
O        3.76368072       8.79965331      18.26143843      -0.49371519      -0.30338125       2.29858709
O        8.16680116       3.69489299      15.21881820      -0.38154724       0.68770857      -0.44038027
O        6.26226571       1.60321761      18.57642418      -5.53360973       4.46071633      -0.75424901
O        1.72650691       5.93298224      11.37530322       1.96770069      -3.32589758       0.93475153
O        4.05613625       8.01524027      22.17508806      -2.77823700       0.92959779       0.07275419
O        8.14625276       5.15272560      12.99195505       0.43136556       0.52259492       0.66406884
O        5.09327306       2.25370607       7.06170078       0.02800002       0.07188645      -0.10799179
O        2.44420189       4.61855466      13.94001121       0.75919538       0.88911389       0.84467342
O        5.43173092       7.60779438      20.06394623      -1.45197867      -1.29159541      -4.28057182
O        0.43218083       2.81523699       6.90037645       0.62830479      -0.83510089       0.97098927
O        7.34001965       9.44003952      13.14927383       1.11688809       1.69827842       0.74745103
O        0.43031810       7.32877101      13.14925737      -1.39205939      -0.61559291       3.29956912
O        2.73673204       0.48757915      14.08353387       0.28734994      -0.19970349      -2.72981295
80
Lattice="9.77192453 0.01751879 6.90363604 0.24348012 9.76890588 6.90363604 0.01370155 0.0133883 13.86910312" Properties=species:S:1:pos:R:3:forces:R:3 energy=-577.40162256 source_file=vasprun.xml step_index=165 time_fs=44330.0 time_ps=44.33 file_index=22 pbc="T T T"
Na       8.85863328       1.50277695      10.16733957      -0.56253032      -0.35405372       0.05538834
Na       6.42569846       3.81884725      17.29273568      -0.22289130      -0.02613605       0.25309895
Na       7.30922298       7.39485917      11.97346073       0.00864463       0.10628110       0.01984882
Na       1.54819044       8.53722045      17.02736818       0.09273116       0.19160859       0.37509589
Na       9.27353868       3.15798396      21.48672228       0.43508850       0.40556134      -0.84669252
Na       5.52370162       1.44938157      14.15567293       0.98554776       0.28217461       0.72570079
Na       1.75548344       6.26790059       7.36142066       0.38693585      -0.31945371      -0.58351221
Na       3.98665608       8.95314794      14.02624977      -0.50558183      -0.41505763      -0.20825121
Al       7.47756308       5.28323767       9.28825165       2.48790529       1.54624112      -0.32657388
Al       4.67820262       2.85573485      11.56992345      -0.67601238       0.22628992       2.13106260
Al       2.78094724       4.79328563      18.44179046      -1.20796732      -2.37130467       2.39967500
Al       5.52811151       6.92614962      15.93645250      -1.63935902       0.17603546       0.14157137
Al       0.37917609       2.22914457      11.67643778       0.97170871      -1.00871487       3.75560778
Al       7.84388978       9.64501893      22.63277571       1.65705694       0.17966320       0.80107904
Al       9.92059234       8.02189615      15.93100741      -1.36175121       0.39358325      -1.75879883
Al       2.17827060       0.46730880       4.74317724      -0.17376895       0.07505076       0.02621243
Si       2.63602556       5.84679786      15.41024767       3.07997726      -0.90529322      -0.12351324
Si       4.23397940       7.32397578      18.99071627      -0.22069736       0.68408390       1.96711297
Si       7.45639407       4.29501262      12.27257722      -1.85249260       2.22954325       0.28862947
Si       6.04650706       2.71321760       8.61398052      -1.57980472      -0.64963465      -1.68294578
Si       0.89909481       7.58439886      12.20663006       1.11306357      -0.85745265       1.77499794
Si       3.06094962       9.09560751       8.59049360       0.58545066      -1.29429617       0.64364959
Si       9.12021075       2.46875416      15.57471045       1.07174969       0.45944947      -2.22591601
Si       7.35608904       0.95548288      18.89865526       0.38570937      -0.69422535       1.20843920
Si       0.41074479       2.88902377       5.66492637      -0.43396888      -0.41239903      -1.86363192
Si       7.14562844       9.46145640      14.66112541       2.36425705      -0.29536349       2.78827675
Si       9.65044653       7.14279466      21.88215611       2.97037564       1.31174958      -0.49871377
Si       3.07142126       0.45255920      12.87986264      -0.56825067       1.02534814       0.19737454
Si       8.09708924       5.51875082      15.09867610      -2.70818242      -3.24561906      -0.30275978
Si       4.58634800       2.42759079       5.58082799       1.73321194       1.28144605       0.24178524
Si       2.03549667       4.61874479      12.70379671       3.08264158      -0.78693896       0.77364780
Si       5.70957454       7.59163171      21.65501406      -0.57290326       0.85065276       2.25177117
O        9.16597388       5.81087701      22.53091998      -1.97292609      -2.07590819       0.65822238
O        4.43648973       1.19836867      12.44363595      -0.30915500       2.01290553      -2.72170947
O        1.23656955       4.20579762       5.43416335       2.11359979       1.69373389      -0.49389596
O        6.00113582       8.37378517      15.00302275       0.01222204       0.51007732       0.29019242
O        0.77362401       3.68807877      12.59087440      -2.30939407      -1.10683452      -0.77965649
O        6.44282434       9.09743919      21.74280792       0.71501531      -1.03222742       0.71730548
O        9.30597976       6.49396270      14.97737046       2.35750405       1.62239923       1.92255099
O        3.57074000       1.21596414       5.65351198      -1.54725097      -1.67538013       0.14188784
O        3.12600129       6.18511620      19.31820857       0.56342643       1.30583817       1.51176872
O        4.09280245       6.59570097      14.93813202      -0.53125579      -0.83390539       0.98355706
O        7.41966696       3.67824847       8.77655095      -1.85861848      -2.66065613      -0.85316610
O        6.15533389       3.35294890      12.61757970      -1.03430864       0.56841733      -1.36242526
O        1.56541182       8.50722328       8.08135420       1.10900992      -0.06655977       0.89042873
O        1.84175669       8.83561079      12.68199214       0.79955879       1.09827083      -0.23131051
O        8.57875271       1.84327614      19.46133222       0.97403904       0.15979013      -0.62401180
O        8.04469603       1.46003517      14.91245571      -1.25603780      -1.71293056       1.66660569
O        2.60892376       5.22362008      16.90258338      -0.67562515       1.27563557      -3.99992328
O        4.82580234       7.20760715      17.54958448       1.13263841       0.17058475      -1.70654505
O        7.48599791       5.39430381      10.98292910      -0.41548262      -1.39965953       2.02254143
O        5.01964033       2.76552703       9.88983207       1.40731756      -0.05012951      -1.77735056
O        0.50934270       8.00765384      10.71332167      -1.20755875      -0.65966161      -0.66453142
O        3.01932388       9.69808834      10.09869645      -0.11044814      -0.22564113      -0.45431059
O        0.11451300       1.97597213      10.04600447      -0.33833702       0.30132001      -2.80818217
O        7.43892489       0.24675727      17.49764938       0.36928767      -1.27904002      -1.92106304
O        9.31627219       8.47273779      22.77995433      -1.48734600       0.72036664      -0.68142601
O        1.61436083       1.03417034      12.44865122      -0.27601040       0.66526589      -0.77686987
O        0.92450377       1.78009187       4.46488896      -0.02196396      -0.48068233       1.99543049
O        8.58598975       9.06076096      15.35120312       0.30793288      -0.15565212       0.70886023
O        3.22068971       3.93092111      11.72705406       0.19629886       0.12518709       1.16512982
O        6.40678258       6.38439602      22.52780434      -1.48973226       2.19382251      -1.62549931
O        6.73235635       5.64104906      16.05312049       0.75965273       1.63437691      -0.68031125
O        4.11478417       3.65955651      18.45214582       1.01562497      -1.27296272       0.96745104
O        8.59280571       3.19091769      12.11563959       1.38651137      -0.76684320      -0.56705413
O        6.81851847       1.20305434       8.48613467      -1.38850002       0.88814043      -0.52573854
O        1.64760297       7.05674518      15.17501446      -3.34198797       2.15885727       0.17455176
O        3.30433669       8.70876283      19.20269364       0.44754345      -1.18883237      -0.59668398
O        8.41968818       3.94618422      15.82554663       0.49199007       0.96605299      -0.78351676
O        6.06819384       1.88338358      18.80634250      -2.20743755       1.70126603       0.01524626
O        1.76159234       6.14876840      12.33356827      -0.51550074       1.87835808      -1.22974323
O        4.18212387       7.79217885       8.44495434      -1.33347187       0.91186435       0.44325825
O        7.56863621       5.55638950      13.46124800       0.57013239      -2.01372469       0.73351704
O        5.02231165       2.97209908       7.10081217       1.60196622      -0.39481629       2.31135601
O        2.33289434       4.61469545      14.40342135      -0.18535456      -0.71113328      -1.95921590
O        5.47300332       7.32428866      20.11396111      -0.43916086      -0.73164883      -2.16402331
O        0.27972271       2.61752089       7.22453470       0.64539114      -0.63584339       2.79526039
O        7.30513807       9.45418720      13.06236911      -0.29628827       0.81524865      -1.59539876
O        9.45367614       7.32035446      20.25229279       0.06216683       0.52483461      -0.54300223
O        3.44369563       0.50077331      14.54384633      -1.63818895      -0.57952549      -0.37707785
80
Lattice="9.77192453 0.01751879 6.90363604 0.24348012 9.76890588 6.90363604 0.01370155 0.0133883 13.86910312" Properties=species:S:1:pos:R:3:forces:R:3 energy=-574.9355089 source_file=vasprun.xml step_index=80 time_fs=46160.0 time_ps=46.16 file_index=23 pbc="T T T"
Na       7.85234632       7.11189618      18.26732968      -0.40788847      -0.30224177       0.20582489
Na       3.60623260       2.50662316      15.76330942       0.19044787       0.23814594      -0.09188900
Na       4.72751783       5.64224503      10.47998720      -0.27958281       0.69327678      -0.03085497
Na       3.80683551       9.05530292      14.17753317       0.76821597      -0.50349487      -0.44926283
Na       9.34468859       3.23834479      21.25569970      -0.53889399       0.22651503      -0.06573961
Na       8.45783491       1.25742657      11.18889171      -0.40361513       0.02310575      -0.41980275
Na       1.50056229       7.75989598      17.81142923      -0.08301809      -0.10121957       0.21785595
Na       2.29515572       1.39165825       9.14128647       0.16827470       0.97542779       0.20198422
Al       7.11083940       5.58414590       9.02412256       1.02976867      -1.76144664      -3.44071619
Al       4.78988920       2.80117870      11.50397766       1.34710156       2.25427782      -1.95244864
Al       3.22640119       4.50327201      18.34337816      -1.04903085      -0.08798456       0.76144211
Al       5.62520115       7.21780830      16.10218224      -2.36427170       3.29561705      -1.31680521
Al       0.64573084       2.27657402      11.64453152      -3.58329633       1.27957663      -0.95062078
Al       7.76965350       0.03361928      15.91230635      -1.51172725      -1.48557548       1.11214247
Al       9.71527201       7.75165202      15.49955378       2.58633781       3.47296026       4.26666249
Al       2.19315891       0.53426222       4.68643717       2.76000595      -2.51482907      -2.12369601
Si       2.80589311       5.94050062      15.53714961      -1.49196998      -0.14939678       0.08317938
Si       4.55489924       7.40724579      19.03812274      -2.68813112      -0.08255456       0.45930943
Si       7.62499629       4.35131649      11.86570767      -3.47922568       2.13478534       1.31731991
Si       5.76163773       2.59402216       8.51896687       0.29865479      -0.24715285       2.14568497
Si       0.95168727       7.33084633      11.81476728       1.95008887       0.27058850      -0.65807817
Si       2.72869272       9.45377972       8.55503526       1.17264594      -1.00348233      -0.79231909
Si       9.29227738       2.87430456      15.55669353      -1.27449010       0.74445309       0.16242303
Si       7.64796637       0.69114360      19.01134925       0.85667193      -0.10986303       1.30327210
Si       0.64667001       2.95123709       5.79461834       1.12997257       2.98965592       1.00312648
Si       7.43949680       9.67897268      15.12355154      -3.81413444       1.86514194      -0.50021332
Si       9.60146257       7.21441475      21.67466158       0.88322327      -0.11275142       1.43678447
Si       2.99428605       0.50749268      12.53313495       1.61180108       1.53561770       0.77722454
Si       7.77894907       5.60163582      14.64846140      -1.14469819      -1.13637478      -0.33980224
Si       4.96150666       1.89446184       5.44633808      -1.83293468      -0.61418918       3.43903335
Si       2.34450323       4.59197268      12.60060176       3.00907896       1.77537991       0.83914704
Si       5.45216734       8.07646192      21.99152334      -0.74580663      -1.36681061      -0.01471632
O        8.55963747       5.95532059      21.77120090      -0.44577134       0.32894866       1.09451525
O        4.33994182       1.39245710      12.19107458      -1.75542469      -2.59621473       1.33594361
O        1.67263463       4.20981372       5.37958265      -0.38529875      -2.02281949      -0.09020833
O        5.98249870       8.80883526      15.22071326       1.06466143      -0.73077193       2.30487737
O        1.32105058       3.41526215      12.70729590      -0.69405005      -0.70708852       0.68808129
O        6.22604814       9.45527450      22.16069696       3.17437378       0.38334121       0.84919532
O        8.96681441       6.62645541      14.64855021      -0.02208487       0.15419783      -2.09740941
O        3.78986394       0.71003660       5.52713775      -0.51462563       0.03479074      -0.81396540
O        3.55633521       6.17668643      18.53206163      -0.33582782       1.41533905       2.87775780
O        3.95036321       7.11794257      15.47597113      -0.96307792      -1.00372783      -0.13100205
O        6.62870264       3.90912216       8.44317031       0.73123943       2.92881401      -0.00524264
O        6.47791444       3.21771632      11.77444834      -0.27589124      -0.67785821      -0.03510351
O        1.48833151       8.50073139       8.32513212      -1.00743753      -0.29467327      -0.76849143
O        2.08752849       8.54617130      11.76110717      -0.88896373       0.11444576       0.56617749
O        8.82903123       1.87408989      19.28536566       0.17463488      -1.26704889      -0.04850764
O        8.27824923       1.57422209      15.43874919       0.86241456       2.03426865       0.34124911
O        3.05749574       4.68474383      16.60273490      -0.39204801       0.41273318      -1.27405331
O        5.46605156       7.20276118      17.78997055       3.49071300       1.56052093      -0.57300383
O        7.45543306       5.38270096      10.62933776       1.26235197      -0.33142948       1.86314838
O        4.58771086       2.62874632       9.72770565       0.61572381      -0.42271864      -1.27934289
O        9.91017845       7.20075660      17.31858572      -0.94526567       0.48392407       0.02336170
O        2.44634885       0.80050669       2.82024329      -0.45395590       0.07572474       1.92541868
O        0.38632959       3.05213681      10.04910748      -0.18367430      -1.31839933      -0.39177968
O        8.11785468       9.45217857      24.65805731       0.37462045       0.59595885      -0.31520298
O        9.24226913       8.68591114      22.25492939      -0.38798140      -0.70067528       0.20550573
O        1.71515603       1.01770368      11.64314794       1.85321163      -2.59765732      -0.47786324
O        0.95945038       1.43250238       5.34742134      -1.72850220       1.00496476      -0.62761022
O        8.77539499       9.30256119      15.86859775       0.75705176      -1.71577139       0.39624504
O        3.82474615       4.28141675      11.72805274      -2.87310886      -0.47784957       2.85579892
O        5.73903667       6.60422469       8.88216274       0.62819973       1.81309451      -0.80836006
O        6.61602284       6.00699681      15.69587996       2.01678503      -2.13831513      -0.62223248
O        4.29251715       3.17060150      18.65297356      -0.11905417       1.14926812      -0.84815378
O        8.95180993       3.49232343      12.04789079       2.18987974      -1.33719823       0.47733353
O        7.00781548       1.52356736       8.77738806       0.35037889      -1.96596528       0.80240426
O        1.31337076       6.84889984      15.62214040      -0.00041203       0.11321428       0.33993698
O        3.47520954       8.73778119      19.04397502       0.26678523      -1.82164465      -0.71796690
O        8.55571637       4.28971363      15.12660663       0.07385630      -2.37538966       1.06474346
O        6.36156768       1.56874701      18.62881631      -1.04405868       0.87611928      -1.00418314
O        1.79262911       5.91334207      11.92904973      -0.61872986       1.44044463      -1.04709880
O        3.95972964       8.32656063       8.72779778      -1.17558230       0.94131028      -0.17646179
O        7.12531428       5.40610177      13.16306586       1.12348606      -1.34401527      -0.97491126
O        5.15212950       2.08431884       7.16483151      -1.54348891      -0.17773531      -3.36616342
O        2.31857506       5.11878103      14.22924349       1.64545528      -1.37992090      -1.93222376
O        5.48900687       7.64544362      20.34913918      -0.29696761      -0.29601706       0.30012536
O        0.61727357       2.69986446       7.45258248       0.80640216       0.01002177      -1.01629932
O        7.30250779       9.76186183      13.51713938       2.57406203       0.38910073      -3.11125733
O        9.74914613       7.51894460      20.08264257       0.69526829      -0.34293655      -2.39556886
O        2.87056976       0.68885695      14.18149659      -0.79131145      -0.45073187       0.06380667
80
Lattice="9.77192453 0.01751879 6.90363604 0.24348012 9.76890588 6.90363604 0.01370155 0.0133883 13.86910312" Properties=species:S:1:pos:R:3:forces:R:3 energy=-576.45998101 source_file=vasprun.xml step_index=985 time_fs=91970.0 time_ps=91.97 file_index=45 pbc="T T T"
Na       7.90913721       4.02084973      19.95959288       0.19327925       0.09113203       0.31001101
Na       0.98234527       9.40992808      16.87341676       0.46881099      -0.01017699      -0.11266734
Na       5.90546120       3.45500858      16.51218491      -0.03250243       0.14168573       0.08362619
Na       1.18075855       6.99624136       6.51318168      -1.54469448      -0.14180778       0.70323114
Na       1.17470318       2.90742476      15.60409230       0.11103989      -0.36507708       0.47482889
Na       7.03188800       0.70045661      12.51604689       0.16471269       0.15261578       0.40894167
Na       3.90264658       5.27966025       9.90660090      -0.25513818       0.58790518      -0.11517172
Na       4.29418645       8.48282457      13.53695583      -0.50803697       0.44176926      -0.41774687
Al       7.26704407       5.47728793       9.06198073      -1.55654439       0.37367618      -0.79107355
Al       4.61192628       3.24385070      11.69804127      -1.85158286       1.37528776       1.99122649
Al       2.45886894       5.00603017      18.65724759       0.63474874      -2.76367983      -2.38377125
Al       5.14506202       7.07308157      16.03767131       1.48387157      -0.81409236      -1.33468208
Al       0.24512433       2.11392405      11.55642706       0.27824074       0.70469910      -1.21881564
Al       7.17350791       0.05687157      16.00033290       2.52955018       0.29834644       0.38499171
Al       9.53507057       8.01461746      16.13330678      -1.60538131      -1.42798982      -1.11425570
Al       1.96754489       0.63323509       4.64237661       0.50056205       1.10467693       2.55024249
Si       2.30223351       5.83218459      15.43980622      -2.05807796       1.65683206       0.70007993
Si       4.29307371       7.35793196      19.06869952      -4.00329608       1.37663388      -1.62011926
Si       7.44879397       4.52951622      11.97355591      -0.28618941       3.27786126       3.46228199
Si       5.64487568       2.79052618       8.68260001       1.27458469      -1.74381723       4.44925581
Si       0.67978699       7.82691615      12.29671920       0.83344874       1.23225866      -0.52357238
Si       2.46993464       9.26847609       8.54404255      -0.51661748       2.07679362      -0.38681830
Si       8.97205110       2.51949557      15.37903068       2.19658894      -1.20979032      -0.46597525
Si       6.99152405       1.10345179      19.17795790       2.94751493      -0.49981350      -1.28081931
Si       0.16112274       3.06670774       5.73355423       0.23830097       1.29444318      -1.62493189
Si       6.93418006       9.56503933      15.05193022      -4.39193436       2.64908507       0.19770529
Si       9.40938731       7.49570430      21.79412623       0.57958599       0.37937479       5.83164650
Si       2.94226559       0.68002092      12.73141386       0.26184072       0.72342195      -0.95077386
Si       7.87197013       5.45003188      15.01349278       2.91349296       2.38677254      -2.23482121
Si       4.45126575       2.54462676       5.83273031      -1.18323061      -1.92606933       0.18716198
Si       1.64980915       4.74435947      12.73907830      -1.03554301      -0.83822780      -1.36229640
Si       5.21537985       7.79880050      21.85821054       3.22917446      -1.61132330       0.89949703
O        8.41386169       6.19888971      21.81274065       0.90523297       0.14891507      -0.10575776
O        4.08488040       1.84867789      12.51790066       0.19435947      -1.81159958       0.59122723
O        0.94240165       4.42212030       5.32302543      -0.47994015       0.56673772       1.35247247
O        5.60243572       8.68056926      15.37786374      -0.90696934      -1.93322440       0.41386210
O        0.47342169       3.74263743      12.23072213      -0.50092460      -0.09458443      -0.14512753
O        6.22458158       9.08704323      21.92824903      -1.07099772      -0.60470867      -0.38531696
O        9.20529910       6.40365969      15.40755241      -0.78418276       0.71759036       0.75807944
O        3.51089885       1.16727793       5.57934071       0.95432711       0.74575330      -0.09156051
O        2.83385983       6.54367773      19.21020011       1.87446252       1.61600004       0.72600081
O        3.79704481       6.34594713      15.15772575       0.13288251       0.37533560      -0.73202271
O        6.78427721       3.86389978       8.50720201       2.07589122       1.15750655      -0.81665022
O        5.92787494       4.17170407      12.39988177      -0.52093598      -0.87018787      -0.68604750
O        1.02188876       8.55339362       8.17305428       2.89784323       0.46513713       0.52465504
O        1.93595655       8.89231043      12.46347382      -0.01499851      -0.75967670      -0.70409132
O        8.56544124       1.83061698      19.32955068      -3.00603583      -1.70882715       0.68365316
O        7.74946125       1.55463718      15.00722841      -2.31076259      -0.94253571       0.09106083
O        2.12599666       5.16015251      16.87688697       0.53972369      -1.10935958       0.53078241
O        4.96064569       6.89761698      17.72234854       0.52356124       0.20332843      -0.24116285
O        7.81211403       5.28285149      10.64170021       0.01380988       0.76768660      -0.18989972
O        4.76376459       3.28228881      10.02497802       0.50166322      -0.88564866      -2.07248464
O        9.62151890       8.23500139      17.84417593       0.52043608      -0.67113872       0.27672015
O        2.20363930       0.48999945       2.95356499       0.03657941      -1.22200556      -1.11746445
O        9.65245125       1.81034117      16.67084872       0.63326129       0.94561456       1.57778879
O        6.84567417       0.40965803      17.71299146      -0.07945495      -0.14288524      -0.37655881
O        8.92004516       8.79285475      22.80443052      -0.51780575      -1.65802548      -0.43382120
O        1.65632734       1.09484211      11.73248398       0.76693452      -1.25712654       1.08729357
O        0.74677914       1.88482890       4.91758118       1.51944460      -2.95704711      -2.46703966
O        8.23484088       8.89708661      15.38764494       2.71665920      -0.54748106       1.55624149
O        2.96764441       4.26886769      12.00110300       2.32358238       0.37961141      -0.60152661
O        5.70619267       6.46012852       8.97672169      -0.52585079       1.54620988      -1.23631110
O        6.39399828       5.78110218      15.59353171       0.28331538      -0.38683792       0.80889472
O        3.78026181       3.76200285      18.94473399      -0.67739171       2.01135400      -0.68342143
O        8.39499152       3.25244031      12.04237815       0.31257716      -1.80948630       1.01208470
O        6.23195057       1.22723062       8.97994536       0.62047102       0.56790856      -0.72228015
O        1.35911307       7.28638961      15.46499664      -2.06059801      -1.03179558      -1.08194918
O        3.84829260       8.96660491      19.19755782      -1.01864692       1.25539226      -0.25029263
O        8.67687684       4.07971512      15.55529861      -2.75620241       0.66330679       0.55064249
O        6.05591974       2.43740762      19.09326758      -1.35945059       0.83321828       0.37013896
O        1.17555475       6.28197635      12.54879803      -0.09900034       1.66443195      -1.58048208
O        3.74437044       8.22804348       8.46535769      -1.93604113      -0.10321302       0.58600315
O        7.85645706       5.71079247      13.28870279      -0.30513931      -2.54430556       0.35382509
O        4.75849035       2.85553571       7.44089824      -3.13330544      -0.40910697      -3.97259838
O        1.49862795       4.75860723      14.36368789       1.96481234      -0.01706121       2.07292440
O        5.23009078       7.27969123      20.27955930       2.37276043      -1.00734374       3.61276337
O        0.31524357       2.57721064       7.22538352      -0.80846873      -0.38913089       2.62815360
O        6.57077423       0.05529958       6.52713197       0.16938969       1.04905313      -1.26178741
O        9.41817310       8.18724725      20.42322163      -0.12775428       1.01641044      -3.67634069
O        2.49868799       0.72776919      14.36166300       0.11999600      -0.78717182      -1.21584514
80
Lattice="9.77192453 0.01751879 6.90363604 0.24348012 9.76890588 6.90363604 0.01370155 0.0133883 13.86910312" Properties=species:S:1:pos:R:3:forces:R:3 energy=-576.29310882 source_file=vasprun.xml step_index=445 time_fs=50890.0 time_ps=50.89 file_index=25 pbc="T T T"
Na       1.43196282       2.44177416      15.41603125       0.48768383      -0.17154536       0.43352157
Na       6.57225849       3.55325948      17.05153436      -0.01746588      -0.16643616       0.03536778
Na       1.65805212       5.67864678       7.03192327      -0.29112228       0.50120448       0.29898864
Na       3.76849744       8.71898480      13.77789851       1.32143888       0.02233392       1.11055528
Na       8.11340630       3.73297328      20.47906669       0.24955515       0.11151285      -0.13871157
Na       6.20732725       0.93730723      13.20956545       0.32121165      -0.59454167       0.62312638
Na       1.37088822       8.70677400      17.39141412       0.00704448      -0.12932524      -0.06812340
Na       5.10953499       6.37942722      11.07098504      -0.48324108      -0.31851293       0.45905249
Al       7.24196492       5.29792373       9.12081498      -0.86110772       0.65404401       0.74351677
Al       4.74603001       2.63253489      11.45696592       0.30567215       0.38310673      -1.01454765
Al       2.87026049       4.57169627      18.48079896      -0.74334531      -0.96989985      -0.25784092
Al       5.67726174       6.82075231      15.95448229      -0.53360636       3.03218813       1.56458322
Al       0.51621829       2.04241606      11.49555474       0.10884290       1.33381533       2.00010943
Al       7.90337143       9.52336060      22.99056877       0.61980435       0.60576337       0.12138902
Al       9.73948117       7.72680361      15.87592610       0.85530579       2.15828948       1.22092951
Al       1.99258850       0.26973842       4.61317150       0.63439321       0.30994199      -0.80599983
Si       2.82696812       5.52626705      15.48114388       1.51930583       0.18273271      -2.95877824
Si       4.35855070       7.17676951      19.07193485       2.48687145       4.50367742      -0.85485321
Si       7.39881478       4.15772287      12.21613759       0.16275305       0.15164774      -3.48225073
Si       5.54050069       2.57737610       8.41535805       2.33116563      -0.51488560       0.74403240
Si       1.20998146       7.21276276      12.11975249       0.17249921      -0.65211958      -2.34712005
Si       2.63976394       8.92685886       8.47237207       4.22664733       1.51463548       3.01529109
Si       9.44791087       2.38879123      15.41093203      -0.03696633      -1.48817452       2.01218874
Si       7.38122068       0.65619512      18.98829229      -1.36181381      -0.41984488      -0.69085691
Si       0.41915423       2.80310333       5.65331919       2.39323384       1.91302764      -0.00670422
Si       7.29231496       9.50051534      15.14766379      -3.85795361       0.71414130      -1.96053568
Si       9.69342766       7.06295472      21.83308337       1.19282111      -1.75687993       0.58335651
Si       2.84266819       0.21597965      12.68863717       1.95676347      -0.42489030      -1.66066698
Si       8.11938350       5.34476669      14.88295298       0.98335181       0.45948468       1.87642937
Si       4.53144844       2.10728637       5.44807525      -2.39591164      -2.94924897       2.84167487
Si       2.54060081       4.37450853      12.55488127       1.75078754       1.37811928      -0.74687039
Si       5.47733143       7.83312000      22.02396644       0.83262490       0.15251124       1.71488089
O        8.74534107       5.72338390      22.15090893       0.69603580       1.05847826      -0.30608582
O        4.13842162       1.13021135      12.21871785      -0.35319817       1.18213592      -0.22038942
O        1.26448238       4.25226341       5.30615737       0.28290008      -1.51889142       0.72481178
O        5.95346263       8.46451188      15.10086246       0.91882167      -0.61609422       0.79965009
O        1.18247913       3.65677203      12.16371592      -1.83874515      -3.44964464       0.11756935
O        6.40535122       9.17555013      22.31162251      -1.73425584      -0.76120429      -2.07356598
O        9.17829972       6.57828945      14.78089101       0.12427991      -2.66056773      -0.83990557
O        3.57374309       0.71099770       5.34755515      -0.43209340       1.92293911      -0.41197734
O        3.32069504       6.03884958      19.21599862      -1.20132986      -0.96247694       1.84716655
O        4.15327377       6.49132561      15.15058394      -0.63276580      -1.40975558       0.62858832
O        6.67160306       3.85148063       8.33309918      -0.82392741      -1.05855824      -1.05140475
O        6.39635185       2.89900988      12.14941743      -2.16497489      -0.32254129       0.34948845
O        1.47206879       8.16084212       7.88583994      -3.89091902      -2.90059028      -0.62269998
O        2.22565072       8.49181728      12.45097487      -1.99291769      -0.49718648      -1.15426455
O        8.55399671       1.87072047      18.83594863      -0.70393294      -0.42498784       0.37695046
O        8.01112097       1.42549595      15.44281028       2.15559682       0.14918259       0.13400018
O        2.67549801       4.63416882      16.77626671       0.11650508      -0.46955238      -0.38204059
O        5.23952353       7.10207743      17.75713368       1.05837282      -1.14168683      -1.68081913
O        7.26893517       5.13724823      10.84698811       0.30030408      -1.39184329       2.31375057
O        4.63396535       2.76936789       9.69186913      -0.49464804      -0.43213292       0.99327037
O        0.39810726       7.44170666      10.67320217       0.98044801      -0.43500527       0.74401653
O        1.91594339       0.12718340       2.79965397       0.66473222      -0.16658945       0.45789420
O        0.71108686       2.06272404       9.84154189      -1.78603222       0.11388305      -3.51799073
O        7.56967286       9.25500995      24.67274408       1.03993867       2.25922577       2.47201102
O        9.26597495       8.44908856      22.63995082       1.26366133      -1.55887388      -1.00884193
O        1.35086189       0.67685123      12.21893036       0.48398049      -0.08518153       0.18541428
O        0.84966649       1.62373362       4.67755129       0.66685795      -1.07836052       0.31556494
O        8.48809641       8.97391570      15.95945891       2.39010674      -0.85741731       0.96775070
O        3.98961466       4.15203299      11.81330850      -1.16563253      -0.47228972       0.80802465
O        6.05150245       6.64740232       9.20543638       0.63896003       0.06311592      -2.89327675
O        7.11682866       5.82355606      16.11103033      -0.62771629      -1.44273644      -0.89128274
O        4.22506549       3.50205763      18.66771878      -0.45171885       1.04752134      -1.36373981
O        8.71264154       3.20485504      12.17975462      -0.31516513       0.42536737       0.55043595
O        6.58515691       1.23701638       8.77723955      -0.81615268       0.67437868      -0.97768016
O        1.60988524       6.57903345      15.39713747      -3.25320163       1.75675451      -0.35132945
O        3.40410243       8.56534095      18.70300188      -0.84826896       0.24281536       1.87963524
O        8.74736220       3.84198087      15.33787180      -1.16011977       2.63469522       0.39471030
O        5.88235369       1.56362889      18.75784695       5.26264822      -1.05477725      -1.08667537
O        2.22209655       5.83482497      11.94235258      -1.39626504       3.95911188       0.56325743
O        3.99063723       7.91648959       8.91733188      -1.79948061       1.19272567      -1.00805344
O        7.44041719       5.22627756      13.43695577      -0.93446990      -0.43524407      -0.11990175
O        4.61297899       2.45343297       7.06953024       0.77228426      -0.17438280       0.50427303
O        2.89576663       4.37521021      14.15587620      -1.19311367       0.49241780       2.14392972
O        5.45864658       7.69875513      20.35172148      -1.78246007      -1.32624618      -0.05928414
O        0.75205045       2.50496250       7.28733442      -0.55039839      -0.86983956      -1.53173877
O        7.60733929       9.70388682      13.50065063       0.43072615       0.64350488      -0.85168639
O        9.80690420       7.10621706      20.18769092       0.26503187       0.26935204       0.39470799
O        3.08393644       0.16760505      14.31211934      -0.50287733       0.32812127      -0.62038273
80
Lattice="9.77192453 0.01751879 6.90363604 0.24348012 9.76890588 6.90363604 0.01370155 0.0133883 13.86910312" Properties=species:S:1:pos:R:3:forces:R:3 energy=-576.87089485 source_file=vasprun.xml step_index=465 time_fs=72930.0 time_ps=72.93 file_index=36 pbc="T T T"
Na       8.54862244       3.39897496      20.57180938      -0.24834621       0.59781024       0.43133181
Na       8.37664409       2.22262900      10.18107401       0.04033091      -0.78558019       0.01142696
Na       7.41227173       6.41731363      18.29363020       0.14873088       0.36073355       0.35748195
Na       4.82034761       8.16622807      13.05774535      -0.16250716      -0.05015449      -0.00798820
Na       2.28322222       2.38461384      15.25654709       0.15949525      -0.19456975       0.36526416
Na       6.36485646       1.25100968      13.86320416      -0.57881381       0.12825790      -0.61729330
Na       2.34268174       1.65667270       9.22162408       0.19706973      -0.16790093       0.02240352
Na       1.43241985       5.69955824       6.99583912       0.29651271       0.50160395      -0.04340557
Al       7.12665566       5.37555133       9.16864671      -0.59811306       1.89446939       0.87532349
Al       4.65588351       2.66138885      11.47320745      -2.60139263       1.50460967       1.72884677
Al       2.86481129       4.16732273      18.30821219       0.14357592       2.93655761       0.88499773
Al       5.42916222       6.82739875      16.13468113       0.86031521       0.02612933      -1.80460691
Al       0.32041326       1.94160274      11.64909289       1.28960454      -1.35783748      -1.84509704
Al       7.95365978       9.67286419      22.90644371       1.39696262      -3.89699680      -0.18280340
Al       9.50198449       7.82137340      15.90120289       1.75459180       1.08112977      -1.23104960
Al       1.91157415       0.41133885       4.65766335      -0.77133654      -1.93636716      -1.98341778
Si       2.69299222       5.48031949      15.34818875      -0.63106841       0.53207046       0.18027556
Si       4.33137046       6.99728143      19.20426347      -1.33485366      -0.41858907       1.05784334
Si       7.29849473       4.17873603      12.18206451       0.16586927       0.42501019      -0.54828887
Si       5.54138827       2.67547523       8.45314653       0.05177774      -0.22536176      -1.40517786
Si       0.65505259       7.43591698      12.04164367      -0.16635195      -2.35503007      -0.44827757
Si       2.64341167       9.20799534       8.44638542      -1.11813970      -3.03585637       3.11086821
Si       9.19902534       2.49497513      15.49944114      -2.95980618       2.88709264       0.77713639
Si       7.36540350       0.51754624      19.00866591      -0.85059999       3.00047018       4.02391715
Si       0.42138088       2.67661563       5.84008064       0.97871449       1.40102962       0.83628790
Si       7.17064294       9.53381521      14.93196179      -0.77990128      -1.82495758       1.58970740
Si       9.74493624       7.26080647      21.88969082       0.74701403       0.91565358      -0.38253736
Si       2.82721239       0.18257647      12.58442995      -1.67446842       1.72098499      -3.15260211
Si       8.06391120       5.50599080      14.95718783      -2.91257351      -2.22439873      -0.67687306
Si       4.38598284       1.87776858       5.72195071       1.02408858       0.57532826      -3.30183320
Si       2.03547453       4.43017278      12.61000406      -0.49331661      -1.21348941       0.96857162
Si       5.58946356       7.77534198      21.85360725      -0.33619310       0.56956352       0.55197841
O        8.64070109       6.25445471      22.48236882      -0.75004468      -2.43054957       0.14773449
O        3.97820360       1.31386457      12.40679976       1.06773194      -0.16424442      -0.26557130
O        1.62068126       3.82729279       5.65375452      -1.60370675      -2.02107524       0.27718359
O        5.99028328       8.33832611      15.23417385       0.13416531       0.86289388      -0.12091188
O        0.80366703       3.28230509      12.61267107       0.02894317       1.32582794       0.16855992
O        6.73115487       8.97100445      21.66855160       0.10730251       0.14058852       1.73236992
O        9.10987381       6.62412345      14.56318270       0.66052046       1.12324782       1.33743590
O        3.36850169       0.58325556       5.55883617       0.64637664       1.26561946       1.23785068
O        3.28011014       5.73275471      19.28422657       0.56510601       0.54831847      -0.11361526
O        4.20534173       5.98622205      15.18233605       0.66609873       1.06734771       0.10127070
O        6.76079852       3.80541958       8.34585854      -0.10283784      -0.05854737       0.08758569
O        6.21755112       2.94249318      12.24248283       0.23412222      -0.46961932      -0.27340895
O        1.46640677       7.99706896       8.52526777       0.68600356       1.06065361      -0.36860625
O        1.84469791       8.45084338      11.82726842       0.29530309       1.35789992       0.90122363
O        8.50661695       1.73248475      19.26855251      -0.94337538      -1.68996929      -1.07152355
O        8.00763663       1.44272835      15.32550781      -1.47920386       0.75122873       0.06553587
O        2.47488071       4.52906500      16.64174257      -0.45095075      -0.11347454       1.31159120
O        4.95589903       6.98906983      17.75809166       1.70568818       0.02344734      -0.85224960
O        6.85516397       5.15565299      10.94686615       1.72397749      -1.42433943      -0.52054858
O        4.62104573       2.65337774       9.75386745      -0.12123642      -0.11579386      -0.13396544
O        9.46115650       7.48930771      17.58970428      -0.04159144      -1.34771453       1.58176599
O        2.12177279       0.44369755       2.86514044       0.80700336       0.18359820      -1.33696696
O        0.29817660       2.20898207       9.82517369       1.12676340      -0.23464141       5.02641857
O        7.61983841       9.40196753      24.67815857       0.46449262      -1.01172179      -4.47433173
O        9.56345215       8.68797214      22.58592420      -1.29489391       1.36852792       0.49280051
O        1.52074442       0.57581854      11.53923515       1.22173271       0.19552809       1.31567334
O        0.45728168       1.43261731       4.82605736       1.05168591      -0.68971065       0.12046552
O        8.49070841       9.28053476      15.83607448       0.07264724       0.04092014       0.01199318
O        3.21808120       3.86985890      11.74397329       2.36885860      -0.95409603      -0.98933830
O        5.81100843       6.52384845       8.97027809       0.67843580       0.07353144       0.25172872
O        6.95227556       5.81399136      16.15330137       0.09420898       0.90225796      -0.76518537
O        4.12279966       3.03798154      18.36321008       0.63289813      -2.24139513       1.60994692
O        8.85035665       3.44726736      12.18706328      -1.84250449       0.42860420      -0.35660000
O        6.44997223       1.29994557       8.49820708       0.16578258      -0.74168633      -0.61463895
O        1.66375018       6.79934430      15.16483800      -1.68282019      -0.67700460      -0.23137205
O        3.65409514       8.49040909      19.33459785      -0.17691668      -1.08968154      -0.18515400
O        8.73596370       4.12567584      15.48602578       1.03751436      -2.00283029       0.03046404
O        5.86863813       1.23197858       5.36668395      -0.25898571       0.55925697       0.13548045
O        1.61046060       5.92872352      12.21405928      -1.84146116       1.61146402      -0.16409258
O        4.16548123       8.50366774      22.32457447      -0.52362786       0.59457462      -0.27922455
O        7.32538081       5.03288944      13.50263719      -0.15132152       1.43876445       2.45696684
O        4.40453398       2.64566569       7.17024300       1.13201125      -0.25065244       1.36949651
O        2.42710674       4.27794025      14.26501226      -0.47255069       0.96747527      -1.98394775
O        5.49235910       7.00794792      20.40922128      -0.67830960      -0.25053589      -2.02153849
O        0.47591098       2.15903727       7.49860489       2.30395635       0.55876481      -6.03694542
O        7.60023250       9.32611389      13.38838930       0.01825880      -0.07576341      -0.36885285
O        9.28413518       7.52973623      20.20174573       2.23694471      -0.99139134       0.16040025
O        2.22151212       0.30607407      14.05815657      -0.56982458       1.22961488       1.49972643
80
Lattice="9.77192453 0.01751879 6.90363604 0.24348012 9.76890588 6.90363604 0.01370155 0.0133883 13.86910312" Properties=species:S:1:pos:R:3:forces:R:3 energy=-574.6665157 source_file=vasprun.xml step_index=15 time_fs=74030.0 time_ps=74.03 file_index=37 pbc="T T T"
Na       8.85420694       3.41299267      21.14395403       0.58376610      -0.02438714      -0.36954133
Na       8.41536245       0.83632174      10.64516519      -0.04384204      -0.03599813      -0.17124593
Na       7.21108056       7.06431830      18.92056800       1.22583595      -0.13215147      -0.14141960
Na       6.09411002       7.15188772      10.95619909      -0.18978656       0.27534716       0.25651599
Na       2.79508389       2.31437239      16.28094949      -0.34607578       0.07895234       0.06210508
Na       5.59032334       1.59291695      14.02778331       1.29273402      -0.00686556       0.66827328
Na       2.37518712       2.05883473       8.13584805       0.72972287      -0.10412247       0.15044067
Na       0.45882737       6.50756659       6.08357046       0.44012288      -0.12075929      -0.06303542
Al       7.24463083       5.23607136       8.86515971      -1.38906849       0.45114758      -1.49050129
Al       4.55714288       2.99491035      11.56211274       2.57441678      -0.27300137      -0.43893307
Al       2.87984808       4.55950336      18.51520822      -0.54707530      -0.18409838       0.96697219
Al       5.23294936       6.70903924      15.91064601       3.26812292       1.98198710       2.09929187
Al       0.15166532       1.99381780      11.80443895      -0.21896602       0.32118055      -2.81409581
Al       7.93309567       9.54739901      23.02659851       0.86762766      -1.12163229      -1.07811094
Al       9.69374467       7.79107861      16.10894778      -1.72787811      -1.34015677      -1.28411242
Al       2.01088382       0.33729681       4.79752838      -1.00327722      -1.57108125      -2.09115937
Si       2.36486415       5.20209176      15.64908470      -2.61063029       2.48537600      -2.49927259
Si       4.42743577       7.35494732      19.01159650      -2.67983069      -0.25367054      -1.07229377
Si       7.56170397       4.54088525      11.88615646      -3.11917666      -5.08039310       2.60962401
Si       5.82976332       2.51320314       8.56324873      -1.98050586       1.30348309      -0.70638879
Si       0.92995121       7.28703763      12.08779926       1.28258327      -1.53740096      -0.19740363
Si       2.91227533       9.16304550       8.67106429      -3.22519146      -0.60768916       4.00453517
Si       9.23753416       2.35492915      15.22265081      -1.90923401       2.08336416       4.39973469
Si       7.30656896       0.54186286      19.18149205       0.52251332      -0.64497229       2.24925456
Si       0.30930825       2.97348508       5.49564365      -0.82899054      -5.82757051      -0.41774540
Si       6.97335737       9.31244096      15.05257137      -2.60334374      -1.77542655       2.58171061
Si       9.53216127       7.16659629      21.76650343       2.31317721       0.99606946       0.05779526
Si       2.79736446       0.50884548      12.71862252       2.27047599      -0.96360281      -0.29744102
Si       8.02869972       5.40854675      14.74510174      -0.25467327      -2.05446588       2.35030286
Si       4.51306577       1.90139292       5.68910984      -0.95211390       1.89954426       1.12841117
Si       1.88624112       4.26339727      12.71004837      -0.48115272       1.38571821      -0.60749670
Si       5.50677181       7.64899447      21.85327768       0.33755830       0.96833091       0.31364790
O        8.61867914       5.85278679      21.83158385      -2.04092997      -0.88064940       0.27654262
O        4.28093856       1.42623906      12.42750446      -2.52849925      -0.24907711       0.04144328
O        1.21109028       4.20157465       5.45570089       2.14251589       2.84505670       0.43065713
O        5.58678794       8.39149824      15.51415550       1.58960791       1.55399139      -2.19806642
O        0.43460635       3.50396366      12.53501287       1.33964566       1.38092592       0.07300565
O        6.71048860       8.72768213      22.02704801      -1.15395931       0.97452570       0.32791359
O        9.39527808       6.21855419      15.12351601      -0.20280181       1.41554776      -0.01425951
O        3.10199397       1.09624504       5.78583020       2.18465620       0.15169754       1.70008904
O        3.30832302       6.14009325      19.09404412      -0.22244847       0.36568354       0.05993176
O        3.77155996       5.95319952      15.85754179      -1.65830929      -1.45497178      -1.32696896
O        6.88761829       3.67339129       8.02403936      -0.38650385       0.09374158       1.78417505
O        6.06759712       3.82981241      12.19595086      -0.38798006      -0.26247614       0.02061837
O        1.35497552       8.59904554       8.94142422       2.24917646       0.55175156      -1.69851669
O        2.05701225       8.38207336      12.12373812       0.72594562       2.64914874       0.07742521
O        8.47139866       1.59218566      19.58054136      -0.58317692      -0.57325988      -0.18649850
O        8.15115229       1.18262284      15.25105231      -1.21622814       0.33793404      -0.21565939
O        2.07532606       4.37764187      16.96141059       0.32936663      -0.87995019       0.72043093
O        5.37477433       7.13142958      17.75564704       0.11277682      -0.31562018      -0.74480781
O        7.45960538       5.32230357      10.56882380       0.95495142       1.34040859      -1.79672545
O        4.93009299       2.87364221       9.85922914       0.25292621      -0.01470046      -0.58269455
O        9.72738063       7.41654443      17.74543552      -0.93734469      -0.82057648      -0.21757414
O        2.91042227       0.20944644       3.21801700       0.25163233       0.37155094      -1.50966909
O        0.15817488       2.44219612       9.96560222      -0.45198791      -0.97815982      -2.26336375
O        7.69805072       9.51653100      24.73957543       0.17453593      -1.24128657      -1.13303752
O        9.29512561       8.52633389      22.67990562       0.65347664      -2.50601728      -0.83900387
O        1.26764300       0.76961253      12.27036290       1.78268250      -0.10201110      -0.65133250
O        0.70682203       1.61354516       4.49670494       0.31679024       0.38804727       0.84643643
O        8.17839172       8.73565470      15.92741606       1.76110497       0.07381081       0.71329666
O        3.07297471       3.71212336      11.72281582      -2.44817243       1.00903544       1.56284586
O        5.82143181       6.33122639       8.77818889       1.33964965      -2.25213277       1.33508760
O        6.68463005       5.67454049      15.68387369       0.75438498       0.20921079      -1.59859674
O        4.03531719       3.26977122      18.76818084       0.47632341       0.15937982      -0.50079825
O        8.51617557       3.13053607      11.91374627      -0.05531090       1.69917075      -0.20375189
O        6.54043836       1.10979947       8.88064749       1.39524120      -2.15861077      -1.11441758
O        1.18483989       6.40354008      15.33907914       1.41957349      -0.25985016       0.18398221
O        3.67911728       8.82018812      19.16651891      -0.89540865      -0.11189490      -0.42537508
O        8.40094301       3.75187346      14.84168737      -0.02503802       0.74413665       0.49714111
O        5.95821347       1.37452116      18.95979484      -2.51084787       0.66914911       0.44258526
O        1.85829533       5.88410650      12.21598743      -1.16831804      -0.98764767       1.03312192
O        4.03582042       8.03328575       8.56824822      -0.01571167       0.15476185      -0.15423252
O        7.84094053       5.53242340      13.10274438       0.68546403       1.74215867       0.30744367
O        4.73694705       2.29258989       7.31899477       0.25220431      -0.29085646      -0.35431718
O        1.98201185       4.00067971      14.43890509       1.88510810       1.46261441      -0.51006573
O        5.36404640       7.31302292      20.30777281       1.29195189      -0.37881550      -0.46866170
O        0.40438340       2.19517044       7.03252431       1.41529427       0.23508648      -1.19681233
O        7.40072041       9.09885877      13.48771104      -0.46006659       2.07466226      -1.76202316
O        9.54438431       7.53381239      20.08067416      -1.04771156      -0.26860426       3.77545094
O        2.58381069       0.36112951      14.36774597       1.09308760       1.74688428      -0.70223211
80
Lattice="9.77192453 0.01751879 6.90363604 0.24348012 9.76890588 6.90363604 0.01370155 0.0133883 13.86910312" Properties=species:S:1:pos:R:3:forces:R:3 energy=-577.12258861 source_file=vasprun.xml step_index=970 time_fs=39940.0 time_ps=39.94 file_index=19 pbc="T T T"
Na       9.20563630       1.30353559       9.55889752       0.34328563       0.01827039       0.52711472
Na       6.35070664       4.14830242      17.32301314      -0.31428720      -0.59150958       0.16043555
Na       3.98354676       5.36928584       9.52438374       0.09662203       0.09073576      -0.11749229
Na       0.94532635       0.03639190       9.29067718       1.24558561       0.20611787       0.61637579
Na       6.53949703       0.82628306      13.40846389      -0.39794225       0.18150466      -0.14573204
Na       8.93236373       4.68638250      20.07857363      -0.40153655      -0.32233531       0.01929537
Na       1.41479026       6.49470032       5.88179666      -0.37233439       0.10510778       0.61275382
Na       4.83310336       8.07720781      12.97976572      -0.39506651       0.28493654      -0.23597064
Al       7.09631478       5.19097766       8.79953303      -2.75591226      -1.96640212       1.74883803
Al       4.58518728       2.82033602      11.31931946       2.92148439      -3.04186275      -0.47511393
Al       3.16207404       4.59931454      18.19722686       0.13709683      -2.41524504       0.82395508
Al       5.42603031       7.02526557      15.65427677       1.39904766       1.01945850       2.60544019
Al       0.44401238       2.50375668      11.10808906       0.09164164      -0.83607241       2.61462228
Al       8.19149521       9.38349892      22.81093524      -0.08522200      -3.47906433       1.57488767
Al       0.21628747       7.48913008       8.97220992      -0.42796262      -0.34077089      -0.63041593
Al       2.07452907       0.36352442       4.62069643       0.87029288       0.68612334      -1.74231483
Si       2.81695884       5.45905590      15.28895727       4.55784086       0.21575880      -1.62258237
Si       4.22526941       7.43237132      18.78196731       0.67313790       2.02723923       0.08797806
Si       7.41199189       3.97979158      11.77978430      -0.41106995       2.64702185      -0.31206911
Si       5.82000627       2.27124381       8.37099892      -0.64676757       3.52737578      -0.47626856
Si       1.12255677       7.43646343      12.09444119       0.46192112       0.27082200       3.31024640
Si       2.79346720       8.95242717       8.35707336      -2.30992973      -1.14606676       0.78743446
Si       9.08042078       2.41017830      15.30745182       0.03477021       0.99734198      -4.30479740
Si       7.71956517       0.85059241      18.88049695      -0.30568381      -1.95691169      -0.44636366
Si       0.48237777       3.00639415       5.38287223       1.53671904       1.16194350      -1.10690672
Si       7.64178976       9.39088896      14.74008605      -0.42883853      -3.76718582       3.25477755
Si       9.86359195       6.65975160      22.01067841      -0.33439852       5.00892422      -1.79494748
Si       2.67351966       0.47187841      12.48667702       1.27667712      -0.20980040      -3.02846696
Si       7.72856959       5.23457777      14.83496595       1.07437154      -1.30200123       0.95750958
Si       4.72774133       1.96664340       5.48258314      -0.10660282      -0.72722510      -3.05612745
Si       2.36496743       4.64874425      12.43820813       1.19261083       1.54788521       0.93523066
Si       5.54856388       7.70811360      21.60190791       0.57642568       1.15845194       3.04549008
O        8.58106416       5.72878729      22.15677886       2.50081158       0.23338443      -0.50666793
O        4.00470185       1.43713466      12.19333669      -0.76557250      -1.33425165       0.23145819
O        1.65316126       4.17169460       5.27754930      -0.46756968       0.11811580      -0.40906715
O        6.42949518       8.20528051      14.68980369      -0.32580540       0.34507314       0.67232607
O        0.93255517       4.02590950      11.97910047       0.31896708      -0.94390203      -1.04914246
O        6.65143740       8.83611230      22.15826655      -0.06151317      -0.81206804      -1.07889078
O        9.01416986       6.23155876      15.00800695      -0.27700979      -0.00749393       0.74786076
O        3.76193738       0.73917447       5.00829636      -1.62617812       0.23653797       0.67564172
O        3.49247085       6.04856657      19.01444792      -0.25961382       0.34208356       0.85757559
O        3.96506323       6.64064245      14.95019307      -2.43848019      -0.31442633      -1.69135295
O        6.75991050       3.64987434       7.93997273      -0.11656598      -1.65480267       0.99750330
O        6.36454208       2.74196682      11.85466430      -0.35858304       0.27835960       0.65922964
O        1.85893395       7.44405929       8.20272761      -1.30922290       2.21247409      -0.63806849
O        1.78131398       8.85716795      12.53044067      -0.16316598      -0.52876028       0.20943186
O        8.60466462       2.23355486      18.90520780       0.54928198       0.30611552      -0.53953879
O        8.08514935       1.12870756      15.24546460       1.05569564       2.16751720      -1.51600556
O        3.42363219       4.68669685      16.50456417      -0.04325985      -1.04481764       1.31596905
O        5.06645425       7.46597450      17.44446302       1.14626937      -0.16949182      -2.22832053
O        6.85029902       5.07533766      10.58029712       1.15148974      -1.44109968       1.08405707
O        4.75195219       2.75990159       9.56687822       1.05786928      -0.99214672      -0.86831613
O        0.46268538       7.47795649      10.69168686      -1.08276776      -0.95279690      -0.77080321
O        2.31874775       9.60885894       9.75537552      -0.00301131       0.54073666      -0.10724824
O        0.54473846       2.38220077       9.38300628       0.80343796      -0.56055482       1.14470825
O        8.43798275       9.65383653      24.52874123      -0.43227863       0.74742454       0.74549129
O        9.69263607       8.27725305      22.54638412      -1.64842285      -1.68523934      -0.20526183
O        1.46187294       1.10076971      11.58208830      -0.28588856       0.31558005       0.50565919
O        0.99034198       1.73387514       4.61363919       0.79819433      -2.00909740      -1.45629042
O        8.89279262       8.90245251      15.80399811      -1.27689682       1.36436944      -1.78596720
O        3.76166662       4.19508916      11.65845574      -3.04868205       2.71145196       0.76834713
O        5.81381775       6.23024135      22.15943319      -0.01736112      -0.12167843      -0.01768485
O        6.27691864       5.47022247      15.63572919       2.20724317       0.53238310      -1.08479405
O        4.50286498       3.41443409      18.48990357       0.38085081      -1.51811057       1.62725569
O        8.91426162       3.38946333      11.43636391      -1.33060486       0.82357511      -0.68720492
O        6.81889837       0.96434176       8.57227038      -0.44127769       1.17063882       0.22596308
O        1.48858103       6.11718433      15.69930962      -3.64969339       1.44868216       1.18229083
O        2.99140844       8.61121735      18.73094541       0.84443808       0.92137265       1.19968031
O        8.17875658       3.69126010      15.64263524      -1.25272905       2.26301982      -0.40016342
O        6.08716411       1.11673601      18.80567804       1.73581868       1.26912253       0.30563637
O        2.31183643       6.32803752      12.28113314       1.16492224      -1.79351187      -0.96945079
O        4.13609080       8.12012814      22.31415050       2.14518013       0.00742422       0.34370843
O        7.67960662       4.90314956      13.24588399      -1.04251030      -1.10396451      -1.76339158
O        4.80840682       2.09154833       7.06849379       0.32197106      -0.15160701       1.37083056
O        2.53386319       4.40716214      14.08732432      -0.22277837      -0.37082876      -1.75664002
O        5.31480726       7.74132914      20.05373169      -0.63921199       0.30664390      -3.04930684
O        0.08420242       2.52545658       6.81710701      -1.80816009      -0.38791358       4.60240548
O        8.12951699       9.50391588      13.26060165       0.90839681       2.30992781      -2.99541465
O        9.94843068       6.95257431      20.32983611      -0.45497463      -0.84115700      -0.13240772
O        2.65736498       0.35381323      14.08252103      -1.04245061      -1.27272229       2.06479622
80
Lattice="9.77192453 0.01751879 6.90363604 0.24348012 9.76890588 6.90363604 0.01370155 0.0133883 13.86910312" Properties=species:S:1:pos:R:3:forces:R:3 energy=-577.53419878 source_file=vasprun.xml step_index=395 time_fs=36790.0 time_ps=36.79 file_index=18 pbc="T T T"
Na       9.44868480       0.99859491       9.74462401      -0.45724663       0.16333605      -0.01439321
Na       6.16198257       4.06342706      17.64532696       0.45783852       0.33355294      -0.74304896
Na       4.23979266       5.59807973       9.68929528      -0.04979485      -0.39946789       0.32211996
Na       1.01804630       8.68811442      17.22053517       0.47966234       0.36698300       0.30841945
Na       5.74294006       1.51864112      13.93753227       0.22299914      -0.61569170       0.39249669
Na       8.82849947       4.10991358      20.28437957       0.18788678      -0.27792021      -0.06807892
Na       1.44623935       5.80320497       6.57929117      -0.05201906       0.23403918       0.20358536
Na       4.41411554       8.32948407      13.11094555       0.53191993      -0.04869433       0.32147032
Al       7.36955666       5.12280654       9.00603433       1.30931812       0.88863274      -0.45517084
Al       4.81979283       2.80649197      11.54524615      -0.42236788       0.06742127      -0.42009923
Al       2.90497327       4.79486623      17.91909769       1.99593896      -0.66687067       1.95500657
Al       5.42277956       6.76544906      15.61592252       1.47093197       0.70498619      -0.29244870
Al       0.34261869       2.04096694      11.24125489       0.66908903      -0.41745613      -0.68877843
Al       8.14116923       9.56671133      22.64479317       0.24275613       0.05905056       0.96576933
Al       9.80371668       7.78632103      15.92063068      -0.23798917       0.01822828      -2.36566653
Al       2.25396452       0.20504848       4.75403133       0.46225791       1.03599945      -1.11798455
Si       2.88586099       5.57621851      14.94177167      -0.44001832       1.77238669      -0.79243090
Si       4.29827277       7.43746608      18.74234489      -0.57832632       0.24890112      -3.60640772
Si       7.59279512       4.12049967      12.00375638       0.39428882      -2.36288202       1.21133787
Si       5.80365097       2.48229267       8.35792056       1.11723557       1.16661378       2.31302605
Si       1.09878221       7.37046276      11.75633815      -0.41216197       2.03389527       3.07248712
Si       2.98497545       8.75919369       8.58095327      -0.35269840       3.11948201       0.16527752
Si       9.25540824       2.46179395      15.07320066       3.03870972      -1.24901261       2.39811536
Si       7.30220910       0.96057420      18.77585770       0.14574219      -1.66216895       0.10182467
Si       0.63065514       2.90564560       5.23406211      -2.37028606       0.03197631      -1.73321941
Si       7.23029455       9.37196444      14.62366964      -0.30680930      -1.73976251       1.98690079
Si       9.85553287       6.97978142      21.59379200      -2.20248265      -0.59715007      -0.16806079
Si       2.88031220       0.29988139      12.58669701      -1.85349522       2.35274870      -0.98696068
Si       8.13852984       5.18569807      14.92819574      -4.06611332      -0.94166552       3.01804171
Si       4.63637959       2.35194819       5.48219283      -4.25584884      -1.75851748      -1.43348942
Si       2.24934472       4.64193911      12.07444112       0.67225890      -3.48752879       0.42325106
Si       5.57568604       7.56584686      21.64509794       2.64893124       1.89734679       0.56430267
O        8.90992030       5.68177011      21.93219731      -1.26925049      -0.52121009       0.80167864
O        4.04112792       1.36933535      12.23312143       1.05475406       0.90422187      -0.08053478
O        1.34139903       4.26712896       4.61025164      -0.41168512      -0.39673292       1.27449354
O        6.13557017       8.14565772      14.72436462       0.41342625       0.82674991       0.60496723
O        0.99325103       3.56830631      11.72709529       1.62508847       2.23158647       0.62203169
O        6.64625049       8.87455439      22.18631411      -3.16035448      -2.46047547      -2.26045706
O        9.13172045       6.26787691      15.39923182       2.48984446       1.74187377       0.32302318
O        3.68186530       0.96422754       5.39129474       0.80321664       1.21774382       1.13639466
O        3.36650882       6.14619414      19.03409168      -0.97266911       0.01967569      -0.19363531
O        4.16950749       6.44124362      14.45243270      -0.81155195       0.00290858      -0.42140780
O        7.14517450       3.50557319       8.49299394      -1.06544554      -1.31930108      -0.99912329
O        6.32529374       3.12226884      12.51629965       0.24047250       0.92921278      -1.07471801
O        1.76831906       7.74333353       8.32742993      -2.35577117      -0.10122320      -0.14696770
O        2.29485416       8.38548325      12.44336807      -1.58112991      -0.00716629      -1.17927195
O        8.40673663       2.11601142      18.66812772       1.81214202       1.17846552       1.53567150
O        8.28712066       1.26676426      14.75423933      -2.31782530      -2.00227526      -0.70932764
O        3.43119213       4.90582715      16.29573791      -1.03243268      -0.57470291      -0.19289228
O        5.02343746       7.22874360      17.22193449      -0.82314942       0.41853271       3.11167741
O        7.29306655       5.07931428      10.79372898      -0.56813497       1.43612638      -1.40637407
O        4.87967887       2.73727620       9.79711626       1.41937144      -0.50606448      -3.14501963
O        9.92930053       8.14011792      17.58730643       0.60450052       0.03462455       0.20091383
O        2.83649979       9.67207982       9.96637730       0.12042437      -1.45400262      -2.50270884
O        0.38497630       1.80354095       9.44772131      -0.07091320       0.47574264       0.14032701
O        7.66437023       0.06117738      17.51000290       0.01733590      -0.75530141      -1.42001710
O        9.28163485       8.20311324      22.57642425       1.13062688      -0.05722742      -1.46832247
O        1.35992125       0.87800735      12.15939257       0.43415793      -0.68872015      -0.06683118
O        1.17349223       1.59698679       4.42048901      -0.28784403      -0.20754921       1.47033959
O        8.72040135       9.01129366      15.18072539       0.88903653      -0.03585586       0.93707729
O        3.85604248       4.28788615      11.64685651      -2.55305643       0.77826643       0.19422005
O        6.06341979       6.03474727      22.07132859      -0.32375496       1.50001999      -0.22500862
O        6.62399234       5.48549236      15.70143865       1.52285238      -0.73539094      -1.12901339
O        4.19393204       3.74074983      18.65199217      -0.99821014      -0.48277541      -1.06156725
O        8.79090658       3.03751727      11.46073790       0.92127025       0.56360299       1.68685810
O        6.58956227       1.01480012       8.44571191      -1.15938559       0.55357384       0.02266884
O        1.56232840       6.59935775      15.18889245       1.90947001       0.12867137       1.02602899
O        3.24114851       8.75342264      18.55452440       0.48552373      -1.62905961      -0.23144821
O        8.52158094       3.75904230      15.68641521      -0.24596552       0.55269700      -0.56791106
O        6.00027464       1.92870700      18.72611304       2.21056940      -0.97678114      -2.31640959
O        1.85053335       6.02392534      11.31810247       0.57308518      -0.11534258      -0.82678546
O        4.20022552       7.69791704       8.70042519       1.24456124      -0.36371904      -0.29308001
O        8.19529720       4.96236374      13.35763001      -0.49087053      -0.54678451      -2.65531243
O        5.08640887       2.85362456       6.87847240       0.72490621       0.10277472       5.94687660
O        2.28400651       4.67468044      13.74104242      -0.24031233      -0.52439566      -0.80220796
O        5.19217980       7.86167342      20.00837921       1.53437292      -0.70221624       2.21705434
O        0.51882819       2.79611694       6.89551007       0.15383957       0.49623898      -0.78418466
O        7.29482828       9.58948736      13.07446678       0.62054460       2.30432391      -4.14404072
O        9.78012026       7.01483556      19.88122678       0.67359741       0.36380396       1.28757531
O        3.11903503       0.08393657      14.17595171      -0.81789249      -1.90315715       2.90002084
80
Lattice="9.77192453 0.01751879 6.90363604 0.24348012 9.76890588 6.90363604 0.01370155 0.0133883 13.86910312" Properties=species:S:1:pos:R:3:forces:R:3 energy=-574.05369585 source_file=vasprun.xml step_index=315 time_fs=76630.0 time_ps=76.63 file_index=38 pbc="T T T"
Na       8.41476734       3.65785631      20.93196473       0.22087327       0.28732050       0.40552443
Na       8.20654388       1.18965130      10.62784840      -0.01322557      -0.05434469      -0.24304912
Na       5.72704320       4.62615724      18.05433235       0.39962296       0.26605540      -0.29980915
Na       2.42126450       9.20944385      16.08183914      -0.24614182       0.01107370       0.31639989
Na       2.19482661       2.30222191      15.59317972      -0.13340373       0.44115180      -0.13828072
Na       5.68946903       1.57688118      13.74718885       0.49145207      -0.45869492       0.68790494
Na       6.51630796       7.74131720      11.86625869       0.06052501      -0.08061247      -0.26142057
Na       1.85251103       5.53352143       7.76026630      -0.30335822       0.09245988      -0.49254956
Al       7.04440275       5.57546961       9.48902415      -2.36368579      -0.66892921      -3.85119782
Al       4.49389035       2.84632893      11.47627680      -0.35110845      -2.41364280      -1.76496033
Al       2.54706559       4.49296794      18.52593807      -0.31235424       1.13633831      -0.91418851
Al       5.10980127       7.18683105      16.05126250      -1.50107311       1.99047130      -0.02009191
Al       0.40956786       2.08758587      11.82175297       1.34447919      -2.54148550      -0.04899539
Al       7.88545470       9.74299183      22.99846171       1.02038798      -2.91100719       2.12225084
Al       9.47754485       7.70743293      16.01136175      -0.29856153      -1.04131136       0.32206191
Al       1.82413962       0.20171954       4.67974140       1.58363415      -0.96538651      -0.36719383
Si       2.37762852       5.67112562      15.48795524      -0.10986155       0.70359351       0.50642265
Si       4.06026281       7.17702039      19.15085206       2.75995136       2.06607842       2.04880886
Si       7.19964575       4.21554898      12.14996458       1.99473655      -1.47181172       1.68328484
Si       5.60254325       2.50270603       8.59520772       0.51198356       1.16346013       0.21892855
Si       0.66046665       7.22008242      12.11979766       2.21810699       1.14214211       2.73028334
Si       2.28056949       9.00804305       8.57580274       1.68152491       0.81428079      -1.59912770
Si       8.91352781       2.52977018      15.85169261      -1.16496048       2.72691841       0.07969377
Si       7.25268216       1.12845496      19.25676441       4.42418450      -0.66597931      -2.61239782
Si       0.14335769       2.74806494       5.87095395       3.14797579       0.08078938       2.01503526
Si       6.87804605       9.50016668      14.95281662       0.84776007       1.57869690       4.09108382
Si       9.36398034       7.23327779      21.98484109       0.76151032       1.17889316      -1.43642908
Si       2.72815626       0.35696293      12.70858209      -1.80627632      -0.30249005      -4.62498138
Si       7.76194531       5.44235701      15.16371118      -0.07237292      -2.18427865      -1.47865051
Si       4.50225389       2.02209478       5.42070446      -1.20338372       2.35183756       1.53626153
Si       2.15990247       4.39400553      12.75824780       3.23859980      -1.07012303       1.75144202
Si       5.28933310       7.85917287      22.20575804       0.40093675      -1.89447512      -1.63784749
O        8.17927564       6.14105430      22.21034770       0.82456856       0.58847046      -0.18876097
O        3.82222957       1.51640537      12.42376354       0.71039607      -0.13623280       1.41080005
O        1.46860266       3.82286836       5.83766430      -2.45066156      -1.09574917       0.46881162
O        5.39617826       9.02541606      15.50530800       1.20512546      -2.46228243      -0.25458539
O        1.03952283       3.25692480      12.94749503       0.36390052      -0.30649494      -0.27095533
O        6.57199640       8.86298305      22.18821731      -0.39269281       1.07056850       0.06793178
O        9.08611925       6.29531854      15.03188265       0.78279990       0.11333124      -0.00891318
O        3.48694095       0.78845030       5.19015389       0.48404173       0.16077040      -0.57309747
O        3.01888686       6.05069294      19.21001560      -2.48557845      -2.28656637       1.09980789
O        3.32429116       7.00584340      15.35443268       2.91698176      -0.49920833       0.97663744
O        6.69913315       3.89482408       8.92062488      -2.09836306      -1.87403949      -1.60694327
O        6.12450797       2.96258768      12.03109094       1.37108708       1.39216269       0.57799453
O        1.28114437       7.79203569       8.31687473       0.40627968       0.15199978       0.43080121
O        2.11776514       8.21960857      11.90316582      -2.98044117      -0.71332889       0.90358394
O        8.81843912       1.72796991      19.67788555      -4.68242768       0.08492318       1.37147742
O        7.65556662       1.56680813      15.64061242      -0.99803796       0.65880110      -0.88638027
O        2.08513202       4.82954308      16.82264307       1.14973755      -1.59090930       2.37554791
O        4.85125953       6.89783793      17.78399560       1.49381676      -0.36392690      -1.06121538
O        7.31899235       5.36371039      11.06938910       0.30689584       0.56300890       3.26101825
O        4.58409756       2.23972521       9.81537343      -0.29484668       1.01934037      -0.01949815
O        9.46761903       7.44167660      17.79690446      -0.28931219      -0.19003385      -2.50802079
O        1.62483369       0.22444924       2.86222014      -0.10719256       0.98499310       0.90927362
O        0.12405891       2.44145080      10.19870492      -0.42129001       0.50789499      -1.57923085
O        7.77739346       0.27798485      17.93914270      -2.10857666      -0.99601152      -0.49193005
O        9.41508617       8.73527046      22.74366440      -1.27516632      -1.05642292      -0.41426283
O        1.44902904       0.61019481      11.59088447       1.36362176       0.54266526       1.69618347
O        0.62839409       1.31595634       5.22668009      -1.00714212       0.48218036       0.02028510
O        8.30936680       8.90827306      15.64697537      -2.22577674       1.23547540      -0.93714329
O        3.50847439       4.13137205      11.79148803      -3.18827009       2.37978082       1.37409869
O        5.65991433       6.68116518       9.44939843      -0.53934341       0.74781194      -0.46472615
O        6.60466463       6.35118756      15.78296460      -1.11149991      -0.44699068       0.30339562
O        3.91111982       3.41998839      18.52192169       1.05331437      -1.51423205       0.55227880
O        8.69341669       3.30762439      11.88089728      -1.92370754       0.60658232       0.31910246
O        6.76775782       1.35315635       8.68969787       0.62336251      -1.46051386      -0.92275721
O        0.95892701       6.39904346      15.43948291      -1.86753688       1.03514404      -1.05049105
O        3.64660036       8.71650177      19.08910689      -1.15345519       1.56764720       0.03333636
O        8.14791021       4.03181871      15.91822202      -0.63442743       0.63236955       0.65196771
O        6.13879254       2.31909048      18.75039339      -0.09663571      -2.04867457       1.34758920
O        1.34581677       5.69713033      12.50303069      -1.61742395       3.42630063      -1.39895559
O        3.85280130       8.53953859       8.65678758      -0.72736930       0.59238261       1.03568213
O        7.17413199       4.96000886      13.63387260       0.05806361      -0.39701181      -0.49483054
O        4.71261499       2.14779550       7.14188399       0.83892555       1.06353710      -0.26292774
O        2.77784353       4.45902450      14.46057712      -0.43811955      -0.05403991      -2.60990801
O        4.91653080       7.25027732      20.63860758       0.74908164      -0.65197118       0.26938205
O        9.58327540       2.50225306      14.40994744       1.73992543       0.37570491      -3.04264541
O        6.96313709       9.71749418      13.35655624      -0.36147739       0.03445297      -1.35041011
O        9.32035082       7.59243999      20.31229794       1.91735038      -0.75074286      -0.25951521
O        2.09577795       0.32238427      14.17554789      -0.09542420      -0.44298302       2.42551092
80
Lattice="9.77192453 0.01751879 6.90363604 0.24348012 9.76890588 6.90363604 0.01370155 0.0133883 13.86910312" Properties=species:S:1:pos:R:3:forces:R:3 energy=-576.99028591 source_file=vasprun.xml step_index=805 time_fs=7610.0 time_ps=7.61 file_index=3 pbc="T T T"
Na       8.12123021       8.32262880      17.93600871      -0.56220137      -0.09896770       0.31181079
Na       6.74661192       1.61972742      14.09070512      -1.57165572       0.40444367      -1.13719283
Na       2.87698529       3.59720052       9.12621103      -0.10956820      -0.16210664       0.07468472
Na       7.36791576       7.43242935      11.25202567      -0.10693226      -0.15660739       0.04666713
Na       9.35495519       4.42210122      20.34006806      -0.46748450      -0.64686056      -0.63217901
Na       2.86913031       2.38461240      15.34116376      -0.05979040      -0.00929422       0.18681647
Na       1.87125548       6.59511377       6.23130535      -0.10739687      -0.14297700       0.28353409
Na       3.69734614       9.32069809      14.28276200       0.30719900      -0.16847302       0.04201630
Al       7.74056874       5.17145695      22.81472802       0.06083076       2.07111515      -0.91181092
Al       5.03132529       2.96243368      11.38487695      -1.03117262      -1.24705706       3.21047220
Al       3.20502294       4.64802699      18.19223427       0.10170942       0.80904421       3.68735580
Al       6.00610805       6.86812553      15.73989925       0.51823602       1.01476603       0.89469503
Al       0.70935916       2.29499893      11.40742654       0.66668291       0.01449190      -0.46146621
Al       8.26395331       9.31533379      22.76277789       1.89751701       1.46976904       1.11734793
Al       0.25314199       7.85904250       8.93793279       0.86802185      -2.48433798       0.48868178
Al       2.49667105       0.54641946       4.67324006      -2.34812058      -0.27819846      -2.96732679
Si       3.15803310       5.53325177      15.19701316      -1.87799968      -0.69732077       0.34385671
Si       4.79678418       7.61501226      18.67042113       0.57004809      -5.12172710       1.32139998
Si       7.77736705       4.26513209      12.09573888       3.49754744       0.30928080      -0.07206717
Si       5.97483424       2.46931543       8.53551790      -1.66148617      -2.84899412       1.10995968
Si       1.38610433       7.51639687      12.09142679       1.89608891       0.08920496      -2.17484031
Si       3.06744604       9.02721822       8.61601681       4.86824724       0.57930191      -2.18485397
Si       9.59198636       2.28614044      15.07894007      -0.70022846       0.29315470       3.54917795
Si       7.65660169       0.95410216      18.97046449      -1.18971119       1.30525300      -1.61834913
Si       0.78958388       2.90004506       5.51412898      -0.86465059       1.39433120      -0.64354524
Si       7.22475615       9.49178838      14.90304064       1.12886228      -1.52989664       0.93111236
Si       0.47037021       7.07322591      14.83619616       0.01839470      -0.29273852       2.88168788
Si       3.30000416       0.52243326      12.68707960       2.20538576       3.39681476      -1.78140174
Si       8.69246809       5.31652786      14.79253586      -0.90983659       1.00548677       4.28228136
Si       4.88220089       2.34176473       5.61424970       0.94402437      -0.83158452       0.04634301
Si       2.51834507       4.70404998      12.21171248       0.26610958       0.45321123      -0.01218806
Si       6.03093876       7.74094376      21.63540127      -4.13249852       0.57239535      -0.18174443
O        9.38594223       5.71070698      21.98413198      -1.44010793      -0.82008770       1.43421619
O        4.70007772       1.49366589      12.45524815      -0.87667090       0.14935828      -0.07396948
O        1.53403752       4.34751868       5.33500675       1.33342194       0.51218272      -0.48297273
O        5.96549005       8.47584190      14.79813017      -0.28911912      -0.82609417       0.52501227
O        0.99551568       4.10871403      11.84527340       1.36387006      -1.50794004      -0.10589358
O        6.97137726       9.02989121      21.68549583      -0.28320617       1.10717055      -0.91837381
O        0.33376929       6.14287846       8.11897048      -1.49824601       0.30922644       0.28054718
O        3.84827252       1.16506780       5.33315324       1.04850925      -0.12329477       1.22574544
O        3.68696186       6.33857869      18.56390893       0.06745439       1.05010408      -0.12775957
O        4.60864208       6.06260145      15.11895816       1.85759595       0.74084010       0.06761786
O        6.82356537       3.75212502       8.42878772       2.36628656       2.22613473      -1.08244786
O        6.36677222       3.65131813      12.20559114      -1.12810434      -0.65318160       0.87944122
O        1.77699702       8.24804697       8.20820500      -1.32570551      -0.27635876      -0.31745072
O        2.17238804       8.91239156      12.49298016       0.27351467      -0.46310828       0.09200682
O        9.05156724       1.86190810      19.28485070      -1.54718730      -0.65658625      -1.29333007
O        8.44254287       1.11523311      15.05265915       1.92912958       0.11758975       0.74958832
O        2.96962381       4.52992636      16.54011103      -0.45567210       0.13407817      -3.12531223
O        5.85342920       7.62523979      17.46185949       0.34304795      -0.33035993      -0.90267232
O        7.98610477       4.86957902      10.59027004       0.33090818       0.98531824       1.83830473
O        4.92687042       2.58311742       9.77798333      -0.03531416      -0.24424684      -2.50147290
O        0.57366943       7.80152193      10.72964897      -1.19517386       0.30219586      -1.30966479
O        2.92632572       0.29116760       2.90945511      -0.87265371      -0.04720803       1.41381399
O        0.81616359       2.12454240       9.57082577      -1.09722690       0.65327400       0.37363229
O        7.88683885       9.64984102      24.54557883       0.52526653       0.52619002       0.65200712
O        9.73241430       8.28582891      22.76938677      -0.33156061      -0.65588801      -1.31958105
O        2.03602672       1.41783659      12.19611995      -0.29614231      -0.40203881      -0.70484503
O        1.39033104       1.93749253       4.39924394       0.14323801      -1.47399709      -0.04786663
O        8.46360132       8.56101531      15.64485780      -0.87738915       1.71364788      -0.81003833
O        3.85265255       4.22266058      11.45918970      -1.43441009      -0.41960629      -0.25958905
O        6.78129234       6.76359991      22.60656069       1.66616618      -3.37869540       1.67932346
O        7.42743995       5.82849052      15.83716254       1.08490901       0.35580075      -1.30602284
O        4.49693923       3.83901217      19.16386095      -1.56430994       1.04164697      -1.25661691
O        8.88549752       3.03702739      12.35516169       0.22733297       0.36552160      -0.59027339
O        6.77110930       1.03626658       8.95763348       0.33822445       0.48794048      -0.93287438
O        2.14399378       6.87898457      15.06315527      -0.86851893      -0.59444596       0.28205434
O        3.96053250       8.91857337      18.84709022      -1.64755620       1.22919293      -0.13662055
O        8.71343754       3.72097389      15.07413535       1.33198796      -1.90623969       0.66490611
O        6.25042625       1.97660447      18.67477524       3.20032274      -1.26916328       0.21936248
O        2.47661392       6.24624448      11.63816503      -1.67902117       2.17802718       1.85417606
O        4.49828018       8.11195961      22.36932119       0.05370461      -0.26050623      -0.07866062
O        8.17027665       5.38822470      13.32168993      -1.53932580       0.39183153      -4.83024682
O        5.07128560       2.12296496       7.22290816       0.39684037       0.27380114       1.09674338
O        2.83553157       4.57574579      13.86341537      -0.81678637      -0.17059657       0.16838893
O        5.65684368       7.15552497      20.14291120      -0.02977881       1.21690144      -1.11978540
O        0.94178164       2.28316580       7.03909295       1.30077260      -0.24789919      -0.81349817
O        7.30395060       0.08696269       6.45271072       0.69197487       0.07978322      -0.58668402
O        0.26664959       7.20316028      13.23483307      -0.05062140       0.33249954      -0.87883747
O        3.16159661       0.29673525      14.23647673      -0.79583104      -0.19432812       2.40029801
80
Lattice="9.77192453 0.01751879 6.90363604 0.24348012 9.76890588 6.90363604 0.01370155 0.0133883 13.86910312" Properties=species:S:1:pos:R:3:forces:R:3 energy=-574.69953995 source_file=vasprun.xml step_index=830 time_fs=63660.0 time_ps=63.66 file_index=31 pbc="T T T"
Na       7.70047831       3.99016207      19.97406180       0.18418462      -0.21200095       0.03806495
Na       7.23337152       7.51216300      19.24595028      -0.29074745       0.36101479      -0.31469762
Na       0.26820427       6.13101293      17.48314270      -0.32130465       0.07221073       0.03689428
Na       4.50989453       7.44500332      13.05590702      -0.39732539       0.50482044       0.08974360
Na       9.69899270       2.20500323       9.25285650      -0.07375902      -0.43048942       0.19798006
Na       4.78063344       1.74867589      15.76405451      -0.00759104      -0.41247091       0.14087747
Na       2.56410456       2.18605566       9.10885363      -0.94728102       0.02574537      -0.17951891
Na       1.21330205       6.18999429       6.76633256      -0.23143606      -0.25519342       0.47260511
Al       7.17675110       5.17197113       9.04075223      -1.38032697       0.62894907      -2.77959133
Al       4.44407311       2.93719934      11.46340477       0.82012314       1.52574074      -1.01258891
Al       2.76172143       4.63269347      18.47771492      -2.05801839      -2.28916258      -1.34930598
Al       5.32904089       7.10915424      16.00429151       0.87745102      -0.64795508       0.26740932
Al       9.82912163       2.22193255      18.59142837      -1.33502441       1.50786690      -0.86341055
Al       7.99706843       9.26009288      22.42641776      -1.60613099       0.02491518       3.34109876
Al       9.51340851       7.76414622      16.06629998      -0.94302685       1.03871470      -0.39092089
Al       2.15249236       0.31340960       4.71442431      -0.93264480      -0.57298308      -0.35690171
Si       2.50746468       5.55068385      15.29490550       1.76398917       1.22332962       0.09874753
Si       4.03276980       7.42784808      18.96639966      -0.90970628       1.01861071       0.66991466
Si       7.48482571       4.34581214      12.11430965      -0.73319199      -0.77264828       0.13340230
Si       5.70396344       2.39982611       8.41502972      -0.13953659       1.12298409       1.72911267
Si       0.65579255       7.36641053      12.06175896       3.72461963       3.64089846       0.23883003
Si       2.66355603       9.23670004       8.66360562       1.18943203       3.59488272       0.87360402
Si       9.10054155       2.44704039      15.55850366      -0.88970554      -0.15474581      -3.98439301
Si       7.05206793       0.75910156      18.72774595       3.24936243      -1.72468072      -2.18022787
Si       0.32692447       2.74650928       5.69600322      -0.99254268       0.07214665      -0.19918337
Si       7.05401688       9.41671660      14.91265815      -2.15081280       2.72568360      -1.47321718
Si       9.40336225       6.76591057      21.56909831      -1.97334566      -0.58102419       0.32913886
Si       2.64516794       0.61087538      12.74701200      -1.98558620       0.42185117      -2.97254065
Si       7.93870663       5.41118447      15.04558474       1.15042118      -2.26461057       1.37605990
Si       4.38642881       1.84291271       5.55090409       1.90335932       1.13746045       0.12921057
Si       1.87884161       4.57634585      12.59349566       0.57372307      -1.91974514      -3.70164686
Si       5.30394781       7.75879504      21.82384475       4.23740345      -2.97103349       0.31084216
O        8.46647108       5.43592847      21.59695037       0.64960013      -0.43158092      -0.11225619
O        3.82344374       1.52755978      12.17186931       0.13939100      -0.77363047       0.34994449
O        1.03256922       4.24763412       5.30534447       0.90750963      -0.70906782      -0.94779867
O        5.62337509       8.52414269      15.06605525       2.18181249       1.36544571      -0.78833081
O        0.53159687       3.66094644      12.66781681      -0.50040340       0.26932899      -0.48628944
O        6.41453461       8.96985416      21.69283021       0.13137271      -0.63772283      -0.45910430
O        9.31324499       6.25685016      15.23602491       0.49528441       0.14996877      -0.43441024
O        3.55827016       0.48547653       5.68102475       0.04734329       0.48172033      -0.19409762
O        2.87373495       6.20023319      19.12598433       1.49996624       1.83807217      -0.35243597
O        3.89438156       6.47849852      15.34956464      -2.42095615      -1.11130659      -1.17577454
O        6.75425276       3.62491406       8.14273106      -0.32465094       0.54771977       1.45172215
O        6.09017419       3.49468430      12.24841927      -2.14688397       0.89609682      -1.50677309
O        1.29059076       8.42015977       8.80886244       1.74928730       0.12187099      -1.29876577
O        1.91563164       8.57957777      12.29579756      -2.54123601      -2.99801773      -0.74034203
O        8.02013550       2.14071761      18.66286775       1.87562377      -1.16048293       1.05661593
O        8.39842049       0.99953354      15.01158582       0.72454732       1.95767372       0.59733293
O        2.36502103       4.71118050      16.64723634      -0.10856771      -0.26230110       1.92891905
O        5.04853097       7.34887117      17.69372858      -0.57199129       0.10209144       1.60717115
O        7.74547799       5.34035096      10.67746750       0.05594854      -2.03124563       2.48146069
O        4.58193654       2.53960910       9.62055338       1.02047184       0.93684375       1.02671055
O        9.44402024       7.46302672      17.74522840      -1.03625931       0.04843917      -0.61007659
O        2.56867046       0.59781619       3.01524940      -0.20299017      -1.33390196      -1.22037322
O        0.24370561       2.26328071       9.90282246       1.52021032       0.00661623       1.77065977
O        7.42698025       9.54478972      24.22942057       0.61579021       1.08451342       1.74512122
O        8.65941050       7.60206067      22.69392474       0.40446905       2.31438665       0.69391131
O        1.09099068       1.03931289      12.24037714       2.85047618      -2.21562671       1.08652648
O        0.73232974       1.30125470       4.89465189      -0.77259468       3.55163424       1.00226061
O        8.39787463       9.09723488      15.63431669       2.08900343      -2.67086265       0.79711026
O        2.98249660       4.03801331      11.46108676       0.40763480      -0.34071434       0.80509549
O        5.79067486       6.18937314       8.51347685      -0.18313536       2.41338202       0.45404811
O        6.74486617       6.06422543      15.82647604      -1.44719748       0.81126046       0.89919289
O        3.70404265       3.23766485       4.98568233       0.43707463      -0.79665059       0.20334331
O        8.45151035       2.99490773      12.26701140       1.74997856       0.73690452      -0.76354309
O        6.66909008       1.17851480       8.74477728       0.40170440      -2.28356647      -0.17180598
O        1.13841005       6.48907022      15.09867285       2.17109337      -0.56859725       0.56156923
O        3.08597683       8.82606516      19.10042641       0.87703022      -1.53628767      -0.03327470
O        8.15754660       3.84181126      15.64569724       0.20785594      -0.58352797      -0.30722894
O        5.76410882       1.60462187      18.45557596      -5.18743874       1.50204178       0.35844226
O        1.61362166       6.08520714      12.02067569      -0.42405809      -0.76277595       0.82825503
O        4.10315799       8.41597556       8.71664338      -3.43906831       0.43717312       0.81629420
O        7.67979170       5.31583757      13.48447607      -0.42862569      -0.34697934      -3.56363212
O        4.90523854       2.03564115       7.09674500      -1.15814492       0.47521004      -1.58439934
O        2.61852821       4.56538514      14.00518240       0.50479148       0.26962999       1.63707027
O        5.01935674       7.30202041      20.28915723      -0.85173973       0.10507092      -1.88617410
O        0.46897823       2.77481049       7.33671944      -0.39517396      -0.73490105       1.11295176
O        7.35472341       9.75773314      13.25602728      -0.51593203      -0.43629674      -0.02470723
O        9.31877603       7.58770041      20.15360295       0.00299122      -0.63430456       0.86574943
O        2.68377222       0.74002453      14.32735501      -0.44289986      -2.51417906       3.82551438
80
Lattice="9.77192453 0.01751879 6.90363604 0.24348012 9.76890588 6.90363604 0.01370155 0.0133883 13.86910312" Properties=species:S:1:pos:R:3:forces:R:3 energy=-575.89863019 source_file=vasprun.xml step_index=115 time_fs=68230.0 time_ps=68.23 file_index=34 pbc="T T T"
Na       8.37826093       5.30143322      19.08452031      -0.11804703      -0.25415764      -0.05637278
Na       8.17251807       1.30893370      10.67507363       0.32133657       0.05411304      -0.35186857
Na       3.13480640       5.15828432       7.92535794       0.22630810       0.17649822      -0.13304915
Na       3.52178144       8.32022135      13.61076607       0.59457012      -0.59921072       0.44323189
Na       2.35282282       2.56201877      16.00598435      -0.06294051      -0.40188684      -0.24137851
Na       6.66400238       0.79986686      13.23668825      -0.32271827      -0.02330187       0.76795653
Na       2.39950553       1.70530320       9.26113140       0.36225089       0.07848973      -0.05354382
Na       9.65509690       7.23663295      13.05570466      -0.09844752      -0.10003876       0.14538768
Al       7.05250198       5.28243963       9.16646343       0.06880105      -0.80893498       0.91302633
Al       4.69028832       2.48895636      11.59317003      -0.82571813       3.06047742      -0.30964825
Al       2.60573547       4.57977486      18.55042940       0.81555858      -0.05339999      -0.01721174
Al       5.23527162       7.02174312      15.96869933       1.12701446      -1.75096773       1.14914980
Al       0.32466154       2.28774068      11.62399609       1.29986144      -0.85227151      -1.58035600
Al       7.93812892       9.58830774      22.88471391      -2.85506827       2.06065566       2.28438761
Al       9.42622479       7.48754923      16.14724428       0.71482414       0.12079044      -2.23960913
Al       2.15202516       0.13534237       4.72331164      -2.36754603       3.15860658      -1.02568042
Si       2.43771648       5.64233385      15.42235153      -1.11612854      -1.44179730       0.36773282
Si       4.16250177       7.25456704      19.21292588       1.50092485      -0.12335762      -0.15074348
Si       7.46734033       4.03600955      12.25367050      -1.17574324       0.07006392      -2.27567478
Si       5.48740244       2.41201639       8.43841241       0.86338237       1.71186397       4.69869216
Si       0.89373137       7.13272283      12.17573833       0.51986606       1.46636152      -2.50264664
Si       2.34050403       9.10436416       8.49765516       2.66579392      -0.02514963      -1.78454642
Si       9.24446708       2.32245903      15.47017322      -2.05467196       3.13944405      -4.33917269
Si       7.49694608       0.73205142      19.18186233      -3.93824842      -2.28798605       0.50692960
Si       0.36273328       2.82834756       5.92270987       1.54471912      -0.95575277      -5.55021166
Si       7.17413920       9.30936514      15.10274853      -0.44759149       0.82136035      -0.65448635
Si       9.45766629       6.88769772      21.99349042       1.39863960       0.67932037      -0.16453158
Si       2.90731612       0.40937246      12.60339020      -0.73786386      -0.38729353       3.63614225
Si       7.84197142       5.11866700      15.10640693       0.34016209       2.33473665      -2.41345517
Si       4.39323463       1.94414544       5.75327846       0.01971122       1.52902604      -0.76211289
Si       2.09589489       4.51083443      12.62123235      -0.69703177       0.06503667      -2.03160514
Si       5.39763401       7.92528312      21.98998607       0.03421729      -1.64899535      -0.25383257
O        8.65041373       5.48915472      22.19992673      -0.45467686       1.29311536       0.31526580
O        4.44742084       1.01903686      12.42256269      -1.54216145      -2.11768172       0.26595278
O        1.09154786       4.19582233       5.47842362      -0.16416889       1.24745826      -0.85025244
O        5.77859707       8.47774411      15.14225304      -0.74760886      -0.12575232      -0.70504800
O        0.61263815       3.94776641      11.94646307       1.36004221       0.93410613       1.13761500
O        6.40314919       9.17188206      22.17039755      -0.96498810       0.50748447      -0.70245725
O        9.20335549       6.05621848      15.06577862      -0.20980847       1.14284313       0.69631269
O        3.48718414       0.61529420       5.70763916      -0.36227325      -1.11570614      -0.52666355
O        3.40896944       5.84699085      19.58437548      -0.73833092       0.34956838      -1.01003138
O        3.86476627       6.21862637      15.08020893       2.04608596       1.99408729      -0.00564043
O        6.31721862       3.80749594       8.40606981       0.31372837       0.00877248       0.07541646
O        6.31876471       2.85718707      12.24315948      -2.40904900       0.42967832      -1.17428951
O        0.98119042       8.30422937       8.20468797      -0.63622886      -0.86549444       0.78616227
O        1.63206628       8.56561733      12.32247293      -0.31757038      -0.23484910       0.65499776
O        8.60556251       1.79847101      19.14463133       1.39375546       1.64433964       1.14029369
O        8.22921486       1.17939096      14.98795653       0.10948662      -0.43921617      -0.06771101
O        2.39131442       4.73392910      16.75093197       0.53492713      -0.67627067       1.94198236
O        4.87771439       7.30176013      17.71070803      -0.91521160      -0.03355085       0.31459814
O        7.56878974       5.02436522      10.94102325      -0.44624425      -1.38612526      -1.02142157
O        4.45741626       2.51395863       9.83518161       0.96613210      -0.56403918      -0.69100979
O        9.89454811       6.90990431      17.65946288      -0.15601670       0.23147020       1.56388289
O        2.12366559       0.14164014       2.97945805       0.36995604       0.14452323       0.67979817
O        0.29133053       2.00111577       9.78496658       2.06345342      -0.75164931       4.98357770
O        7.59574759       9.78439572      24.67318209       0.74132164      -0.64183560      -1.30747676
O        8.89987903       8.33621953      22.60157751       3.46100978      -5.40937621      -1.69293242
O        1.83579956       1.35823067      11.82438434       0.23759016      -1.43807830      -0.12382435
O        0.97406181       1.62470928       4.87771026      -0.60676124      -0.03645195       1.17332813
O        8.13460356       8.69804699      16.24276247       0.77314483       0.33522190       0.24821079
O        3.33143965       3.63712813      12.11754703       0.97035806      -0.01751739      -0.22523424
O        5.91485267       6.62046496       9.01463694      -0.07148025       0.22019270      -0.54130165
O        6.70200571       5.83737519      15.97244921      -1.34898793       0.48867646       0.02428450
O        3.78907422       3.32134519       5.08181405       0.56542757      -1.97067337      -0.68223427
O        8.49437387       2.78984507      12.61496313       2.59387227      -0.00698846      -0.44518066
O        6.48538232       1.12704847       8.82685419       0.86751869      -1.25406750      -1.57102960
O        1.32696837       6.80914822      15.64598405      -1.94686750       0.66627919      -0.97314219
O        3.07323069       8.46704439      19.54873716      -0.11245685       1.78556172      -1.83851277
O        8.29054384       3.68759613      15.59110790       0.35336312      -2.04709419       0.87157973
O        5.92171103       1.47385748       5.50567117       2.16204350      -0.41450420      -0.00731609
O        2.12826579       6.14585284      12.17242709       2.10681465      -2.69430109       0.42245022
O        3.77594661       8.10294877       8.40553908      -1.71802732       0.78596175       0.91934113
O        7.52793102       5.12656080      13.38354369      -0.25868910       0.77488096       3.74508721
O        4.38128286       2.34254864       7.33048225      -1.28443155      -0.25566024      -0.00508708
O        2.00838814       4.54637574      14.23089632      -0.12958161       0.02719477       1.36065366
O        5.35798950       7.46214639      20.36656555       0.29063594       0.15463185      -0.28882598
O        0.73695590       2.81853983       7.42047999      -0.94133928      -2.10971358       5.15988150
O        7.99217068       9.24610302      13.55623131      -1.67450799       2.31871961       0.05472070
O        9.67853099       6.80645248      20.25115421      -2.09069452       0.44128932       3.00958432
O        2.39382873       0.57058882      14.32155770       0.35741700      -0.14896011      -1.12106873
80
Lattice="9.77192453 0.01751879 6.90363604 0.24348012 9.76890588 6.90363604 0.01370155 0.0133883 13.86910312" Properties=species:S:1:pos:R:3:forces:R:3 energy=-574.77524153 source_file=vasprun.xml step_index=120 time_fs=82240.0 time_ps=82.24 file_index=41 pbc="T T T"
Na       8.80649989       3.68877359      20.63296504      -0.23104408       0.10478728       0.43271746
Na       7.99468068       1.06882264      10.45561371       0.34991378       0.16427873      -0.01672584
Na       6.04618339       3.78563863      17.41606337      -0.05489091       0.46409401       0.11613409
Na       0.90383193       7.40554807      18.22992984      -0.39000512       0.31001224       0.07335325
Na       3.21295948       2.46800872      15.22577436      -0.58980863       0.54494149       0.39473982
Na       6.00300290       1.49204522      13.72310464       0.25908678      -0.75056870       0.37748352
Na       3.38700158       5.87656570      10.41083190       0.53212825       1.00644512      -1.51470012
Na       2.09267536       0.65158376       7.97538930      -0.08843647       0.35959537      -0.06714232
Al       7.02773278       5.40886653       9.13772444      -0.30657138      -1.52507448       0.18082323
Al       4.61667473       3.22281085      11.84599895      -2.13518905       0.44854431      -1.85948415
Al       2.72704951       4.92538969      18.61568034      -1.11556627       0.59200309       0.42153243
Al       5.31796628       6.87220194      16.14796515       0.80748412       1.29914564       0.22047550
Al       0.29202639       1.96574559      11.49727242       2.15258907       0.10319784       0.03366640
Al       7.09530173       0.02869938      16.17056907       2.10635049      -2.81699433      -1.02776153
Al       9.42147555       7.94444211      16.17152455      -0.46075474       0.46996364      -4.17308584
Al       2.31333681       0.45940122       4.70249397       1.02011846       3.36564953      -0.62669436
Si       2.44332116       5.87366423      15.69551003      -0.68073016      -1.37696991      -2.93306838
Si       4.39049813       7.53443884      18.88952663      -1.25432909       0.99885353       1.24272428
Si       7.40330390       4.43938385      12.20182430      -0.05507076      -2.76546405       0.53837842
Si       5.60105283       2.74418363       8.75134254      -0.42062783       0.84965879       0.88839193
Si       0.79808792       7.78513111      12.18680567       0.58886715      -0.88925261       3.04025640
Si       2.62461790       9.25366589       8.56809052      -2.18162925      -0.34533533       1.06183354
Si       8.99779030       2.58229621      15.45431330      -0.35993300      -2.35538229      -0.15560756
Si       7.07398628       1.07490456      19.14152628       0.80408581      -1.29159712       1.54888115
Si       0.49026811       3.12772029       5.80837326      -2.03050267       2.78767346       1.74418798
Si       6.80526012       9.56629998      15.02184200       3.51383690       1.18775179       1.10518818
Si       9.22609971       7.22771360      21.93193048       0.69477309       0.93042464       2.60033323
Si       2.87466963       0.47137875      12.54510561      -1.96121723       1.29628424      -0.56565081
Si       7.66610310       5.38255439      15.21410167       5.60864335      -1.28506074      -3.67921703
Si       4.49574543       2.43665014       5.96737392      -1.60090639       1.27468259      -2.69457989
Si       1.97822592       4.75250210      12.82210743      -0.28360496      -2.62974622      -0.98766707
Si       5.15962845       7.85703762      21.89300829       1.69753875       0.66704058       4.09839400
O        8.42327100       5.85857897      22.11728998       0.92239493      -0.89177779      -1.94507977
O        3.81977958       1.74209100      12.40340647       1.79755202       2.21628046       0.19205643
O        1.09472653       4.62379415       5.60853759       2.21300405       0.05776360      -1.46486968
O        6.00448983       8.31095582      15.35493243      -3.15115864      -2.81374322       1.25440848
O        0.99941135       3.42378768      12.39591594      -0.22468465       0.46597300       0.21784337
O        5.82696324       9.36262966      22.37165235      -0.61076016      -1.31681181      -1.95207612
O        8.84352571       6.26114397      15.91014240      -0.21969761       0.69519595      -0.86727064
O        3.78568382       1.05006319       5.51827675      -0.15180598       0.41887634       0.23348983
O        2.99363215       6.74018346      18.99739593      -1.26910049      -1.72223414      -0.43251086
O        3.84798850       6.63702701      15.30759048      -2.60680121      -0.05811881       0.75620445
O        6.96972749       3.62618291       8.38908624      -1.62205204       0.63115374       0.49139395
O        6.13232325       3.34363284      12.61240771       1.31762269       0.94210407      -0.00507928
O        1.14531694       8.52422072       8.42074182       0.96826279       0.31090604       0.26963849
O        2.24515731       8.73440979      12.27948583      -3.15555326      -3.41251247       0.87106119
O        8.67790289       1.47785420      19.29515891      -1.89850731       1.05805596      -0.14105652
O        7.84380560       1.26120231      15.18827828       1.55937139       1.98220394      -0.28289061
O        2.53812991       4.71931009      16.80546569       0.27349579       0.62395058       2.65427040
O        5.35510470       6.69368387      17.97183778       0.70093369       0.62500698      -2.46757420
O        7.09678797       5.21116404      10.86751263       0.33423015       0.17966996      -0.61596184
O        4.80973659       3.39944772      10.08277811       0.99486360      -1.32238364      -1.53935402
O        9.76183402       8.15501928      17.76456431       0.49085756       0.27927362       3.57040103
O        2.52561284       0.54593045       2.95064463      -0.38318571      -0.46139912      -0.53775785
O        0.22748868       2.07908691       9.72418771      -0.62048771       0.04767719       1.53018407
O        6.75770725       0.29282872      17.78776857      -0.06554209       1.05236181       1.33633819
O        8.47898464       8.21729647      22.99778735       0.00095673       1.49248210      -0.28733446
O        1.44897701       0.61151654      11.69861412       0.96491603      -0.23848082       1.21645772
O        1.23838183       1.84774594       5.34876674       0.88975041      -2.66422609      -1.47265431
O        8.28976005       9.24558609      15.66143863       0.64792015      -0.12318325       0.98233178
O        3.39672973       4.56174872      11.93916857      -0.94039511      -0.12670169       2.16268494
O        5.79742179       6.55949044       8.87258488      -1.58319312       1.33543607      -1.48080279
O        6.30766728       5.50901785      15.82007995      -4.75549205       0.36274931       1.71331482
O        4.05702823       3.89088999      19.00971493       0.29852757      -1.86193814       0.99114191
O        8.69508449       3.30429174      12.07882026      -0.31955443      -0.15483652       0.08182093
O        6.18296337       1.19666005       8.99536237      -0.83980421       0.04645607      -0.37611155
O        0.99849456       6.73046559      15.64285608       1.59408279       0.18324230       0.62590384
O        3.95093153       9.13030578      18.62396845       0.68235006      -1.87892554      -0.45994132
O        7.91949115       3.76126769      15.65889555      -0.01984254       0.96093176       0.11399551
O        6.05194364       2.42870355      19.30499913       2.38194264      -1.02246602      -0.27509318
O        1.03971712       6.04427972      12.35168102       0.98558243       2.08533217      -0.34860834
O        3.67867395       7.99520189       8.76793039      -0.54735639      -0.13643014      -0.63010025
O        7.58007610       5.44403865      13.42118754       0.75774461       0.78535336       3.65637186
O        4.38691511       2.61038983       7.55049275       0.98352546       0.26192579       2.13376035
O        2.28225474       4.60616038      14.45979091      -0.33934319       1.42283082      -1.21784056
O        5.11703526       7.73022356      20.32194425       0.61707084      -0.43986197       0.01049725
O        0.42425076       3.03142842       7.52133479      -1.06148368      -0.79194499      -1.73467258
O        7.08615232       9.76775080      13.46683483      -0.82313905       1.66879837      -2.08860766
O        9.59348200       8.03903636      20.57815936       1.21890516       0.02185274      -3.12593272
O        2.76305495       0.55059178      14.26795340      -0.32287290      -1.96310439      -1.10191200
80
Lattice="9.77192453 0.01751879 6.90363604 0.24348012 9.76890588 6.90363604 0.01370155 0.0133883 13.86910312" Properties=species:S:1:pos:R:3:forces:R:3 energy=-577.93853939 source_file=vasprun.xml step_index=255 time_fs=8510.0 time_ps=8.51 file_index=4 pbc="T T T"
Na       8.07265975       7.26004062      18.53137114      -0.84860703      -0.10556745      -0.05022309
Na       6.80415416       1.42609597      13.68980761      -0.30752368       0.21542840      -0.51436925
Na       2.92054727       3.00393852       8.92785927       0.18771786      -0.04305758      -0.37270434
Na       8.04752593       7.50196311      11.65428017      -0.04551833      -0.13456536      -0.11546083
Na       9.32054223       3.13786692      20.85359350      -0.37958087       0.33212193       0.23479505
Na       3.85556367       2.60626731      16.00388213      -0.34034623       0.32623201      -0.08478528
Na       1.87645915       6.95496956       6.41368252       0.00459892      -0.27840606       0.26656704
Na       3.59679352       8.65239077      13.84983217       0.20623134      -0.66700503       0.54791496
Al       7.72008303       5.43835573      22.68976731      -2.86717404      -0.96446139       1.71146645
Al       4.97147259       2.91524417      11.37914928      -0.02300260      -0.72783726       2.81361264
Al       3.24117098       4.65053204      18.55231901      -1.79436894       2.33371712      -1.16698154
Al       6.04533295       7.24147126      15.86470240      -2.11695311      -1.27092870       0.69806260
Al       0.86546221       2.20533879      11.30109823      -1.70754485       1.18693851      -0.87447653
Al       8.32376874       9.60906899      22.80275941       0.92672324      -1.46694314      -2.14759510
Al       9.93188763       7.94234549      15.81938083       1.02854261       0.86036521      -1.05285214
Al       2.37026917       0.56012870       4.55441778       0.31938208      -0.04989414      -1.63349060
Si       3.02492638       5.62794458      15.27428059       1.37852368       0.90940869       1.22512653
Si       4.85812853       7.40345903      19.02650737      -0.67354573       0.80734908      -3.77999835
Si       7.71902839       4.52642100      12.08593357       1.01229967      -1.45630062      -3.34398904
Si       6.05241680       2.56895839       8.39586847      -0.63573952       1.75125542      -1.94903688
Si       1.22983357       7.30112192      11.79331961      -0.37303224       2.19554927       0.85316615
Si       3.21792745       9.30107392      22.26584087      -1.22136254      -1.39562440       0.71765634
Si       9.60596888       2.65612734      15.29325203       1.27604843      -3.32948506       0.38897097
Si       7.70307090       0.76864563      18.74739782      -0.84028507       2.01076562       0.43567344
Si       0.80226670       3.04318064       5.67858808      -0.79993405       2.68071787      -0.68851240
Si       7.44033477       9.56173805      14.76651545      -0.05729066       1.52224206      -0.60126960
Si       0.27945256       6.91909274      14.65808085      -3.71064516       0.80753381       2.03115657
Si       3.25312870       0.53317992      12.50542423       2.22697729      -0.25388477       2.48240541
Si       8.60660035       5.50691963      14.78420469      -2.32094854       2.44027615      -0.55527222
Si       4.73675114       1.85393402       5.53221519       1.66834959       5.07184465       0.85334151
Si       2.36617682       4.52712240      12.39247397       0.77732318      -1.36000150       3.35413106
Si       5.99040559       8.04122744      21.70454890      -1.70657022      -2.24814910      -2.68737261
O        9.21069209       5.46571797      21.94210893       3.18337370       2.55515582      -2.05667619
O        4.62794980       1.37456437      12.32284149       0.94788419       1.20944768      -0.57279561
O        1.69753173       4.39464847       5.58807079       0.79883230       0.51684793      -0.62629438
O        6.02613732       8.78225582      14.97186884       0.70634333      -0.13483844       0.23933048
O        0.99306629       3.72806252      12.15936968      -0.20756305       0.66347482       0.76319472
O        6.75346801       9.37646907      21.94205400       1.89420442       2.07819258       0.61579018
O        9.73911165       6.60429828      14.74455966       2.10306498      -0.25005253      -1.03541115
O        3.75459437       0.63837221       5.72912263      -1.75196907      -0.61638504      -1.47940192
O        3.77834148       6.23266266      19.26655039       0.03797752      -1.21474308      -0.13463762
O        4.41918891       6.61037785      15.31271536      -1.29719026      -1.17431092      -1.09168384
O        7.12160488       3.80998750       8.28042434      -0.94141341       0.63473454       0.13386032
O        6.36117934       3.59454606      12.30840946       0.58822305       0.65901450      -0.59386534
O        1.89709204       8.20597718       8.41756682       0.13276331       2.19784191       0.27845225
O        2.02831487       8.74334710      11.86089223      -0.05053670      -0.90325253       0.12065386
O        9.00442246       1.86354885      18.65780752      -3.11914926      -2.26322392       1.29198756
O        8.62903151       1.38657936      15.31821619      -1.30365076      -0.08134569      -0.85041136
O        2.87754482       4.78960454      16.68643294       0.29722429       0.56073797       0.73984476
O        5.77917029       7.10717157      17.60615576      -0.87735434       1.06464795       1.36901491
O        7.93324812       5.38133227      10.61463118      -0.92673408      -1.05741633       1.29872007
O        5.14079190       2.55668069       9.74194065       0.27059000      -0.09850182      -1.52868249
O        0.28566408       7.27880810      10.48033378       0.13052940      -0.81390848       1.99849299
O        3.27218175       0.50766925       2.76163658      -1.41092116      -0.51587802       2.61466075
O        0.82423748       2.45589805       9.58857062       1.90588138      -0.00201774       2.32794033
O        7.92745618       9.50222027      24.42342519       0.18818575      -0.14758967       1.63240744
O        9.44041554       8.22334809      22.49070533       0.05988217      -0.99621059      -0.76115707
O        2.04540604       1.15101482      11.74586040      -0.15855995      -1.01886130      -0.44968916
O        1.19717254       1.92098530       4.66634970       1.66295609      -2.76071440      -1.34538246
O        8.66221480       9.19267629      15.72109681       1.30314747      -1.56033981       0.19380303
O        3.50678501       3.83059967      11.57317107       1.10245667      -0.15286766      -1.25568886
O        6.48872944       6.69219896      22.36910335       0.94815256      -0.54435590       0.71578431
O        7.54499341       6.35357048      15.72920883      -0.52987805      -1.28040277      -0.55227789
O        4.25608137       3.35383356      18.65834513       1.43184304      -4.34710607       0.18782281
O        8.99292861       3.47344999      12.36787312      -0.88803117      -0.36991986      -0.21560627
O        7.13646999       1.42210165       8.15891189      -0.09441703      -1.78640753      -0.11760440
O        1.83586949       6.77985304      14.83531304       2.75550125      -0.99454231       1.05828834
O        3.79973699       8.75950386      19.01724612       0.22680957      -1.25537184      -0.34638034
O        8.94027297       4.04311278      15.41921358      -2.40856684       3.60760536      -0.77661210
O        6.16439049       1.56821645      18.63390026       1.69432136      -0.74466293       0.50632901
O        2.30131166       6.07700137      12.03314081      -0.81408165       1.89035919      -0.48653248
O        4.37030723       8.22831641      21.82179700       0.56141796      -0.15835388       0.96882997
O        8.08210270       5.71360994      13.09324689      -0.34757120       0.04948652       3.43998858
O        4.85077593       2.43662439       7.11388192       1.68770412      -0.00545443       1.67785136
O        2.84405938       4.38476737      14.18468862      -0.41201199       0.74312314      -2.65048262
O        6.08221301       7.74499027      19.96987861       1.46156194       0.33895499       2.84744756
O        0.92967228       2.60531413       7.21606314       0.54705656      -0.80839729      -0.20945908
O        7.80988033       9.52352355      13.12322361       0.60350672       0.08717079      -0.31655548
O        9.87548981       7.45933947      20.01205564       0.48147358      -1.05057875      -1.79086858
O        2.95240077       0.65831733      14.21537846      -0.40112028       0.57682369      -2.77696742
80
Lattice="9.77192453 0.01751879 6.90363604 0.24348012 9.76890588 6.90363604 0.01370155 0.0133883 13.86910312" Properties=species:S:1:pos:R:3:forces:R:3 energy=-576.09356578 source_file=vasprun.xml step_index=750 time_fs=27500.0 time_ps=27.5 file_index=13 pbc="T T T"
Na       6.48488354       1.15041726      13.36765141      -0.58812998       0.01190688      -0.11933908
Na       8.28049999       3.86362816      20.25816981       0.04064997       0.03816755      -0.19680383
Na       1.93865635       5.62280594       7.40764245      -0.08310075       0.19483293      -0.32901698
Na       1.36011210       9.62949130      16.67050110       0.38037728      -0.68426960       0.01004748
Na       8.30573556       1.44787521      10.21925710       0.06230134      -0.11102300      -0.16472357
Na       3.29670248       2.68715757      15.83614131      -0.02746887      -0.42993144      -0.21250677
Na       8.26610672       7.12266867      11.04382134       0.22384014       0.89379798       0.26926191
Na       3.96361936       8.21624799      13.07936269       0.29094675       0.23960107       0.26823845
Al       7.12984665       5.34440106       8.86773683       2.33690565       1.41891297      -0.15454969
Al       4.53900612       2.90295019      11.26090040       1.32679557      -2.01483612       2.25761577
Al       2.87996718       4.47033236      18.39953387       0.88036146       1.21589870       0.32878917
Al       5.24754966       6.99580500      15.80171985       1.55390959       0.53882497      -1.57184395
Al       0.17544663       1.96727198      11.60939590       3.19902853       0.85061099      -0.42376943
Al       7.80687838       9.54327486      22.83758942       1.05377209      -0.49653460      -0.61056888
Al       9.59190166       7.71298035      15.76651883      -1.04992629      -1.12286580      -0.51361758
Al       1.95647402       0.32854196       4.61837700       2.89954651       0.08680061      -0.21631784
Si       2.55002803       5.64342263      15.23134560       0.59356435      -0.90064868       1.45433956
Si       4.29043552       7.22687631      18.85709818       1.26714314      -1.39430064       2.82416060
Si       7.47544522       4.20444764      12.05868223       0.82657293       0.79224740      -3.35158415
Si       5.70563191       2.67105352       8.35976333       3.96286818      -1.73003349      -3.92677710
Si       0.85612253       7.25879673      11.89764898      -0.44630793      -0.96646521      -1.83743700
Si       2.60211569       9.25796071       8.49900933       0.98368672      -0.96123717      -5.93544699
Si       9.09565742       2.36364506      15.47997916      -0.44036830       2.16542633       2.09756841
Si       7.22947060       0.58750235      19.01767518       0.49682252       0.66554146       1.06975760
Si       0.43808757       2.68628830       5.86629084       1.06735062       1.44488821      -2.97346601
Si       6.86122238       9.26465073      14.90810890       0.86455082       1.21908427       0.64015195
Si       9.61864371       7.05914750      21.63161990      -2.19531037      -1.07038639       1.98033616
Si       3.03514248       0.44663163      12.41295142       0.67302338      -1.60134228       1.87556702
Si       8.02575238       5.29594354      14.89260459       0.79660603       0.78973172       0.62278183
Si       4.67449330       2.19761366       5.52846851      -1.10878132      -2.51525464      -2.04818704
Si       1.95320275       4.40850773      12.52697155      -1.21115705      -2.16364175      -0.51488093
Si       5.46006329       7.77843759      21.72283158      -0.92709606       0.72235391      -0.31822188
O        8.64294139       5.75595341      21.63026292      -1.26014357      -0.06470743       0.77997012
O        4.43345849       1.12519573      11.86582596      -0.39441118       0.35378010       0.45523791
O        1.59695637       3.95479282       5.63038621      -2.24136505      -2.49771224      -0.11305994
O        5.37896025       8.69118229      15.05800993      -0.36583510      -1.10477893       1.18767468
O        0.53049087       3.60584502      12.20578048       0.21726675      -0.00009098       0.55766110
O        6.41177423       9.16944076      21.87462724      -0.88389759      -1.12626252      -0.29049033
O        9.44814242       6.20317672      14.74335050      -1.33323125      -0.04583654       0.45271094
O        3.55999097       0.85521738       5.66978267      -0.32295520       0.72044732      -1.90295762
O        3.40654088       5.93788334      19.22805166      -0.89167535      -1.02389261       0.52826069
O        3.83087769       6.65325785      14.76551660      -1.44779637      -2.24659004       1.03467763
O        6.76717010       3.90367360       8.10677247      -1.08413532      -2.31766373       0.13941575
O        6.10648515       3.41243577      12.10300897      -1.84060079      -1.31755629      -1.00767949
O        1.23346275       8.44589457       8.15801492       0.14719789       0.93309475       0.24819055
O        1.90419471       8.43387056      11.87048446       1.98108561       1.65903473       0.20610839
O        8.59196741       1.45984334      19.30461997      -1.25861051      -1.11858729       1.44124905
O        7.90641412       1.41253595      15.14316382      -1.75530409      -3.10667836      -0.44345138
O        2.54597552       4.71438712      16.70449540       0.31236500       1.27043661      -2.47958102
O        4.83850973       7.06446669      17.41467834       0.84851331       0.04655855      -0.47539417
O        7.69091806       5.14817567      10.52785738      -0.42144722      -1.97271816       2.96565012
O        4.90497357       2.60453384       9.64327123      -1.40908182       0.42125687       1.41580297
O        9.94816008       7.11875572      17.33486648      -0.35856138       0.49320638       1.69371091
O        2.47307870       0.36386563       2.83026743      -0.85022570       3.07302593       4.88019149
O        0.08677976       1.79013351       9.85996611       0.05672975       0.04973583       0.40689271
O        7.79563437       9.49717298      24.57411479      -0.90602411      -0.16591065       0.40980345
O        9.13058333       8.14098036      22.77612721      -0.99935827       1.93838269      -0.55199250
O        1.70430582       0.99997378      11.73979023      -1.17803235      -0.17253498      -0.53835050
O        0.54869149       1.20625761       5.08341473       0.38003926       1.54781886       0.37425903
O        7.92452802       8.41199615      15.89310703       0.35715947       2.16159117      -1.44364723
O        3.11000141       3.54492559      11.84356409       0.13039258       1.14366203      -0.53475756
O        5.99615478       6.63003685       8.89872539      -0.66195110       0.80835939      -0.49714320
O        6.75488533       6.01762055      15.57566529      -0.65351290      -0.21660647       0.25436420
O        4.22712187       3.35074001      18.37021022      -0.88867783      -0.23612585      -0.35124659
O        8.71359169       3.05297536      12.03895287      -0.18935757       0.83963919       0.54859124
O        6.83005387       1.20037292       8.17428240      -1.36451511       0.96204588       1.60949171
O        1.24214081       6.59688132      15.36189056       1.86320453      -0.16794974       0.13390661
O        3.27732817       8.44541485      18.98014838      -0.68168267       4.38692619       0.77461008
O        8.51993280       3.86843426      15.62606035      -1.50562861       1.83442602      -0.06167929
O        6.24338819       1.92583272      18.79436241      -1.16854964      -1.97152920       0.62439083
O        1.75184844       5.88494162      11.96875190       0.30432784       0.86304997       0.69359480
O        3.82799879       8.20166582       8.43231571       2.82361053      -1.86862560      -1.00134947
O        7.43689568       5.14430881      13.33677899       1.18019548       0.36648280       0.24359617
O        4.82358532       2.67868293       7.01557187      -0.47598404       0.62940324       1.79423847
O        2.35219918       4.39802399      14.12507354      -0.03040565       0.86110130       0.93446691
O        5.59207462       7.20332547      20.09993618      -1.99690219       1.45339014       0.66787764
O        0.38016823       2.62388125       7.44338596       1.87226129      -0.88283840      -1.17572903
O        6.99351392       9.20544443      13.26970272       1.50357197       0.98756698      -2.99113572
O        9.76672891       7.62092577      20.16029786      -0.19224765       0.29207860      -1.82848076
O        2.90515644       0.69523670      14.13231266      -0.68710719      -1.60146032       0.01043648
80
Lattice="9.77192453 0.01751879 6.90363604 0.24348012 9.76890588 6.90363604 0.01370155 0.0133883 13.86910312" Properties=species:S:1:pos:R:3:forces:R:3 energy=-576.75073717 source_file=vasprun.xml step_index=855 time_fs=9710.0 time_ps=9.71 file_index=4 pbc="T T T"
Na       6.46295796       3.18148131      16.50088675      -0.38645548       0.52699611       0.26544406
Na       8.80867355       0.50628200      10.85920611       0.11060993       0.75314700       0.92818711
Na       2.67745094       1.73499188       9.49771488       0.81709029      -0.20554842      -0.77710382
Na       8.45683632       7.54811413      11.84950133      -0.02294231       0.36284598      -0.20021033
Na       9.21857663       3.96972853      20.82351593      -0.45397076       0.36728095      -0.22268297
Na       2.25005550       2.69809903      15.31163862       0.49669346      -0.33341592       0.31365801
Na       1.70387058       6.34278162       6.73867311       0.46383233       0.13715514       0.15385335
Na       4.56121192       8.49865954      12.97649791       0.25895218      -0.10140610       0.56563389
Al       7.33359922       5.52870480       9.03835073      -1.55796914       0.75054311      -0.25302650
Al       5.15421989       2.83938628      11.58307164       2.96221218       3.82659176      -2.81712305
Al       3.49868816       4.68036975      18.29375216       3.42434980       0.75497273      -0.45681096
Al       5.70953992       7.35328819      15.93127574      -0.48593249      -1.06484906       1.03461270
Al       0.75775863       2.45402177      11.43851629      -0.54310701       1.43902248      -0.95348585
Al       8.61336778       9.58887470      22.99335969      -0.54798126      -1.48595007       0.33555702
Al       9.92971554       7.88570360      16.14487833       0.14863678       0.24770972      -1.68264365
Al       2.32867650       0.59099799       4.57337843       1.48501286       0.11451135      -1.50091234
Si       2.93313619       5.59705127      15.39977329       1.97615198       6.05005900      -0.25822248
Si       4.64224278       7.70110489      18.96397423       0.72053795      -0.18921414      -0.35002632
Si       7.95208300       4.63564012      11.89568871      -2.59928562      -4.08998332       4.25489348
Si       6.02982065       2.70672865       8.51439435      -2.82511873      -4.99623521      -2.81022838
Si       1.44998465       7.52037228      12.20431515       1.51998425       1.28855023      -1.07612454
Si       2.87186864       9.40420155      22.22299350       1.07606239      -0.77039143       2.28834103
Si       9.48064741       2.73219030      15.30789281       0.25549416      -0.90275306      -3.30753568
Si       7.97662194       0.98906025      18.92234096      -1.92761963      -0.17659443       3.57441307
Si       0.95413996       3.08284656       5.49487920      -3.52056210      -0.36687826       0.48077502
Si       7.58851026       9.70985168      14.94661151       0.86178491      -1.74227825      -0.36721957
Si       0.19561718       7.14226619      15.16401920       1.15498798      -1.67962415       0.34029983
Si       3.13168076       0.76867220      12.49171479      -3.61074837      -6.13859409       1.15950569
Si       8.04912398       5.51929124      14.88851500      -0.78679364       1.54249288      -0.33739157
Si       5.13165732       2.18159920       5.44860895      -3.56972182       2.19607548       1.26171810
Si       2.84875146       4.78466200      12.44043374      -0.62346876       0.26815117      -0.41398354
Si       5.86699003       8.03960421      21.82514715      -1.96349761      -0.24282926       3.27913703
O        8.76768879       6.07499712      22.04732740      -0.59818639      -0.28827249      -0.67435680
O        4.38119600       1.63194564      12.34525283       0.86890759      -1.15414818       1.41703594
O        2.02923524       4.17870987       5.11809640      -0.43091000       0.29856636       0.80845768
O        6.34250670       8.70712290      14.97299475      -1.13039999      -0.90479756      -0.68255125
O        1.45316834       3.88265771      12.25950619       0.01324948      -0.56035925      -0.28936401
O        7.08065982       8.85512442      22.54069673       0.33641383       0.46238535      -1.00831796
O        9.36956249       6.42127472      15.27816217      -0.18120444       0.22420817      -0.11247128
O        3.83564711       1.23933288       5.22535736      -0.63121706      -0.93711933      -0.67492444
O        3.90166921       6.24534609      19.10208931      -0.80239198      -0.40351538      -0.38275392
O        4.19559531       6.77851159      15.22064645      -1.87073194      -0.02910672      -0.06797076
O        7.06639248       3.80993918       8.53025044       2.50881768       4.84512338       0.03945584
O        6.73544914       3.56022516      11.97421785      -0.90111886      -1.18811803      -0.23099711
O        1.69053832       8.27654438       8.28261173      -1.37905531      -1.24282551       0.50382470
O        2.49949626       8.82854911      12.34424771      -1.32530408      -0.23709022      -0.35583979
O        8.85727364       2.32189805      18.95459300       1.67898402       0.83754256       0.23237925
O        8.77130652       1.26521991      15.28308794      -0.62836207       1.16313525      -0.51745671
O        3.45361211       4.65752785      16.50036462      -0.07292186      -2.61830975       3.27661649
O        5.66000688       7.80391922      17.68967107      -0.56776631      -0.20354973      -1.05910891
O        7.86079889       5.58320387      10.74283623      -0.38738166       3.79996735      -4.85615206
O        5.05534760       2.38964598       9.72397202      -1.11285463       0.72269931       2.59052990
O        0.50402064       7.77627834      10.90754857      -0.09158522       0.00021442       1.15247401
O        2.35434467       0.65330680       2.71249422       0.04812659      -0.46282401       0.72444383
O        0.69258570       2.68298419       9.60019075       1.35089538       0.64820168       4.25008728
O        8.53830919       9.71339328      24.73370492       0.19147060      -0.68195672      -0.67565977
O        9.84659236       8.30390447      23.20976015      -0.36646710       0.34761278      -2.16002890
O        1.82566994       1.12253447      11.61995051       0.01642970       1.01958202      -0.84087176
O        1.00367740       1.71051063       4.63906661      -0.15391788      -0.18231292       0.73802971
O        8.62123927       9.15408409      16.08312085       1.36725947      -1.08147284      -0.86764506
O        4.27629341       4.30090769      11.91557156      -1.51085824       0.11135211      -0.68035659
O        5.84086156       6.50982574       8.62797152       1.41155780      -0.18478541       0.16450866
O        6.64122711       5.77439432      15.69069543       1.33290083       0.75954792      -0.30797979
O        4.99818635       3.61870405      18.49907930      -0.89015680      -0.00392763       0.10401007
O        9.17952819       3.64193305      11.86249914       3.73190723      -0.79476417       0.89589940
O        7.05690820       1.42060718       8.37150595      -0.31832818       2.27198147       1.43386523
O        1.44806838       6.22692636      15.70360479       1.46632199      -0.84833078       0.30670236
O        3.42571071       8.84433889      18.97483878       1.49125589       1.15838940       0.10409022
O        8.39788477       3.96687371      15.15459910       0.50145469      -2.32155177       0.81968447
O        6.43440012       1.55165826      18.72332900       2.62322990      -1.46313231      -0.99142135
O        2.52470102       6.31489335      11.89698869      -0.13631038      -0.74626860       0.39525656
O        4.41311755       8.88822443      22.27109120       0.97740349      -0.96272213       0.22182913
O        7.84257245       5.64597268      13.21616297       0.82268198       0.50826255       1.01216695
O        5.02956170       2.32603438       7.08721048       1.67730690       1.47830301       1.72378550
O        2.98535893       4.77643525      14.06617624      -0.73184243      -1.63033139      -1.23519645
O        5.64651461       7.92247832      20.27366928       0.22281284       0.15572649      -2.21467220
O        0.86229815       2.79497072       7.15016314      -0.62569546       0.56866169      -0.88185385
O        7.99279039       0.09914361       6.53467782       0.50317676      -0.24621753      -1.98501658
O        0.63825543       7.32123140      13.57243625      -0.89334476       0.67576707       0.48509685
O        2.48387181       0.52876115      14.02141873       0.29561386       3.17833626      -2.13794850
80
Lattice="9.77192453 0.01751879 6.90363604 0.24348012 9.76890588 6.90363604 0.01370155 0.0133883 13.86910312" Properties=species:S:1:pos:R:3:forces:R:3 energy=-575.58205107 source_file=vasprun.xml step_index=270 time_fs=96540.0 time_ps=96.54 file_index=48 pbc="T T T"
Na       7.94348402       7.64322506      17.70051127       0.08167666       0.12859102       0.60591569
Na       6.55718551       2.19191692      14.05963521      -0.26242797      -0.44771161       0.05043349
Na       2.99829695       3.24524809       8.66166919      -0.19608672      -0.05514466       0.15391832
Na       8.38001710       7.38784223      11.91464445      -0.34999260       0.34531112      -0.17723992
Na       8.69614294       4.04309029      20.06772725       0.41230248      -0.07954720      -0.39103340
Na       2.01480390       2.66938220      16.31731196       0.40347866       0.03131089      -0.68278873
Na       1.52070226       6.21363202       6.47369850       0.11096745       0.91531372       0.72562106
Na       4.07217901       8.74606176      14.06802425      -0.14930993      -0.51329212       0.13677652
Al       7.74368938       5.43560549      22.86908280      -0.59753596      -0.70096720      -2.20777441
Al       5.08438841       3.01169148      11.47022835      -0.05278622       3.22530877      -1.67246126
Al       3.40826343       4.64542529      18.51170062      -0.98599856       1.04601524       1.88636060
Al       5.85035837       6.88056146      15.78018881      -0.36947980       0.21948886       0.40091454
Al       0.72398374       2.12624387      11.35317888      -0.78054966       1.02410942       1.09760223
Al       8.20548709       9.58802131      22.68279136      -2.15191884      -0.30853824      -1.74251170
Al       0.33587156       7.92338135       8.99380911       1.20303657      -1.74023426       0.12610980
Al       2.72723057       0.39056231       4.52627977       1.52104531       0.75667284      -0.91295280
Si       2.89505976       5.69272447      15.49090273       1.20059108       0.58583997      -3.21161797
Si       4.84328458       7.43386896      18.92810804      -0.06102134       0.44280470      -0.47141332
Si       8.07165937       4.22781275      11.87373894       0.13811154      -2.77909722       3.68998911
Si       5.96564874       2.71808904       8.30427451       4.98413517       3.31601569       2.12874239
Si       1.33142345       7.51556693      12.15499168      -1.95192806      -2.61941015       0.01263764
Si       3.27386863       9.34747133      22.16935462      -2.94878460       1.19639155      -1.27325428
Si       9.55873908       2.26668310      15.12135824       1.64438572       1.55344223       0.05455589
Si       7.78731892       0.86067197      18.77214205      -2.75378506      -0.45647098       2.37128351
Si       1.13749948       2.83944609       5.52204279      -2.66573286       1.30367914       1.37178054
Si       7.38199372       9.63392773      14.89475916       3.04079123      -4.44295135      -1.62406677
Si       0.25888002       7.28529863      15.05082430       1.20180608       4.45334863      -2.80731500
Si       3.41022532       0.53865256      12.20301295      -3.86867530       0.13425210       1.35514171
Si       8.39501628       5.21191789      14.72082258       0.76539397       4.97663288       2.63606179
Si       4.96916817       2.05687847       5.58628450      -0.26088053      -0.48991602      -0.84976707
Si       2.39151683       4.49717364      12.64311342       3.24116154       0.19609894       0.96643480
Si       5.80360375       7.81227381      21.73463017       3.05657722      -1.08539666      -0.20918015
O        9.11450620       6.10675205      21.92774626      -3.24437244      -4.71953434       0.91366068
O        4.64764190       1.49682494      11.96299728       0.57750398      -1.17772329       0.29232110
O        1.86062272       4.31802538       5.64379676       0.62165235      -1.16452659      -0.50983535
O        6.22385478       8.53642891      15.13879018      -0.69440544      -1.44991087      -0.23094887
O        1.09985676       3.69861740      12.17580418      -0.72535460      -1.47007007      -0.32041766
O        6.59703940       9.18603223      21.90961765       1.76665951       1.35939618       0.97534279
O        9.59771544       6.36441498      15.11677184      -0.27576884      -0.73139576      -0.60899424
O        4.31074450       0.50564058       5.69305059      -1.11485629       2.23321430      -1.41486871
O        3.90128008       6.16319043      19.36857035      -0.38947105      -0.68704657      -0.90042248
O        4.30283293       6.55538366      14.88416917      -0.52338190      -1.34860468       2.60519391
O        7.39235537       3.86800089      21.71992727      -2.60383393      -0.85404219       2.66656141
O        6.62352407       3.46800145      12.17749355       1.59794862       0.55923562      -0.00894898
O        1.75095640       8.51725709       8.12275423       1.05172867       0.81031731       0.96333813
O        2.33714863       8.69193427      12.00226618       2.18412849       1.54271130       0.33616899
O        8.94932613       1.82189469      19.06523522       3.75046143       1.62637848      -0.02095383
O        8.43852066       1.19378263      14.82814835      -0.72768691      -0.06006791      -0.26454423
O        2.80729849       4.88680760      16.93377097      -0.02793851       1.52737103      -2.16132475
O        5.72876243       7.23374640      17.61226960       0.40104675      -1.29269733      -2.91326460
O        8.29743055       5.09018392      10.63117959      -0.37247293       2.11736574      -3.22701671
O        5.34491844       3.29053507       9.68843671      -0.54742055      -0.73665626      -0.17054698
O        0.47702465       7.46813473      10.75569980      -0.36097211       0.18222371      -0.76680640
O        3.23277445       0.52830634       2.74740856      -0.63931134      -1.44250715      -0.32353960
O        0.49390649       2.18884010       9.66272392      -0.03704332       0.43562250      -1.60343453
O        7.72969718       0.07831959      17.41583950      -0.74129416      -0.04225755       1.91228389
O        9.47105863       8.51131790      22.89044702       1.98995410      -2.14908054      -0.49435638
O        1.94570403       1.00068716      11.46067417       3.69060807      -1.55919990       1.27860412
O        1.58543129       1.78298317       4.44193564       1.09859011      -1.57283107      -0.11801646
O        8.71391819       8.87508408      15.70816363      -2.88717524       2.98148322      -0.71055715
O        3.83321849       4.21423633      11.81957803      -1.48035886      -0.69508711       0.82233724
O        6.47716488       6.68000146      22.83507283      -0.88953739       0.55758109      -1.67459766
O        7.08931088       5.55060216      15.66722134      -0.65135632       0.98263870      -0.83929067
O        3.95031621       3.01654059      18.49033377       3.07102955      -1.37949601       1.34565737
O        9.32489271       3.12754532      11.98013669      -0.98919822       0.66745585       0.08514513
O        6.44122043       1.17645399       8.49563568       0.38075684       1.77055833       0.42054449
O        1.82062242       6.94866273      15.09768207       2.35164208      -1.74115959       2.58553997
O        3.95373054       8.81066117      18.55559317       0.25452237      -1.15220629       0.97279944
O        8.84243478       3.77655927      15.04892811       0.97497534      -3.85695555       0.34259125
O        6.58905725       1.99096402      18.95459282      -3.31683821       0.75780590       0.40148858
O        2.06357629       6.02932519      12.43238261      -0.66872225       3.01118742      -0.65378376
O        4.24194145       8.08463786      21.94133551      -0.11593523      -0.82601188       0.42861231
O        8.33467488       5.36840280      13.12154022      -0.87709563      -0.10250177      -1.98795411
O        4.90089073       2.78290148       7.16221269      -2.01569833      -0.46311469      -3.24862569
O        2.72394153       4.38714219      14.38595246      -0.81362107       0.55498280      -0.38065473
O        6.04739516       7.59992495      20.01551228      -0.54820069      -0.32067248       2.43347951
O        1.01151291       2.15475850       7.04133380       0.05980920       0.47510008       0.74320922
O        7.82349460       9.62912927      13.18493172      -0.29959065      -0.29805397       0.96082559
O        0.31336026       7.79730877      13.40869424      -0.54253244       0.24311618       0.26732960
O        3.07590235       0.63714575      13.90130621       0.71976037      -1.23368821       0.26725238
80
Lattice="9.77192453 0.01751879 6.90363604 0.24348012 9.76890588 6.90363604 0.01370155 0.0133883 13.86910312" Properties=species:S:1:pos:R:3:forces:R:3 energy=-576.00184889 source_file=vasprun.xml step_index=680 time_fs=75360.0 time_ps=75.36 file_index=37 pbc="T T T"
Na       8.35725807       3.73932008      20.74521671       0.27263430       0.35456149       0.05453823
Na       7.67421498       1.29102132      10.66947382       0.16235445       0.00537732      -0.10233180
Na       5.89750128       3.74689420      17.04317245       0.32227077       0.02739147      -0.13308495
Na       7.59750581       7.65299587      11.45254449      -0.05314277      -0.38685589       0.56340827
Na       1.28375091       2.47967687      16.00144566       0.66620372       0.23229229      -0.01151986
Na       6.37744685       1.44028844      13.91759282      -0.55682549      -0.44835114      -0.07906386
Na       3.48857455       8.66558763      14.09873356      -0.06386572       0.91866791      -0.58238229
Na       2.38011139       6.18072432       7.73856034      -0.05927779      -0.07645849      -0.04468594
Al       7.18288155       5.38337756       9.16220733      -1.26142357      -0.75592176      -1.88646530
Al       4.58760481       2.69444076      11.66186516       1.94691561      -0.80353643      -0.95702648
Al       3.22641046       4.67048879      18.62273994      -3.36558295       0.19864340      -0.36177155
Al       5.23190331       6.92864481      16.03111673      -1.79681262       4.04280152      -0.11681699
Al       0.23773940       2.18448649      11.74729811      -1.14279366       1.25394763      -2.15357927
Al       7.97513025       9.63368912      22.94945973      -0.69419918      -0.51637752      -1.95180459
Al       9.48947984       7.80920497      15.86689041       2.09113201      -1.27117756       0.34951132
Al       2.00496783       0.30182656       4.69176219      -1.03324895       2.51831700       0.42776878
Si       2.57536343       5.78196844      15.61025082      -1.24649929       2.45711883      -4.32324998
Si       4.35649671       7.46345481      19.18456010      -0.46907730      -0.02656443      -1.67321235
Si       7.25005867       4.16748654      12.12574508       1.67990962      -2.23464843      -0.63619760
Si       5.50211539       2.61740272       8.54462844       0.55494961      -0.52731149       2.86162339
Si       0.92540453       7.20098826      12.03465530       0.72392940      -1.11364336      -1.32251419
Si       2.66045080       9.31207080       8.63608922       0.05090161      -0.98173223      -2.46369376
Si       9.22456093       2.45724585      15.45480633       1.35624365       3.11697527      -0.17556872
Si       7.22932724       0.86391707      19.11220021      -0.42518016      -1.79057210       2.15600878
Si       0.42404948       2.97689851       5.57603682       4.68355267       0.32866044       4.51462587
Si       7.10661879       9.42283329      14.98821704      -1.76434688      -0.14178964      -3.50981435
Si       9.55305525       6.94076443      21.85043211       2.37751213      -1.71243525       1.08715179
Si       2.72683055       0.49097256      12.67559830       2.25816755      -0.25693938       0.30457871
Si       7.62765053       5.36822170      14.91385416       2.97785275      -1.32990548       0.52180935
Si       4.38003290       2.11126959       5.86240280      -3.44371948      -1.00046807      -4.64271743
Si       2.20094550       4.49006742      12.70548382      -2.71560027      -1.57328582       2.63718665
Si       5.44790084       7.97696150      21.88538872       0.14837776       0.34482498       1.83638950
O        8.80304593       5.56286133      22.24048937      -2.53419105      -0.85499358       0.43911170
O        4.26299077       1.30284040      12.57147234      -2.33804863      -2.03591591      -0.47953413
O        1.55834908       4.14822051       5.34356622       0.69753343      -0.41076020      -0.33030044
O        5.87488403       8.33621298      15.09086540       1.25102698       1.71730779       0.37139857
O        0.71973296       3.57334037      12.64903814       1.73494111       1.06032582      -0.29363653
O        6.39917967       9.26753430      22.11977936       0.55050105       0.57749408       0.78626888
O        8.86165419       6.42739888      14.85043137       0.17671687       0.90963284       0.53306022
O        3.13006674       1.01264937       5.76597701       2.42926377       0.72862067       1.10703033
O        3.73457847       6.00584578      19.66035587      -0.48282186      -0.14366468      -0.85963274
O        3.77488191       6.87405850      15.04492320      -0.99915314      -3.09079156       1.68540613
O        6.69752580       3.65250051       8.78274371       1.16666131       1.91067797      -1.89479528
O        6.43118167       2.67386998      12.07466128      -0.27953028       2.64327358       0.01436762
O        1.48780856       8.20199841       8.42268209      -2.20263242       0.20462129       0.07458439
O        1.94803683       8.48477392      11.96756935      -0.87015132      -1.84101245       1.83902135
O        8.32714685       1.98987798      19.27712740       0.95003859       1.05427857       0.02291537
O        8.26972833       1.25820917      15.09179355      -1.64069623      -1.77278544       0.40725098
O        2.81338030       4.90890587      16.85789701       1.78348192      -1.26143427       2.58720882
O        4.81199079       7.49958196      17.61894906       0.76514139      -1.22769376       0.63577522
O        7.21855974       5.11701256      10.83624809      -0.16456776       1.10029360       1.50885882
O        4.68339424       2.77134064       9.95780075      -0.27614451      -1.08025929      -1.92866860
O        9.88507779       7.22337334      17.53035690      -0.94391822       0.37596039      -0.17427995
O        2.40972250       0.41386130       3.04159498      -0.37701345       1.55431892      -0.21346879
O        0.25939933       2.20381030       9.93044325      -0.85663838       0.48461648       0.71643662
O        7.33979196       0.09864952      17.73372854       0.55354476      -0.98715152      -1.81810780
O        8.87987958       8.24868674      22.35851553      -0.79692927       1.69219785       1.61857971
O        1.33017244       0.99401259      12.05714581       2.44571922      -2.20324178       0.54862447
O        0.69149302       1.53641206       4.96864409      -0.36390960      -1.38426614      -1.93506624
O        8.50934558       9.25188127      15.69104479       1.14172870      -0.68327399       1.88206972
O        3.58453022       3.86400571      12.25932270      -0.99646702       1.39428888       0.57218926
O        5.90633515       6.56437980      22.53770412       1.31837623      -0.58788334       1.10357187
O        6.48240133       5.89588130      15.88394984       0.91419709      -2.96405515       0.84586861
O        4.20467780       3.26980461      18.46724657       1.10842236      -1.04613017       1.72829318
O        8.81363863       3.55349839      12.17625728      -4.53743401       1.58329297      -1.45508667
O        6.54849630       1.25366195       8.40566356      -1.63698185      -0.04574840       0.35535946
O        1.21289441       6.64942690      15.75579181      -0.50949990       1.82653576       0.40904266
O        3.29561533       8.69436053      19.14019246      -1.16958219       0.79343402       0.79255335
O        8.16655030       3.85740385      15.47907750      -0.65085147       0.10803055       0.41116499
O        5.72577247       1.41729562       5.45740649       1.44542417      -0.26722882      -0.68497274
O        1.95894430       5.89448243      12.09340936      -0.41891825       2.89001485      -2.42264543
O        3.92659941       8.32252425       8.62729615       2.05456871      -1.28571324      -0.48557297
O        7.03027240       5.08514806      13.42918573      -0.83103122       0.25879494      -0.22463180
O        4.46780458       2.70397671       7.28854475       0.40915078       1.46002690       2.77125208
O        2.04114617       4.87916208      14.31796634       1.65548819      -1.54613481       0.88353608
O        5.46866071       7.68543127      20.31999939       0.44855024       0.52740119      -1.55789849
O        0.45476963       2.75747938       7.31090030       0.17544953       0.03644300      -1.10878420
O        7.54227496       9.38696176      13.28825665      -0.25004461       0.37273883       0.52003952
O        9.76267246       6.91306244      20.26326458       0.14327614       1.17127208      -1.73986510
O        2.65675856       0.62056597      14.30396693      -1.38207123      -0.51492658       2.27104437
80
Lattice="9.77192453 0.01751879 6.90363604 0.24348012 9.76890588 6.90363604 0.01370155 0.0133883 13.86910312" Properties=species:S:1:pos:R:3:forces:R:3 energy=-575.09807712 source_file=vasprun.xml step_index=180 time_fs=4360.0 time_ps=4.36 file_index=2 pbc="T T T"
Na       8.00680629       7.19273976      17.64132290      -0.42753362      -0.33174355       0.12536489
Na       6.38380518       1.71241866      13.44479237       1.69793229      -0.65188828       1.71415580
Na       2.88296025       2.66474022       8.61057133       0.17920236       0.00114301      -0.11109564
Na       7.96550962       7.89866538      24.89105200      -0.29594354      -1.78918801       0.46672201
Na       9.17239270       3.67362783      20.28917815      -0.86844815       0.13894198       0.60491755
Na       2.62137430       2.42283357      15.78034765      -0.06120827       0.50927571       0.28788750
Na       1.26397077       6.94347864       5.83218447      -0.07194102      -0.32127391       0.64702461
Na       4.33435286       8.47233147      13.43825595       0.11547213      -0.07392619       0.16440820
Al       7.57932792       5.22545635       8.99055529       0.42186412       0.43163583      -1.22083969
Al       5.10189975       3.17749481      11.47903388      -0.94353243      -0.65323113      -0.81124121
Al       3.25443568       4.80938227      18.52164025      -0.85846911      -1.87002398      -1.44087023
Al       5.74168756       6.79115523      15.91693373       1.15388186      -2.01651559      -0.26905208
Al       0.91432159       2.05162481      11.42800952      -0.03306710      -0.56297721      -0.60056051
Al       8.30371711       9.74805627      22.77629734       0.46872695       1.06426589      -0.38665074
Al       0.42304753       8.05925225       8.95331821      -1.52094006      -0.52245514       0.23042987
Al       2.52913303       0.50573250       4.41784512      -0.91560749       0.35409413       1.40145314
Si       2.90164814       5.66699283      15.26863639       0.04964924       1.22596463       2.28386662
Si       5.13310334       7.31505422      19.09146672       1.20722809       0.15482749      -1.64898639
Si       7.83564740       4.43833179      12.08236233       0.68181003       2.54718513       3.22795828
Si       6.08905006       2.49640455       8.47007843      -2.11677656      -0.16702304      -1.70014001
Si       1.23380180       7.55731081      12.16406461      -2.30069797       2.32867495      -0.36750246
Si       3.15632819       9.19076189      22.15743847       2.49288806      -2.85771759       1.87683562
Si       9.48054893       2.44385503      15.20484310       0.13732009       0.97353274      -2.16642911
Si       7.74593675       0.87367694      18.97744734      -0.82245084       2.27629491       0.07715053
Si       0.75665690       3.00672820       5.57339025       1.07263739       1.16008343       0.16785803
Si       7.27238465       9.33737261      14.83729015       4.56270785       0.41765515      -1.60406528
Si       0.23909287       7.25027052      15.10504058       1.16007206       1.61797193       0.82050610
Si       3.72896625       0.43483970      12.43190601      -1.39221282       0.43290691      -1.40831914
Si       8.55511284       5.53328258      14.89057278      -0.32428625       0.42934146      -2.45094209
Si       4.91075378       2.15139671       5.48528963       2.53671387       0.57715324       1.84916534
Si       2.44335092       4.67917832      12.47058701       0.28541039      -1.36589212      -1.49731198
Si       6.05883570       7.79203209      22.05061821      -1.75120855       1.23015388      -1.73796027
O        9.16182856       5.93027121      22.08966259      -2.22740418      -2.37881915       0.64694711
O        4.98681149       1.43882307      12.00197656      -1.66837960      -0.82214096       0.80124098
O        1.61791572       4.42031496       5.42381912       0.60538074       0.65356878      -0.32346847
O        6.22659704       8.21346324      15.16592365      -0.50953659       1.73841753      -1.44380792
O        1.16789300       3.76258863      12.10841675      -0.80064947      -2.83184084      -0.79084444
O        6.96105494       9.17481209      21.91861564      -2.34322360      -1.90387615      -0.05583549
O        9.74800281       6.52406696      15.17343557       1.68133115       0.66702699       0.72325926
O        4.16048992       0.72333651       5.14786484      -0.30483729       0.76110259       0.49826804
O        4.07593650       6.17387781      19.17843956      -2.26906930      -2.45797473       0.21136306
O        4.31373412       6.44943575      14.96769109      -0.08987788      -0.86412620       0.27572324
O        7.29324880       3.48383916       8.06741165       1.07393293       3.76167955       1.67951422
O        6.45218611       3.67153526      12.48514146      -0.27103352       0.66912745      -0.87697476
O        1.68699618       8.69863383       7.90385866      -0.62369504      -1.66790323      -0.11226746
O        2.35039625       8.76310184      12.28232430      -0.09196706       0.14979446      -0.92213918
O        9.21573794       1.59797389      19.30001011       0.09873300      -0.59680911      -0.90579092
O        8.24977010       1.38442925      14.81274296       1.44076667       1.42236996       0.48964055
O        2.72840347       4.85608795      16.68377303       1.09554904      -0.05268878       0.50989637
O        5.84737080       7.27053925      17.56751923      -0.17550915      -0.52240954       2.37513522
O        7.73528998       5.28830405      10.71741665       1.08056800      -1.82015388       0.54599762
O        5.09314102       2.85438593       9.74102756       1.49483259       0.10824190      -0.81608667
O        9.96167272       7.79820467      17.71698778       2.78942273       0.55920897       0.27423753
O        2.73620444       0.22742480       2.74420214      -0.00987213       0.97608777       0.48073785
O        0.40431253       1.80134216       9.60492946       1.10245211       0.94347752       2.25931319
O        7.59844497       0.13686543      17.52992230       0.01116776       1.58979996       1.49572220
O        9.39240086       8.44276435      23.05881591       1.83283102      -2.17768551      -1.31399081
O        2.42795678       1.06162688      11.54243278       0.01126649      -0.17171424       1.34124012
O        1.28430740       2.01039275       4.40637108       1.01608639      -1.91906366       0.11974099
O        8.83233363       8.97509695      15.28507635      -1.88833406       0.46198215       0.27953112
O        3.72700694       4.23482699      11.58930819      -0.18968348       0.24345073       0.97534758
O        6.40433520       6.63878715       9.26265046       1.27725929      -0.72351970      -1.53109417
O        7.21997203       5.64242425      15.73785292      -2.52544145       1.66339469       0.92409022
O        4.30389318       3.36765700      18.51706204      -0.66413705       0.61750651      -0.32961120
O        8.89930829       3.32524191      12.67780960       0.59973522      -0.24767012      -2.60920514
O        6.87384738       1.05558125       8.51493434      -1.75998010       0.97370941       0.90320433
O        1.88901819       6.97731496      15.38455721      -1.32201353      -0.34627729      -0.34135713
O        4.18306210       8.59221054      18.91830475      -0.93299296       3.75742589       0.84973153
O        9.04596082       4.05930573      15.23408354       1.00550657      -3.50402576       0.69397385
O        6.63380458       2.10694723      19.18929151      -1.12838072       0.05164037      -1.04731205
O        1.84463243       6.07747185      11.97629508       0.55006996       1.67931446       0.46149653
O        4.42777247       8.03290110      22.41116616      -1.06822853       1.35574366      -0.68413933
O        8.34338278       5.84072697      13.18502102      -1.17522389      -2.42364316      -0.46948671
O        4.89281515       2.64681745       7.17171485       0.28338388      -1.47513794       0.11484207
O        2.62808366       4.54817650      14.09467043       0.02198054       0.07595638       0.23245013
O        6.10282708       7.30248857      20.39643746       0.32058220      -0.05757704       0.36467486
O        1.02875409       2.45602652       7.09301972      -0.88272426      -0.91952333       1.99448157
O        7.37052414       9.63039892      13.13126587       0.03053783      -2.27405792       1.46588244
O        0.25642550       7.76404913      13.56039061       0.52414676      -0.22022816      -2.20919489
O        3.41983482       0.39036057      14.13057577       1.42223969       2.81356341      -3.73155351
80
Lattice="9.77192453 0.01751879 6.90363604 0.24348012 9.76890588 6.90363604 0.01370155 0.0133883 13.86910312" Properties=species:S:1:pos:R:3:forces:R:3 energy=-574.75476766 source_file=vasprun.xml step_index=525 time_fs=85050.0 time_ps=85.05 file_index=42 pbc="T T T"
Na       8.85386451       3.70719738      21.33423466      -0.25833896       0.09176579      -0.50312215
Na       8.59563558       0.11066292      11.05431792      -0.13388401      -0.09901755       0.29130520
Na       6.61556402       5.65208611      18.19927311       0.48757588      -0.58312528       0.33043499
Na       4.00325701       6.27509197      10.56434354      -0.32288210       0.18304075       0.28397485
Na       2.09271880       2.50885025      15.83982283       0.36121149       0.35253689       0.26860956
Na       5.89480991       2.63516098      14.49626676       0.01486975      -0.52617621      -0.07498740
Na       0.82488290       7.00384905       5.51678029       0.47393748      -0.10479298       0.19776916
Na       2.38897217       1.68824451       8.44753777       0.18265065      -0.03627790       0.13838966
Al       6.96679551       5.56771123       9.05117687       1.46260767      -1.15174583      -1.62535008
Al       4.54725007       2.82097792      11.56183611      -0.32771649      -1.21368243       0.87651861
Al       3.15840023       4.65393784      18.52649749       0.87985292       1.21090509       0.12265709
Al       5.35865650       7.35125150      16.17718308       0.47250949       2.14591674       1.98300914
Al       0.43122225       2.13459999      11.83197015       0.69853991       1.30263640      -1.73299587
Al       7.61325137       0.06805807      16.09846747       0.01145688      -1.67674898      -0.35930928
Al       9.63902187       7.67125073      15.75736084       0.48346108       1.32250732       2.42012219
Al       2.04646355       0.42695188       4.94298150       1.96727675      -0.73337407      -1.13043603
Si       2.66177936       5.75053934      15.44328720      -1.70519892       0.09154554       2.30150307
Si       4.48712937       7.53158398      19.47915930       0.42998420      -1.81911832      -3.83494138
Si       7.33678454       4.17608948      12.12366959       2.05464525       2.14640985      -1.01737473
Si       5.62358957       2.58873451       8.60705489      -1.53110377      -1.62245608      -0.48665451
Si       1.07134830       7.54473884      12.08962729      -0.03407587      -3.10995216       2.66858425
Si       2.48534477       9.23409026       8.67252466       2.31550747      -1.41813995      -0.46018955
Si       9.06612161       2.79136938      15.62864095       0.52202795      -2.36212753       2.61215518
Si       7.55857398       0.88632188      19.21606901      -1.11930600      -0.10130308      -0.18825043
Si       0.47779044       2.96775520       5.82656696      -0.00697832       0.58499942       0.39340326
Si       7.13376301       9.68434724      15.08896168      -0.93128149      -3.79889339       1.21793826
Si       9.50556665       7.22632420      21.88870590       1.04998924      -0.07874034      -3.24247479
Si       2.93289340       0.66182363      12.90036791       2.70252871      -2.02375351      -0.06419484
Si       7.90133783       5.49726727      14.97104071      -2.24733438       1.34861961       0.40951642
Si       4.68900251       2.17542165       5.75714681      -0.46915080       1.77123940       0.06518270
Si       2.21297080       4.40131500      12.88547194      -3.11025711       3.07724077      -2.23410153
Si       5.30041602       8.04865761      22.26856485       1.80122946      -1.35344648      -1.98107325
O        8.50017688       5.97631114      21.73886068      -3.54766974      -1.43196945       2.07452138
O        4.29583696       1.50894611      12.74629849      -0.41575268       1.43555781      -0.13846704
O        1.65237191       3.97914629       5.17740152      -3.45478517      -1.45955925       2.18207674
O        5.69270620       8.93215246      15.53857497       1.74281379       1.01331317      -0.92213593
O        0.76207945       3.54681524      12.87946761       2.37412932       1.26055005       0.44873846
O        6.07244026       9.34728587      22.53644526       3.84561504       4.10589636       0.76555924
O        9.29965538       6.25761621      14.85111366       0.42778033       0.54063965      -0.44865905
O        3.49589155       1.23135107       5.33929545      -0.16984865       0.05214635      -0.81655908
O        3.31640436       6.30535376      19.24445928       0.73152827       0.92767024       0.31550926
O        3.79086515       6.84837414      15.78650380      -1.08311027      -0.82094185      -1.31412163
O        6.10933169       4.08551983       8.20523040       1.10253652       0.47134670       1.34483210
O        5.98135958       3.41330877      12.36295572      -0.81284209      -0.32670599      -0.78514959
O        1.41651392       8.14710509       8.25474548      -1.46564424       0.26144744      -1.17818523
O        2.22977095       8.58177750      12.43628659       0.14597471       1.01736324      -0.37326241
O        8.78020657       1.90477325      19.59170580      -2.39893023      -1.11485226       1.19374358
O        7.99854935       1.59851398      15.26154279      -0.68445600      -0.47944140       0.65575172
O        2.64589537       4.72635062      16.76294121       0.72470815      -0.34839425       0.71551186
O        5.55673896       7.50011214      18.15126037      -1.35083517      -0.63185918      -0.93118479
O        7.50730828       5.00287571      10.61101220      -0.18696922      -1.50737938       2.91374256
O        4.81106410       2.17176163       9.98400499      -0.28834593       1.70636107      -0.73879936
O        0.24403097       7.63499526      10.70407972       0.29417040      -0.39020781      -0.75435518
O        2.17211665       0.18190662       3.16959415      -1.00318936       1.51206689       0.32872028
O        0.21568842       2.59308897      10.09681230      -0.35260702      -0.49334918      -0.37424055
O        7.91385533       0.21811102      17.79275924      -0.42649866       0.04807810       0.90236150
O        9.23025419       8.48787916      22.81832324      -1.78048892       1.22666526      -0.35024082
O        1.68471890       0.95804808      12.00984846      -1.06641324       0.30820026      -0.99196419
O        0.81197632       1.47792749       5.39967297      -1.12764173      -0.85351313      -0.75671952
O        8.40474257       8.91570422      15.95711616      -0.92272762       1.11690890      -1.46114871
O        3.14866387       3.88447765      11.71140139       1.43282076      -0.35795114      -1.11568968
O        5.93802909       6.89117979       9.28752787      -0.22695063      -1.56425632       1.46359876
O        6.69152523       6.36815864      15.74223741       2.11856184      -2.37824611      -0.19289071
O        4.59954367       3.84184231      19.31796750      -0.99234340      -0.81371393      -1.70543580
O        8.62341861       3.11544746      12.33134479       0.09516444       1.30162066      -0.81239311
O        6.81046176       1.42003873       8.73061281       1.10697456       2.07450624      -0.35571073
O        1.08962792       6.43275096      15.39508794       3.62591070      -1.20547180       0.59538380
O        3.76769763       8.93249030      19.47198000      -2.15678646       1.09321068       0.20418827
O        8.23673012       4.13201891      15.76321701      -1.54581573       0.96772592       0.82267461
O        6.12292159       1.70106097      19.09325174       1.44434539       0.00734338      -0.62021027
O        2.04704044       6.12113258      12.56512023      -0.77078899      -1.17172950      -1.26723116
O        3.78452549       8.11171666       8.77852003      -3.31232366       1.07522109       0.69297422
O        7.29651851       5.13282787      13.52920943       0.26803686      -0.40053985      -2.19716983
O        4.55860375       2.02783820       7.37252125       1.18714612       0.86906723       2.75528309
O        2.88415035       4.47198681      14.33404535       0.59805665       0.44276550       1.43786604
O        5.52135670       7.54670960      20.70739830      -0.05234277      -0.70785413       0.88013170
O        0.29995462       2.76686132       7.50779244       2.80590088       1.22536077      -2.38903212
O        7.43049068       9.56324979      13.47226146       0.72836268       0.23302932      -0.04785067
O        9.71692277       7.56758148      20.19437214      -0.58355524       0.71717976       0.96736700
O        2.55635447       0.67597880      14.49345371      -0.80054701      -0.35756761       1.72630744
80
Lattice="9.77192453 0.01751879 6.90363604 0.24348012 9.76890588 6.90363604 0.01370155 0.0133883 13.86910312" Properties=species:S:1:pos:R:3:forces:R:3 energy=-574.23673743 source_file=vasprun.xml step_index=825 time_fs=69650.0 time_ps=69.65 file_index=34 pbc="T T T"
Na       8.47977751       4.22851226      20.45587516      -0.06599848      -0.86073232      -0.92641625
Na       8.17681673       1.53802661      10.67302426      -0.35670711      -0.23669359      -0.21870601
Na       2.25377422       2.56968874       8.64565909       0.89015165      -0.29716550       0.55495901
Na       4.08290239       8.11487649      13.33609567      -0.09615040       0.22707980      -0.19702631
Na       1.78956769       2.42802682      16.55628196       0.40296126       1.00539306      -0.59893095
Na       5.75465491       1.19171398      14.04972410      -0.03418800      -0.28095544       0.13822487
Na       0.53061687       8.41813655      18.01286015       0.32704727       0.12978256      -0.12594391
Na       1.22872907       5.87030117       7.60328767       0.40194652      -0.20614513      -0.36888618
Al       7.23119577       5.33941391       8.91860612      -1.23405224      -1.33712774       1.54518695
Al       4.54306500       3.09875095      11.34052241       0.17560970      -1.36291854       1.18964447
Al       3.08732952       4.61553730      18.57507782      -0.14653944      -0.87531763      -1.25327147
Al       5.50910390       7.07377326      16.11414428       0.33735521       1.05083436       1.11535156
Al       0.30799525       2.13329930      11.43015548       1.90204238       0.06535531       1.15545104
Al       8.13300163       9.60668642      22.96843643      -3.90745670       0.07651368      -2.06326994
Al       9.44997289       7.86748084      15.74051159       0.36569800       0.58835103       1.79827233
Al       1.97998268       0.25604062       4.56393757      -1.21955476      -0.10613471      -1.79896082
Si       2.69059044       5.86959090      15.63202568      -0.92673249       0.97058602      -4.17083434
Si       4.41090888       7.50205731      19.10334243      -0.57647880       0.05013045      -2.10026754
Si       7.42301662       4.47739096      11.98250808      -0.73755256       2.06387704      -2.01778693
Si       5.40411363       2.59301754       8.44341950       0.11115736       0.12165067      -0.07994003
Si       0.82841850       7.53401858      12.00728519       0.79137003      -2.15321173       0.44317149
Si       2.49467623       9.04347041       8.30546543       0.02807885      -0.39274114       1.45197932
Si       9.05407108       2.38574373      15.23714818      -4.46718657      -2.31272419       2.40038202
Si       7.50854165       0.73333917      19.13573818      -1.73338079      -0.32896039      -0.67432001
Si       0.47430166       2.86929350       5.74327207       1.50219136       0.23559876      -0.35767442
Si       7.32032807       9.51445883      15.03221009      -1.68377034       3.16560068      -1.37155611
Si       9.52155377       7.09317807      21.81838081       3.89621546      -0.71618352      -2.89216424
Si       3.02768595       0.47542286      12.44132161      -0.04779629       0.19221891       0.82853027
Si       7.54514943       5.20004854      14.99787423       0.69686346       1.16774702      -0.05945961
Si       4.55588472       1.98715658       5.48059190      -1.39600661      -1.27818207      -1.97649689
Si       1.87311990       4.56704997      12.86155753       3.36333696       0.64414666      -1.94858464
Si       5.34932480       7.72152174      22.11108441       1.09972525       1.61539907       2.75236357
O        8.77704344       5.68889755      21.98780534      -1.48748744      -0.27694443       0.35875058
O        4.52865374       1.16403028      12.14691211      -1.67785827       1.11173074       0.43513760
O        1.75809049       3.93840300       5.71621720      -1.63000137      -0.65593177      -0.20547011
O        6.14318290       8.54618388      15.34246665      -0.90130944      -2.48173845       0.13987533
O        0.59892913       3.68688079      12.25700777       0.71135404       0.94437803       1.14424451
O        6.47994415       8.90785460      22.62389922      -1.60034926      -1.17123739      -1.41437055
O        8.72556646       6.40247259      15.09918593       0.09226175      -0.46070258      -0.86545924
O        3.46446234       0.66368575       5.23214632       3.02708210       2.39520700       1.24813645
O        3.61230274       6.05354713      19.28967503       0.75075252       1.39219608       0.14072385
O        3.97705050       6.91900681      15.22712010      -1.34194057      -2.17314740       1.18321223
O        6.55130215       3.69364691       8.53667519       1.70788067       1.93405488      -0.78107167
O        6.28042219       3.43240176      11.57154363      -0.82841535      -1.21381128       0.17760127
O        1.22093514       8.04903342       8.11796655       0.60540319      -0.37659429      -1.90160420
O        1.98095874       8.62298945      12.45441365      -1.22048092       0.01885787      -0.72239070
O        8.71933692       1.73488852      19.26810418       0.15151495       0.75192299       1.61619557
O        7.75802296       1.23427893      14.93734076       3.29557682       1.88753264       0.43234367
O        2.47809404       5.05069094      16.92605646       0.79532289      -1.45914923       3.50634043
O        5.40402599       7.73134857      17.76780077      -1.39529686      -1.36545994       1.71077859
O        7.65761249       5.47579804      10.59461889       0.45727045      -1.40776131       3.70684986
O        4.27774081       2.91729705       9.62694410       0.39219996      -0.95340784      -1.19627820
O        0.42646550       7.66667942      10.41337823      -0.63829636      -0.34303397       3.04590632
O        2.00396336       0.30178700       2.64895084      -0.18226454       0.08009200       2.45071877
O        9.77257119       2.04649120      16.63529856       0.58294011      -0.20469477       0.19417931
O        7.78630235       0.06661238      17.69859571       0.78195424      -0.93788790       1.75315828
O        9.26048059       8.51031515      22.40406230       0.43323934       0.40215674       1.60295912
O        1.79942199       1.15028190      11.71245567      -1.98094583       1.42590917      -1.77143149
O        0.52258300       1.43977791       4.86254913       1.06236494       1.38972082       0.21094481
O        8.68437423       9.50840224      15.88744503      -0.17015837      -0.96933952      -0.24332955
O        3.27686793       3.99073551      12.06049843      -1.17038012       0.27405854       0.73621055
O        5.81602675       6.26239874       8.79631853      -1.02289766       1.39533953      -0.97404442
O        6.52217190       5.61494865      16.16238483      -0.96792763       0.05732948      -0.67345198
O        4.06019734       3.15598084      18.28981182       0.08521294       0.16278807       0.82394804
O        8.84843311       3.61345446      12.15401009       0.21191465      -0.25540986       0.75147555
O        6.32322479       1.26375942       8.41312959       1.07939399      -1.79465503       0.44829065
O        1.32810665       6.76960393      15.44018959      -0.75303264       0.79965597      -0.05711878
O        3.17735256       8.68467918      18.91640700       1.26581737      -2.37426075      -0.56751528
O        8.32161635       3.78967447      15.39833528      -1.03540783       1.96239166      -0.79906943
O        6.09627993       1.58586902      18.98018667       0.22712046      -0.28333879       0.39122772
O        1.73177506       6.13332810      12.25872693      -0.13651998      -1.33200927       0.41186080
O        3.77690293       8.08609449       8.77444037       0.47241440       0.24321422      -0.55043933
O        6.81301524       5.15632897      13.43187885       2.31946781      -0.40716233       0.46778175
O        4.51937628       2.45763333       7.03759745      -0.67458265       0.61575847       0.82211648
O        2.44969559       4.56926976      14.50286166      -1.02965018       0.48563407      -1.56323924
O        5.11416119       7.73033138      20.53336485       0.91494214       0.54544405      -1.55972640
O        0.54651754       2.52490407       7.41067599       0.59617497       0.01526353      -3.66007809
O        7.58703893       9.35789563      13.37095638       0.48133492       0.68351897       0.24689217
O        9.49520303       7.34744558      20.14769533      -0.30784752       0.32041993      -0.41690393
O        2.30336390       0.27208964      13.98541036       1.98093883       0.96625288      -0.39580587
80
Lattice="9.77192453 0.01751879 6.90363604 0.24348012 9.76890588 6.90363604 0.01370155 0.0133883 13.86910312" Properties=species:S:1:pos:R:3:forces:R:3 energy=-575.5182108 source_file=vasprun.xml step_index=740 time_fs=43480.0 time_ps=43.48 file_index=21 pbc="T T T"
Na       7.64669089       8.58924781      18.68984082      -0.01802393      -0.24439772       0.10456101
Na       5.60339810       3.48416371      16.35206820      -1.29099855      -1.58121723       0.45901329
Na       4.06073322       6.36116961      10.27548698       0.00025854       0.19814715       0.05429704
Na       3.11383201       8.46654441      14.26559457       0.19009142      -0.25341746      -0.09215547
Na       7.39214426       3.91477773      20.00148429       0.55422222       0.20019988       0.19266493
Na       8.89899867       1.79428258       9.91120473       0.32619065       0.19265244      -0.04175615
Na       0.67895521       8.24040458      18.16448354      -0.07760084       0.41384003       0.10309753
Na       2.77188465       4.07217289       7.73077145       0.10556562      -0.19243224       0.26266035
Al       7.31677306       5.22917084       9.14061742       0.92812803      -0.23119736      -0.00538669
Al       4.61726516       3.23554447      11.46312342      -0.48255344      -1.27876587       1.12867944
Al       3.10382968       4.74275872      18.38160870      -0.57432197       2.83560014      -0.75387842
Al       5.74580809       6.75306439      15.91947766      -1.79007698       0.37927410      -2.93505155
Al       0.50345159       2.08050887      11.46725693      -0.66814203      -1.26007744       1.90372720
Al       8.24874258       9.47256089      22.92071863      -1.60257457      -0.26758051       0.66721767
Al       9.79231919       7.57030408      16.01012695       2.56527238       6.56950214       0.97474869
Al       2.34663452       0.63995863       4.56029252      -0.47642847      -2.23419045      -1.09628337
Si       2.70427324       5.35872493      15.32856246       1.42016897      -0.65397006       0.13275084
Si       4.71425989       7.58822243      18.73808947      -3.06143295       0.47814519      -0.76773462
Si       7.58234907       4.29945128      12.15784159       1.20507481       0.07419920      -2.73827822
Si       5.82436288       2.54243580       8.57617853      -0.27749772      -0.07110262       3.31349277
Si       0.84278102       7.68095860      12.12243086       2.62387441       1.03777620       2.13826231
Si       2.95933278       9.00310751       8.52330191      -1.49286202       0.07436492       0.43417902
Si       9.37997745       2.24770809      15.52660384      -1.52260419      -0.15776578      -6.88825383
Si       7.47793240       0.97810369      19.06815750       0.52326338      -1.21028084      -2.55951146
Si       0.69428233       3.09787211       5.63894769       1.41506737      -3.26223910      -1.30112492
Si       7.33892970       9.45158695      14.89449089      -1.05263709      -0.18680724       0.93042489
Si       9.68126364       6.94921281      21.86398595      -0.48114219      -3.07397381      -1.86238642
Si       2.96320433       0.50956907      12.53051651      -1.72741934       0.26334253       2.10818303
Si       8.07620230       5.02289911      15.24716300      -0.71202216      -0.77800851      -0.56247926
Si       4.67233571       2.44304461       5.70294376      -0.71466486       0.08252468      -1.91549802
Si       2.01419005       4.68721182      12.47721528       0.93764823       1.04612222       1.12685345
Si       5.66616121       7.73207902      21.70533544       0.78905957      -1.43616986       1.77073134
O        8.63342456       5.62227175      21.76662562       0.40069863       1.11973324       1.23597044
O        3.71927666       1.86003818      12.23886440       1.55955816       1.35995890      -0.57545276
O        1.89459273       4.18553997       5.62778247      -0.47665464       0.40617792       0.48158152
O        6.20119310       8.32011986      15.12309579      -0.09433120      -1.46071171      -0.55413823
O        0.90615832       3.69859377      11.85675015       0.41198678       1.39662882       0.23810001
O        6.71452496       8.78576682      22.33213044      -0.32029561      -0.30965802      -0.98725565
O        9.12178010       6.21097921      15.58846010      -2.55807066      -4.83217190      -1.73308940
O        3.55489510       1.29695591       5.60501319       0.62808549       0.47188464       0.45592025
O        3.52714444       6.52146484      18.98786294      -0.57521557      -2.45652462      -1.26679786
O        4.09741234       6.25933096      15.14546723       0.07721758       0.57108471       0.79859566
O        7.16443793       3.41009397       8.85262762       0.40019118       1.33461435      -0.68009179
O        6.27593279       3.37733081      12.36131731      -1.59178522      -0.44215193      -2.08107857
O        1.73150842       7.98149298       8.87887535      -1.11843139      -0.62986240      -1.03845830
O        1.86796175       8.94898592      12.35504176       0.72487606       0.52521856      -0.51095765
O        8.64212650       2.09513846      19.21520714       0.33746941       0.07424212      -0.95150549
O        8.37750105       1.08609722      14.93184150      -0.28738254      -0.15127709       1.07512017
O        2.91446901       4.34390974      16.65525169      -0.69596813       1.87541513      -0.39221265
O        5.71232461       7.36125716      17.47479554      -0.24172375       0.57043458       2.84395641
O        7.56220250       5.42551737      10.92223447      -0.63299273      -0.87063258       0.01953955
O        4.68657488       2.89982543       9.69563402      -0.01291364       0.76428903       0.75251128
O        9.75095437       7.87870482      17.74207295      -1.99623663      -0.42086854      -0.39396982
O        2.87314158       0.17734287       2.88576235       0.16842360       1.20036905       2.43393526
O        0.30927350       1.62114265       9.80041617       3.03919812      -1.31561391       3.48253612
O        7.89766798       9.57925711      24.74204076       0.43805718       2.34440166      -0.26619468
O        9.32814050       8.06123905      22.89453026       0.01561316       1.64129699       1.94731753
O        1.36859198       0.69619482      12.18941045      -0.39586682       0.08661712      -1.19111807
O        1.09285697       1.78180422       4.59438043      -1.54166347       2.29427513       0.82701015
O        8.78073177       9.01029338      15.45928124       0.33538225      -0.09173488       1.30359575
O        3.40841201       4.57487358      11.70781029       2.56028513      -0.57616931      -1.88784811
O        5.93731520       6.13079550       8.55014614      -0.64013479       1.59397522      -1.07295008
O        6.52819560       5.16146901      15.89190108       2.63727551       1.96686713      -0.59303933
O        4.49206191       3.90552569      18.75580791       2.43150613      -2.95534866       1.30515167
O        9.15394833       3.59945322      11.80097678      -3.32685442       0.66568010      -0.18886859
O        6.28569050       1.01586399       8.80411735       1.82188505      -2.14428591      -1.06074557
O        1.45401012       6.43243170      15.21148296       0.39697137       0.13013086       1.23578589
O        3.80036820       8.99278102      18.68044183       1.03861287      -0.85831634      -1.26242616
O        8.69099167       3.62761461      15.93462165      -1.22820021       1.99460253      -0.15163992
O        6.09586252       1.88167620      19.10995173       1.68392214      -0.54794021      -1.82177820
O        1.83681819       6.40752494      12.33935322      -0.17357582      -2.61795097      -0.68412865
O        4.11996423       7.90470607       8.35475020       1.66235797      -1.19168122       0.28859531
O        7.77799579       4.82136653      13.62326906       1.40841465       1.82227811       3.49285240
O        5.04131839       2.77985344       7.21550516      -0.89435129       1.40487917       0.31498028
O        2.46717930       4.34013123      14.06903538      -0.97018095       0.27433059      -0.83989584
O        5.59401457       7.79642367      20.04354925       2.48530072      -0.14530217       1.95948773
O        0.58564421       2.59006154       7.18725330      -0.41583581       0.25588944       2.05343056
O        7.47632450       0.02345256       6.46188395      -0.84711419      -0.65568427       1.39016962
O        9.71075273       7.62532085      20.38260083      -1.46285908       0.53298891      -0.47358113
O        2.82174028       0.15729216      14.17940266       0.26349978       0.55061462      -1.53154855
80
Lattice="9.77192453 0.01751879 6.90363604 0.24348012 9.76890588 6.90363604 0.01370155 0.0133883 13.86910312" Properties=species:S:1:pos:R:3:forces:R:3 energy=-574.73518068 source_file=vasprun.xml step_index=640 time_fs=85280.0 time_ps=85.28 file_index=42 pbc="T T T"
Na       9.13687394       3.72773950      21.38823074       0.14748734      -0.58854036      -0.60925287
Na       8.90998951       0.29723811      10.96028322      -0.01191150       0.05523116       0.31406584
Na       6.26019858       4.60681706      18.57924397       0.00571607      -0.07145489      -0.39669365
Na       4.18090036       6.30850273      11.00122169      -0.02229086      -0.00198476      -0.27150357
Na       3.13909113       2.51094663      15.55738854       0.07482857       0.94296558       0.17232905
Na       6.45672381       1.30012309      13.39640064      -0.26933842      -1.66919750       1.32947285
Na       1.05632099       5.68957205       6.66181699      -0.78920414       1.70882050       1.19690903
Na       2.52048601       2.27349274       8.68291941      -0.19798581       0.05901243       0.08814347
Al       7.31167750       5.46908434       8.98126123      -1.42227437       0.14216819       0.26726293
Al       4.74117609       3.02637614      11.78459254      -0.69511296      -0.10480153      -1.54479469
Al       2.89712231       4.99456057      18.58872949       1.05484973      -3.46375227       0.05879782
Al       5.34311754       6.88474996      16.24428505       1.00363663       1.75084055       0.34656047
Al       0.33675398       1.94715001      11.63494310      -2.17676898       1.85015286       0.22422932
Al       7.78575138       9.73486168      23.01126396       0.85329727       0.71785709       2.95534133
Al       9.49078801       8.03924277      16.04640392       1.57687852       0.74125409      -0.97850099
Al       2.22345643       0.59516512       4.54021463      -2.13292123      -2.39734156       2.05393120
Si       2.40867420       5.70068626      15.65323774       2.81593739      -2.42918097      -1.34514745
Si       4.30190053       7.38600411      19.23429564      -3.46601872       1.22170576       1.09387829
Si       7.40251984       4.40923309      12.11575013       0.25591386      -0.13799357       0.54173048
Si       5.55999971       2.84067796       8.61178150       1.54491948       0.49756177       1.12424341
Si       0.93157143       7.47343829      12.18127389       2.10650949       1.35766141      -3.57078471
Si       2.77015013       9.36256841       8.73081646      -2.27725791       0.44674564      -2.88557119
Si       9.14787465       2.57422994      15.43129828      -1.23572826       0.66340151       1.92732959
Si       7.22000319       0.95690561      19.42548751       1.41433466       0.99820437      -2.19842421
Si       0.45872835       2.82662355       5.61711306       1.17476785       7.41565840       2.57587824
Si       6.96411522       9.69401392      15.28581552       0.08900770      -2.94986441       0.77074350
Si       9.72399219       7.28075229      21.91277334      -4.31692793       2.05887347       0.05713131
Si       2.95043442       0.55492137      12.67209258       4.23545483      -1.27395429       3.95960624
Si       7.96206205       5.55617665      15.05323704      -0.41799952       1.19351042       1.01220839
Si       4.44834963       2.27118834       5.85802334      -0.82157027       4.49643660      -1.84326702
Si       1.98872180       4.51658621      12.66269056      -2.22386976       1.80799719       1.07523235
Si       5.44066064       7.99825678      22.17843767      -0.82071700       0.50662164      -1.41237581
O        8.78645691       5.89329606      21.97943919       0.15139963       0.54376358       0.54470227
O        4.21561626       1.51886346      12.44258002       1.54136435       0.01465342      -0.60272703
O        1.68960371       4.06660441       5.65715439      -2.08290077      -2.79167287      -0.31509138
O        5.97521290       8.58953594      16.02720741      -0.36611040      -0.89807357      -1.28723896
O        0.79955441       3.60738089      12.06014347      -0.10180430       1.65286016       1.59748145
O        6.28565048       9.38604448      22.28968581      -1.17242095      -0.81647042      -0.85552236
O        9.08627651       6.76621821      14.96132223      -0.41823554      -1.25171573       0.23723395
O        3.21800154       1.30601655       5.65914464       2.08687923      -0.61946961       1.34349673
O        2.99713783       6.39558452      19.57070385       0.54599803       0.64690300       0.90044929
O        3.88015167       6.32444682      15.60979525      -0.25664841      -0.05359146      -1.89134133
O        6.91330453       3.87341610       8.28581307      -1.94963662      -1.23789650      -0.45311461
O        6.40258365       3.08536067      12.53746320      -0.36663445       3.19958779      -1.74639040
O        1.29335498       8.70452459       8.56315446       0.66462500       0.00613796       0.25092857
O        1.87525136       8.80204228      12.25188591       1.15861494       1.02787962      -1.36387673
O        8.65814664       1.72340905      19.51717067       0.29471926       0.46686230       0.80158879
O        8.00493562       1.43600411      15.27456412      -0.41919091       0.71603743      -1.10919862
O        2.33562401       4.80832491      16.96777003      -0.92764834      -0.08621974      -0.17937348
O        4.75348853       6.65212803      17.91237346       2.10785393      -0.16300751      -0.06307254
O        7.01006854       4.97738016      10.60989064       0.54968794      -0.18344337       3.88078472
O        4.63458810       3.33161719       9.90553067       0.82881391      -0.84222693       0.70864167
O        9.82823029       7.62506079      17.69095145      -0.45060653      -0.27195463       0.97410215
O        2.60992789       0.74189904       2.91641451       0.26146457       0.68955072       1.28929289
O        9.82807603       2.28144534      16.86593253       1.03757963      -0.48446919      -1.19723871
O        7.31797924       0.27960907      17.95153975      -0.95022890      -0.33699733      -1.09030420
O        9.01329413       8.53967765      22.80699171       1.58772093      -2.50008894      -1.46799554
O        1.67726008       1.11951620      12.13803164      -2.80312835       0.04709650      -1.59167274
O        0.78383583       1.59055636       4.81529352      -0.68492016      -2.66776698      -2.37638706
O        8.44157957       9.46040145      15.91132656       0.64380820      -0.34456170       0.58005026
O        3.33156698       3.96938009      12.19666307       4.30371491      -0.18404540      -1.34986032
O        6.04470065       6.73236506       9.10175644      -0.01577041      -0.00837628      -0.71482189
O        6.73929287       5.83917968      16.12787954       0.60807117      -0.32944144      -0.71775570
O        4.19186702       3.60345522      18.65032484       0.22995184       0.07509299       0.96557224
O        8.91401084       3.79321380      11.92130807       1.30869174      -1.86073321       0.98770686
O        6.18621868       1.28906714       9.00071759      -1.26553196       3.83500519      -0.59229245
O        1.40943090       6.86623248      15.40758488      -0.21691187       1.71632266       0.61795044
O        3.56134687       8.85820107      19.04887817       0.20762441      -0.83204056      -0.72231811
O        8.60967596       4.16554681      15.52978574       0.72808149      -1.91958726      -0.12282095
O        6.08297077       2.25490626      19.63004121       1.78083413      -2.70807321      -0.97967781
O        1.97100385       6.16178569      12.07351418      -0.84323744      -1.23531013       1.07836873
O        3.89142411       8.25185665       8.97020483       2.05465141      -1.79286655      -0.06714586
O        7.50905239       5.44519420      13.50956280      -1.24726391      -1.36647440      -3.49520124
O        4.39162828       2.77701172       7.42160105       0.03487102      -0.00511939       1.57505174
O        2.15217719       4.53263876      14.38260357      -0.86098539       0.67339907      -0.12061258
O        5.26489868       7.67788083      20.48935590       1.23314721      -0.39870558       1.94903760
O        0.43286782       2.50750985       7.29462897       0.05588159      -0.15470567      -1.31636173
O        7.24635399       9.63724882      13.64901386      -1.31035266      -0.12005007       0.82257321
O        9.73060308       7.69006631      20.29443222      -1.71909891      -0.70352180       2.72024055
O        2.98016930       0.65573746      14.44601277      -0.59412984      -1.69938606      -2.08318762
80
Lattice="9.77192453 0.01751879 6.90363604 0.24348012 9.76890588 6.90363604 0.01370155 0.0133883 13.86910312" Properties=species:S:1:pos:R:3:forces:R:3 energy=-573.40537949 source_file=vasprun.xml step_index=685 time_fs=19370.0 time_ps=19.37 file_index=9 pbc="T T T"
Na       7.64717617       9.02729606      18.14203388       0.07308056      -0.28485943       0.14397791
Na       9.05648219       3.75053230      20.42319153      -0.54802740       0.29111459       0.59630144
Na       1.84286360       8.65799143      17.40686859      -0.01391785       0.16140260       0.16849266
Na       7.69700270       7.64974350      11.37361206       0.00711177       0.19540054      -0.11322501
Na       3.56719410       2.32631319      16.21198114      -0.50550527       0.02129014       0.54240244
Na       6.15000951       2.18470336      13.93439205       0.79258412      -0.50636449       0.11146250
Na       3.14597249       4.18084389       8.30380401      -0.46110763      -0.03234050      -0.32463943
Na       4.32093748       8.68272724      13.69482609      -0.57491906       0.30857006      -0.53640114
Al       7.41855396       5.48047977       9.25732063       2.94484005       0.18141442      -1.00613694
Al       4.91494826       3.08215413      11.31386139       0.06807598       0.22654678       0.68637533
Al       3.17711384       4.78516701      18.27972919      -1.85230886      -1.42113934       1.32584805
Al       5.56511943       7.25113263      16.02641952      -0.58508290       1.67751087      -1.45770821
Al       0.91617273       2.24170332      11.40360053      -1.21462520      -1.76017972      -1.46115605
Al       8.21950585       9.68646609      22.69255858      -3.27227804      -2.46412060       0.71338902
Al       9.72334159       7.80388481      15.95429715       0.42952841       2.66790179       1.81389154
Al       2.30957965       0.43370556       4.52966658       0.72428439       1.84487006      -1.09774155
Si       2.76723654       5.99427084      15.60061541      -1.12858724      -1.30524414      -1.09396087
Si       4.81012195       7.34348816      19.00206998       2.70566210       1.04058757       0.92614521
Si       7.89612246       4.54335407      12.06649196       0.20365590      -0.22103778      -1.53354018
Si       5.85785301       2.85909052       8.26427429       0.17728075       0.73636019       1.33307298
Si       1.12391557       7.61989812      12.19845745       1.45118965       1.40986156      -2.03680123
Si       2.71381832       8.92852040       8.42603017       3.70150348       1.09944579       0.31988486
Si       9.36254338       2.50336860      15.29091920      -0.78117235       2.22498276      -4.32381704
Si       7.61379610       0.94235189      18.78769444      -2.97352904      -2.49687114      -0.12072297
Si       0.71118042       2.99810738       5.32764046      -2.22322700       0.56241468       3.37798308
Si       7.26431768       9.64026323      14.74581228       3.74702008       1.30350582      -1.07561963
Si       9.89593410       6.96983009      22.02966694      -1.57490925       0.50636106       2.51753931
Si       3.47256343       0.55636174      12.45864212       1.58244220      -3.30391367       3.57335103
Si       7.94815972       5.42963942      15.05993203       4.89050938      -1.15564901       0.63044082
Si       4.85305441       2.24622312       5.57065273      -1.42254484      -0.41938025      -4.39971565
Si       2.42204010       4.79626933      12.60558469       0.49633877       2.26628333      -0.36292689
Si       5.73583218       7.83184481      21.90295659       1.01987726       2.82469847      -0.84886002
O        9.16612016       5.49218795      22.04348376      -0.96080749       1.61658620       0.04063867
O        4.82514935       1.41352201      12.26845338       0.31122486       2.60006988      -0.29148698
O        1.50577196       4.25931475       4.96640760       3.05129861       3.78208078      -0.22521847
O        5.97935959       8.89938246      15.27492681      -1.08090011      -1.73281135       0.46352031
O        1.19590822       3.73590622      12.28003126       0.42760393      -0.08252037      -0.23859927
O        6.61163978       9.27181766      21.87647926      -0.39635948      -0.02842999      -0.30716106
O        9.36499968       6.30515236      15.42666260      -3.53438324      -3.80579701      -1.09343974
O        3.88342021       0.93461284       5.23519611       1.35662976       0.28261609       1.04594497
O        3.59644568       6.30358405      19.08061519       0.21667083      -0.48337563      -0.36274660
O        3.94092866       7.07535314      15.36184901       0.56991174      -0.00410398       0.38424114
O        6.79030028       4.21489295       8.17776132      -0.52112442      -1.05134471       1.22863008
O        6.45875871       3.80745557      11.70751131       0.08329029       0.03904637       0.36454981
O        1.54789409       7.87805155       8.41153401       0.30787335       0.39337418      -0.73927790
O        2.02434274       9.06767370      12.53385715      -0.87799310      -3.84392412      -0.26971577
O        9.03850263       1.61512487      18.96325842       2.36140083       1.05395351      -0.23131270
O        8.42201595       1.24342950      14.79046003       0.30488561       1.02541700       0.55535986
O        2.99298721       4.68560611      16.54842520       0.79225631       1.20350377      -1.15260738
O        5.74760549       7.43109436      17.66273232       0.34280741      -0.80218500       1.79650865
O        8.40133183       5.54667343      10.84900361      -2.48640206      -0.09902444      -0.57865811
O        4.70321570       2.90854325       9.52406950       1.20647375       0.07323892       0.34619376
O        9.73666923       7.89181324      17.83663295       1.68632788      -0.48299899       1.22501200
O        2.39274365       0.23272273       2.76798622       0.50439337      -0.61031268      -0.35027880
O        0.54041218       2.15711638       9.55280734       2.37888895      -0.44773081       4.72131651
O        7.40531768       9.76372375      24.38031829       2.45021990       1.92516284       0.20339365
O        9.07657491       8.15888694      23.02496374       1.53910773      -0.49898554      -1.83191556
O        2.29133875       1.03539973      11.60513067      -4.01199521       2.20516550      -2.31788695
O        1.31751918       1.83787198       4.54064204       0.42641720      -2.64293985      -1.08550593
O        8.75207010       9.25371784      15.48691044      -2.31120520      -0.29811106      -0.30729445
O        3.91400987       4.28859171      12.23937886      -0.51841818      -1.53323018      -0.64498196
O        6.52326470       6.97515198      22.98171155       0.53553196      -2.42625783       1.07742172
O        6.60938802       6.08908471      15.47139811      -0.73935154      -0.85395718       0.71044588
O        4.25999799       3.44899509      18.49489174       0.42029705      -0.15117710      -0.25881035
O        8.89956300       3.25915948      11.88501223      -0.76946732      -0.12183125       0.81328691
O        6.74219913       1.50988455       8.06932788       0.28044490      -0.27061970       0.64920081
O        1.47414049       6.86717884      16.17362200       0.27185344      -0.19836543      -1.26438609
O        4.20924802       8.85106643      18.81041201      -1.52929072       0.55239996       0.59938579
O        8.31847516       3.81816965      15.71181245      -0.37000807       0.79746902      -1.72153749
O        6.41662394       2.04233338      18.96118933       0.33794842       0.34562035       0.28866430
O        2.30494131       6.31266945      11.86733138      -2.57773457       1.28080409      -0.35826723
O        4.19297817       7.94550169       8.70401181      -1.02384941       0.99289864      -1.91482951
O        7.78460396       5.51392325      13.42945783       0.47175189      -1.80194772      -1.68756430
O        4.87577205       2.94340083       6.98303959      -1.08786426       0.35260745       1.88671110
O        2.28362515       5.42483275      14.10625836       0.21733954      -0.96103205       1.56084653
O        6.05566217       7.32724975      20.25320526      -3.30294715      -0.16429519       0.17433337
O        0.63525444       2.84822776       7.06037569      -0.57638273      -0.10869959       0.54865081
O        7.47217019       9.51367748      13.04081365       0.26790077       0.35594973       1.12157243
O        0.42770945       7.62351328      13.65809295      -0.94053259      -1.29343809       0.90342873
O        2.82786218       0.25801407      14.06245492       0.59747541      -0.26937905      -0.48275664
80
Lattice="9.77192453 0.01751879 6.90363604 0.24348012 9.76890588 6.90363604 0.01370155 0.0133883 13.86910312" Properties=species:S:1:pos:R:3:forces:R:3 energy=-574.29914084 source_file=vasprun.xml step_index=105 time_fs=36210.0 time_ps=36.21 file_index=18 pbc="T T T"
Na       9.25604666       1.59337149       9.49514553      -0.23662417      -0.32395340       0.39515882
Na       6.49449195       3.89506538      17.43537141      -0.33181043       0.06849885      -0.39496218
Na       4.36670555       5.60041534      10.39964194       0.14471812       0.13291297      -0.31692725
Na       1.78796605       8.41827876      17.05227082      -1.26334343       0.17297515      -0.58103583
Na       6.60922995       0.81243238      12.98436673       0.04099730      -0.10140605       0.29944708
Na       9.11720233       3.62412718      20.58504321      -0.28627594       0.42582960       0.53530568
Na       2.26843041       5.69761112       7.21671805      -0.31808993       0.47776808       0.04128354
Na       4.04014356       8.13619651      13.14196421      -0.08733031       0.51475465       0.21340745
Al       7.35699328       5.17637602      22.52019173       0.30612817       1.24936851       2.73560064
Al       4.73365104       2.87017143      11.27575749       0.57438251       1.80153686       1.67626763
Al       3.05606123       4.74881441      18.44857008      -3.11502822       2.64579833      -1.53867727
Al       5.67467141       6.88084954      15.85364387       0.09647041      -1.96587232      -1.33032212
Al       0.31320294       1.90864489      11.45133398       1.69015385       2.10249843      -0.77495404
Al       7.88532608       9.39427248      22.83540823       2.36791263       2.87561717       1.28249720
Al       9.72505205       7.77665410      15.73206480      -4.04078937       0.79943117       0.14060013
Al       2.13688861       0.36830860       4.27305982       1.20460416      -1.08751478       1.19029326
Si       2.83591047       5.93153341      15.37391618      -2.21596445       0.64463479      -2.46535002
Si       4.50049692       7.48073460      18.69106720       1.28303778      -2.44493539      -0.14100295
Si       7.41741485       4.01551720      11.93116411       0.40106772       0.74276622      -4.67093061
Si       5.68779505       2.64402561       8.29941030       0.93950138       0.99830979       1.84078475
Si       1.01694161       7.32832987      11.83631294       1.50320060      -0.28902392      -2.78770933
Si       2.68462266       8.97515745       8.17538227       1.54931131       1.92949717      -0.28200695
Si       9.38800686       2.39165983      15.19838188      -3.19884792      -1.48256027      -1.99213660
Si       7.54686163       0.85737803      18.97254160      -2.23332240      -1.49211945       0.20462577
Si       0.52793927       2.80702647       5.54713760       1.54833294      -0.49378457      -2.49075422
Si       7.12758758       9.60539119      15.00020387       1.77821029      -2.52219832       0.48013085
Si       9.59430482       6.95420581      21.53795104       3.06774727       1.60682130      -0.71245787
Si       3.00178268       0.38402229      12.20183481      -0.05653886      -0.56896440      -2.54962351
Si       8.01589406       5.27389420      14.61284061      -2.38112575      -0.58981508      -0.74848571
Si       4.64802424       2.16177843       5.36401212      -1.71593436      -1.47217371      -3.42640646
Si       2.22925444       4.61824146      12.54654857       0.14794362      -3.93623492       0.23341245
Si       5.53631824       7.72866281      21.49681884      -1.21023091       1.70366489       2.11442659
O        8.90551668       5.52105282      21.68763330      -0.52725312      -0.29947467       0.06584253
O        4.14572866       1.39258350      11.53475559      -2.94880297      -5.34076135       2.22042366
O        1.59621954       4.15593583       5.47520070      -0.71708262      -1.25672082       0.21988270
O        6.13825455       8.35742949      15.18100774      -0.23926402       1.01625432      -1.26421839
O        1.02126676       3.39076500      12.35305459       1.52715857       1.56930384      -0.51099787
O        6.40972197       8.91867414      22.26916092      -3.80212898      -0.49991035      -1.85312428
O        9.01693248       6.58444918      14.62726962      -0.82408945      -2.11762829       0.45603933
O        3.56169134       0.92909329       5.17588719       0.28597585       0.51165167       0.13015762
O        3.62983344       6.18925915      19.27455241       0.01637460       0.76035597       0.48608348
O        4.08470047       6.91946143      15.03498957      -0.49004062      -0.94931031      -0.14886827
O        6.99030939       3.66277258       7.99635251      -1.75170932      -2.46379618      -1.31407124
O        6.39632288       2.77780959      11.83068499      -0.57746698      -0.05493054       1.20264399
O        1.30918037       8.22069732       8.01846164       0.79596839       0.61616603      -1.82170028
O        1.99780156       8.55354979      12.03482698       1.89478361       2.46086835      -0.80533898
O        8.61023206       1.97728759      19.36165684       1.25655514       0.50169146      -1.49617520
O        8.27564609       1.18608388      15.11009083      -0.98039144      -1.46942489       0.47073891
O        3.00205085       5.06752187      16.65402192      -0.56138975      -0.22125128       2.20961999
O        5.41923356       6.84744245      17.50368832      -0.14176713       0.46751964       2.30561838
O        7.47253482       4.74448520      10.41123343      -1.07661597       0.88355667      -0.25298820
O        4.80768770       3.20891464       9.65825323       0.83618079       0.40181298      -5.29239607
O        0.31474895       7.26243387      10.38983298       0.12805271      -0.66969514       1.12658713
O        2.39784442       0.22946180       2.56212481       0.35319412      -1.19716470      -1.57543188
O        0.23994443       2.49008160       9.68894292       1.72897549      -0.50283151       4.40767169
O        8.18745895       9.69714457      24.62214239       0.38397424      -0.13385472      -0.53306969
O        8.81363090       8.09872551      22.28599819       1.01011259      -0.66867186       0.23850336
O        1.43173139       0.55712786      11.70815537       0.20564509       0.64263692      -0.11879128
O        0.88074010       1.48639050       4.41870746      -1.75562025       3.36397980       1.62649455
O        8.40269979       9.10116809      15.90221667       1.90976929       0.33179869      -0.37210676
O        3.67030334       4.01016062      12.06358626       0.14494477       0.80966466      -0.64302174
O        6.07562772       6.40028392      22.26747887      -0.39423935      -0.65785713      -0.99433200
O        6.61173401       5.17483624      15.56847464       0.57120884       3.32391870      -0.18887970
O        4.11998008       3.57507156      18.32071314       5.67329390      -6.38684763       2.03258539
O        8.86568385       3.37286430      11.84726315       3.26127626      -2.09973442       1.28553507
O        6.41757567       1.22351679       8.71505185      -1.25816875       1.79797143       0.94585036
O        1.44720194       6.97107345      15.34992523      -1.00103411      -0.38848484      -0.39266236
O        3.49620627       8.60439199      18.15602000       0.29141221       2.54888170       1.71699035
O        8.46729402       3.71566239      14.88822097       1.37396659       0.97362470      -0.15741082
O        6.05013694       1.41965904      18.56939415      -1.07517085       2.66194094      -0.00739539
O        2.14158718       6.06455364      11.86228038      -0.97408329       0.75617665      -1.09221679
O        3.69546586       7.68793768       8.06086113       3.72201214      -0.69941634       0.30079053
O        7.35652721       5.12394457      13.01984375       0.10169700       2.03731838       2.93121780
O        4.82981441       2.41756441       6.92392136       0.13022236       0.93262633       1.69182428
O        2.35794395       4.95812959      14.10364568       0.18180686      -0.16622625       1.49392428
O        5.51774282       8.16167799      19.86586290      -0.16447647      -1.25203108       0.81700546
O        0.59961112       2.07168284       7.02063644       0.49370697       1.12020315      -0.63904940
O        7.25435950       0.20337220       6.56755517       0.01409156      -1.24517623      -0.31755079
O        9.73575072       7.47230530      19.87618073      -2.22708519      -1.79969426       4.18370670
O        3.08720633       0.11250596      13.78468746      -0.75906970      -0.06916088       1.06975238
80
Lattice="9.77192453 0.01751879 6.90363604 0.24348012 9.76890588 6.90363604 0.01370155 0.0133883 13.86910312" Properties=species:S:1:pos:R:3:forces:R:3 energy=-577.62890835 source_file=vasprun.xml step_index=170 time_fs=6340.0 time_ps=6.34 file_index=3 pbc="T T T"
Na       8.23620253       8.10110463      18.84383757      -0.90905190      -0.16047200      -0.13024940
Na       6.83292471       1.83126720      14.24284207      -0.45666501      -0.03779894      -0.24597301
Na       3.10406025       3.50626483       8.86694401       0.33605525       0.07739902       0.19790298
Na       7.39666322       7.39483769      11.62887065      -0.01717686      -0.04933441      -0.30320553
Na       8.73343664       4.20330224      20.02586899      -0.15990198      -0.36572423       0.15970379
Na       2.73332447       2.76848306      15.23265174       0.01971938      -0.03511641       0.03238619
Na       1.69980945       6.80843030       5.95535546      -0.15485153      -0.06374392       0.45865634
Na       3.66070099       9.20866006      14.44083072       0.66288484      -0.27112221      -0.08985476
Al       7.40525970       5.28101482      22.63581041       0.60820256       0.02287177       0.07312609
Al       5.00606158       2.71782830      11.39398403       0.46061634       0.55862692      -0.51929449
Al       3.20202350       4.45531604      18.31321363      -0.18527144      -0.16690419      -0.98661603
Al       5.99127553       7.01949445      16.09998173      -2.90572701       2.77690195       0.46758001
Al       0.99155383       2.26605146      11.50673828       1.09694490      -0.56815762       0.58187767
Al       8.53638826       9.62613097      22.66677641      -3.82023460       2.05043486       2.44183375
Al       9.87533956       7.71822463      15.81745489       2.22247426       0.28996285      -2.19965142
Al       2.48841862       0.47372929       4.50442858       2.57602761       0.61781272      -0.58656693
Si       3.01487809       5.91662488      15.47351619       0.43984103      -0.03140850      -0.84687525
Si       4.91727590       7.14924212      19.13766919       0.14533808       0.90609634      -2.36555949
Si       7.89038667       4.06539334      11.98733950      -2.51594338       2.18763298      -3.83045015
Si       6.04675701       2.44992341       8.30727477       0.80240319       2.69196094      -1.41229770
Si       1.28821154       7.39040760      11.75648657       2.24468639      -0.57866943      -2.06797193
Si       3.01123926       9.47478700      22.39540946       1.04150818      -3.37781951      -3.21175908
Si       0.18816985       2.75328779       8.63965524      -3.04104042      -0.31209953      -0.54420756
Si       7.87990020       0.78041144      18.81051528      -1.53564827      -0.92621664       0.12973751
Si       0.92586964       2.91512138       5.76280871       2.55452592       1.14741100      -1.13674491
Si       7.47693875       9.46902805      14.76046189      -1.32265673      -0.14350309      -1.61805668
Si       0.19590371       7.00840774      14.61693466      -3.28190656       1.38393276      -0.17627230
Si       3.13773226       0.28098449      12.31257213       1.03126096      -0.32766980       2.35761243
Si       8.30613386       5.34852006      14.69427995       1.51260618       3.59003449      -0.32239856
Si       4.90811649       2.00503392       5.46182168       0.91362975      -0.05245925      -0.46864124
Si       2.78883266       4.70721372      12.41165156       1.08579201      -0.35732915      -0.44562043
Si       5.91177130       7.92892651      22.00901172       0.25246904       0.86094260       1.14395096
O        8.75118429       5.92886741      21.64932904       0.94041588      -0.09568644      -0.25912410
O        4.38582087       1.31086672      12.15806720       0.20404455      -0.34960348      -0.01018440
O        1.69157791       4.35332325       5.41448994       0.62312419      -1.00039211      -0.33735920
O        6.15262857       8.59056371      15.23896101       1.02769479       0.79018077      -0.85035418
O        1.60929963       3.61519849      12.51216828      -1.63004366      -0.87881030       0.89737867
O        6.84034737       9.31806413      21.97625164       0.97412783      -0.04149916      -0.35488778
O        9.56128189       6.50921922      14.52250417      -0.89697280      -0.53323740       1.69530139
O        4.09882526       0.59135458       5.40271980      -1.52796629       0.03898813      -0.43569572
O        3.84197221       5.90974507      18.94664640       1.55801889       1.72104179       1.48279007
O        4.20500810       7.01924662      15.67637188      -1.05410853      -0.90246181      -0.35032121
O        6.96427228       3.80244699       7.92494680      -0.68631651      -0.12807373       0.05749935
O        6.54686046       3.13604096      12.20167046       0.43398022       0.00505407       0.62483583
O        1.81270155       8.33652224       8.37136885      -1.18392225       0.06857181       1.22630702
O        2.13711234       8.75568710      11.93510142      -0.88709902      -1.46528795      -0.04239913
O        9.20255875       1.73465167      18.82897791      -1.65833159       0.17726975       0.39350841
O        8.77890410       1.55274374      15.46008318       1.45271458       0.50875514      -0.06241381
O        2.97351245       4.73524492      16.55166866      -0.42109256      -0.49406456       0.86678959
O        5.98117732       7.25460718      17.84593768       0.06164710      -0.46073435       0.87069091
O        7.62984969       4.89689947      10.41182833       1.80977714      -2.30307377       5.01941355
O        5.26469516       2.53646290       9.67993993      -0.38070224      -0.31792593       0.07676333
O        0.18665061       7.15125123      10.56944489       0.28624953       0.84135720      -0.41421486
O        2.88344661       0.76413027       2.78210145      -0.71966106       0.40700517       0.50036220
O        1.03879248       3.03752082       9.95413821       0.41445398      -0.61314223      -0.49139550
O        8.03848926       9.44994367      24.39977080       0.72710971       1.92635223       1.40592959
O        9.52405966       8.52035602      22.08936780       3.07343717      -3.68316388      -2.05763544
O        1.83577182       0.70028611      11.48405678       0.31967511       0.18074121      -0.51457703
O        1.35045991       1.66908814       4.83877195      -0.58308425       1.14198279       1.11199905
O        8.73965152       8.94664453      15.47750603       1.76859554      -0.58901909       2.32918776
O        3.76446902       3.96313500      11.21727026      -0.29740278       1.44637726       2.36009303
O        6.52328505       6.71675198      23.03711923      -1.96698431       2.61476432      -1.91057330
O        6.95573023       5.83460298      15.49285931       2.34897964      -2.16681949      -1.26091935
O        4.32214298       3.12299392      18.20487781       0.61202850      -1.32559250       2.26959277
O        9.20369191       3.22717232      12.29657557      -1.79142938      -1.10913178      -0.23038714
O        7.06879634       1.28143264       8.09927090       0.82572870      -0.99692294       0.94843719
O        1.47687400       6.62914464      15.44976555       2.86752963      -0.78092132       0.08123165
O        3.90557193       8.47092446      19.04701377      -0.81768169       0.67432143       0.17072238
O        8.99052583       4.10537587      15.40777876      -0.13393617      -1.26407080       0.01759096
O        6.54712544       1.79031274      19.15807286       1.06018324      -0.24859603      -1.92402296
O        2.35067683       6.15010351      11.82664893       0.19284402       0.13165137      -0.42791592
O        4.41962029       8.46417213      22.51471424      -0.11203039       0.04487282      -0.70736405
O        8.07756887       5.28768260      13.07000060      -1.63314447      -0.44532676      -0.51377648
O        4.94394363       2.31990182       7.10300865      -1.95517460       0.83819615      -0.18040668
O        3.27071008       5.02971628      14.03877287      -0.30937146      -0.27512995      -1.27255729
O        5.97450201       7.39648451      20.38845134      -0.88232352      -0.66250166       0.81309327
O        1.25522660       2.73025351       7.37917932      -0.35036559      -0.68118072       0.31803876
O        7.92927776       9.48448854      13.13271030      -0.16625531      -0.82052443      -0.34841570
O        0.30087615       7.18067627      12.94417269      -1.70686412      -0.28795511       4.15007282
O        2.72228534       0.48157448      13.96717495       0.47853300       0.00634666       0.75540190
80
Lattice="9.77192453 0.01751879 6.90363604 0.24348012 9.76890588 6.90363604 0.01370155 0.0133883 13.86910312" Properties=species:S:1:pos:R:3:forces:R:3 energy=-574.41988396 source_file=vasprun.xml step_index=665 time_fs=9330.0 time_ps=9.33 file_index=4 pbc="T T T"
Na       6.72766521       4.81598206      18.69879043       0.71231289       0.47505092      -0.45611223
Na       8.03419941       8.78354626      19.55503512       0.05829904       0.29054860      -0.36228879
Na       2.78756237       2.67149008       9.11288549      -0.08735595       0.03516161      -0.17114921
Na       8.41089065       7.67322006      11.67531524       0.07678888       0.07863169       0.30279010
Na       9.45460952       3.10833884      21.32091459      -0.12172361       0.04912394      -0.05340008
Na       4.18371809       3.27360639      14.71784412       0.68083214      -0.71870404       0.30047879
Na       2.10807746       6.62909742       6.75349306      -0.52066087      -0.35659369       0.71817299
Na       4.80363859       8.66079161      13.30868675      -1.35227479      -0.08209021      -1.19726147
Al       7.70409572       5.41292854      22.82253422      -2.46707013       0.36848981       1.25448593
Al       4.88423202       3.20988265      11.41331102       1.40821266       0.06867084       1.67558583
Al       3.10750838       4.96730898      18.43037525       0.74033397      -0.17107029      -0.80266561
Al       5.77037431       6.99752910      15.82482272       0.40206744      -0.54253357      -0.14670957
Al       0.72314634       2.17577242      11.46083236      -2.63111709       0.30209361      -0.42893169
Al       8.33287093       9.34773009      22.93187646      -2.37747637       0.99161816       1.77238695
Al       9.96669166       7.74403472      15.94277887       0.56467039       0.13273210       0.83645712
Al       2.61831974       0.86626648       4.32464761      -2.61758374      -0.77833029      -0.89060985
Si       2.99809206       5.81303997      15.25882890       2.95003413      -3.80216373       0.20609703
Si       4.82347772       7.80522063      18.88316640      -2.60461035      -5.24862162      -4.46144130
Si       7.69943060       4.64828506      12.02259078       1.64818972       0.77454249      -0.21139580
Si       6.33615554       2.50553637       8.58135737      -1.15623572       1.63798482      -0.20239906
Si       1.18644956       7.89719791      12.03186195      -0.39150792      -1.22441517       0.01739578
Si       3.18620466       9.26842669      22.34801696       1.32987713      -2.42635391      -0.63986271
Si       9.19590346       2.28383732      15.34351535       2.12693248       4.00232070      -0.48053342
Si       7.52620399       0.90868666      18.91026261      -1.34225731      -0.52249027       0.85505563
Si       0.62769806       3.12272419       5.58736950       1.44869377      -1.39786101       0.08978301
Si       7.40444298       9.31276888      14.66255183       5.00371636       2.79985714       0.54650709
Si       0.27314629       7.23305753      14.99705349       0.31270142      -2.09282490       1.29073184
Si       3.34905047       0.81983472      12.60548755       2.24199901      -0.12451854      -1.79134254
Si       8.32837970       5.37035852      14.98302342       0.60711674      -1.22834820      -1.48484157
Si       4.95569080       2.63757069       5.53079899       2.48277296       1.80840639       0.56690899
Si       2.24954481       4.73658332      12.20995233      -0.42437538       2.22062647       3.02043364
Si       5.95432142       7.57877727      21.53610805      -2.16370036      -2.43762146       1.93009063
O        9.05319312       5.90986257      21.85372203       0.91135783       0.46188085       0.25519039
O        4.50878444       1.95068492      12.61947585      -0.22286672       0.79780213       0.11541199
O        1.73164117       4.34194762       5.61493277       1.04781053       1.27971026      -0.78797468
O        6.18531261       8.36088304      14.73025830      -0.88298242      -1.51155969       2.65796701
O        0.90544837       3.89081602      11.96225247      -0.42476287      -1.20019774       0.49233114
O        6.96635588       8.55325656      22.21671935       1.76141616       0.89495772      -0.81502342
O        9.72471506       6.14253334      15.25549213       0.09137443       0.77444919       0.95738179
O        3.77141324       1.63006945       5.23127010       2.17093524       0.32436438       2.06519456
O        3.46138103       6.63798044      18.94131801       1.78860499       2.01929559       0.61616811
O        4.43501397       6.47269836      14.86413885      -1.02585687       0.03419835      -0.39846112
O        7.46467088       3.68075670       8.58180972       0.64688593       0.06972642       0.43740297
O        6.34571614       3.87355110      12.24633244      -1.86340653      -0.07234057      -0.69832278
O        1.85013862       8.04069316       8.50474484       2.63499989       3.17898868       0.18815144
O        2.37673184       9.02366668      12.02576101      -0.16778592       0.20304997      -0.09940648
O        8.84396365       1.59205794      19.34651747       5.55118560       2.26392495      -0.34016499
O        8.20633786       1.06391138      15.11874444       0.23195368      -0.41814073      -0.08041538
O        3.29929662       4.88016025      16.62980142      -1.65685932       1.00804964      -0.64992865
O        5.51696830       7.50061250      17.43249959      -0.04546733      -0.10537569       0.10887676
O        7.80915810       5.80027307      10.80883338      -0.25938905      -1.96938443      -1.40309451
O        5.29070619       2.58951255       9.86168099       0.32836933      -0.47309092      -1.34188402
O        9.83005989       8.14120677      17.70919630       1.17583284      -0.81684143       1.45779917
O        3.46223837       0.60129497      16.60097329      -2.16912586      -1.78558277      -0.03351445
O        0.51018449       2.14347967       9.69141470      -0.93599338      -0.43473416       0.60528579
O        7.68901263       9.65033122      24.65402457       1.23755725      -1.07612852      -4.82075248
O        9.57662636       8.18831233      23.15775622       0.90479102      -0.19139310      -0.75411065
O        2.20041804       1.33309245      11.58765443       0.01151996      -0.91035813       0.71140771
O        1.27203939       2.04492333       4.45708077      -0.59578535      -0.15759685       0.92289740
O        8.92380176       8.87556664      15.23672759      -3.01063663       0.58732987      -1.24458067
O        3.46224849       4.25599820      11.29701324       0.51679662      -0.18893279      -0.20508289
O        6.00180557       6.05956150       8.45842638       1.78809108       1.33254577      -1.68052185
O        6.98173428       5.69563472      15.78588896      -0.56403586       1.67281980       0.32958804
O        4.72114500       4.19519977      18.63341539      -0.14999282      -3.23148715       2.43360300
O        8.91225432       3.53759875      12.02712705      -0.03131490      -0.70048700      -1.15586274
O        7.15120930       1.15544215       8.32008709      -0.33680373      -2.19175898       0.24860823
O        1.88302604       6.86854653      15.19052958      -3.25496530       2.49354604       0.55936280
O        4.43616919       9.27741385      18.85298719      -2.64704710       4.07135900       0.85952811
O        8.48346717       3.81828702      15.41038211       0.05359702      -2.68829517       0.51831123
O        6.50091611       2.15328002      18.75974304      -2.71285484       1.21968691       0.42424580
O        1.90873149       6.36570411      12.06537795      -0.13156420       0.29832302      -0.29811817
O        4.45013203       8.14318525      21.91720268      -1.53543999       1.00562317      -0.20462029
O        8.28613807       5.50019826      13.29004055      -1.07978440       1.35354395       1.79099427
O        5.40916830       2.76057405       7.22863737      -1.81917903      -0.13568366      -2.34093923
O        2.61585946       4.61280016      14.10951349      -0.56394338       0.30125526      -2.77966406
O        6.09552489       7.57180595      19.78203845       1.92881668      -1.03045775       4.53707119
O        0.55138134       2.63949241       7.24377765       0.16984392      -0.85592251      -1.99914263
O        7.43415130       9.45995608      13.03010649      -0.49214378       0.31849191       0.98465257
O        9.94260583       7.82647448      20.40979079       0.82054379       1.80473332      -2.83738181
O        2.97897299       0.51067168      14.11932079      -1.72569424      -0.48444765       1.09297403
80
Lattice="9.77192453 0.01751879 6.90363604 0.24348012 9.76890588 6.90363604 0.01370155 0.0133883 13.86910312" Properties=species:S:1:pos:R:3:forces:R:3 energy=-574.63624394 source_file=vasprun.xml step_index=815 time_fs=49630.0 time_ps=49.63 file_index=24 pbc="T T T"
Na       2.91541913       2.13262665      15.40059219      -0.19684432       0.42097885      -0.00871508
Na       6.55452068       3.56085875      17.20274570      -0.39725182      -0.12571010       0.57841633
Na       9.50240987       6.62499664      12.82104834       0.16054984      -0.10014187       0.07426954
Na       4.19743768       8.03479354      12.20180167       0.34826522      -0.11391977       0.53422520
Na       8.54470290       3.99670858      20.77674573       0.00091434       0.11140318       0.20637485
Na       6.95684200       9.55136931      19.32870535      -0.34499289       0.05659164       0.17154641
Na       2.60647582       8.48203242      16.13606707       0.35558372       0.66817588       0.45411260
Na       1.88319531       5.57543480       9.37270680      -0.20467376      -0.29645604      -0.13683521
Al       7.21041059       5.21862402       9.45135675      -0.33307828       0.71153573      -2.71435128
Al       4.68032106       2.71625561      11.68674819      -0.04725428      -0.06932241       2.63539319
Al       3.12184216       4.47340703      18.39044714      -0.45361756       2.51789983       2.83175230
Al       5.66447404       7.01383095      16.01495910      -0.62199499      -1.69046201      -1.81142510
Al       0.34695963       2.35463153      11.57745458       2.96661309       1.16968843       0.26233427
Al       8.16607797       9.41841534      22.94509690       0.45764321      -0.01913412      -0.18710094
Al       9.58439397       7.62024423      16.15193329       1.71524549       0.08831990       0.82490291
Al       2.21045265       0.49512234       4.58661754       1.15802113      -0.35028274       0.82529671
Si       2.75595718       5.45001339      15.48685906       0.86679192       0.30963436      -1.22476243
Si       4.37848352       7.48543788      18.80920264      -0.59514315       2.94928132       1.80877082
Si       7.43489205       4.19633204      12.31087046       0.03344867      -0.23531736       1.52763248
Si       5.53701453       2.32253567       8.85524640      -0.51331285       0.99126076      -4.26751350
Si       0.95113412       7.50817769      12.45659875       0.53533573      -0.73920762      -3.12842893
Si       2.66802063       8.83502447       8.61479530       4.51194824       4.22236531       0.51200296
Si       9.48992561       2.35960427      15.47071382       1.99237606       1.66000737       0.28034775
Si       7.45807621       0.78672186      19.02969317      -0.83576869      -2.77046989      -0.91429430
Si       0.67643620       3.23910901       5.67430400       0.31173610      -0.31976117      -0.51771053
Si       7.07350812       9.36598659      14.84874282       3.89628631      -0.40387610       2.55693716
Si       9.74608998       6.94287061      22.15348349      -0.75341664       0.43484748      -0.56209962
Si       2.80302151       0.47376431      12.69941060       0.62913038      -1.93991313      -0.45550421
Si       8.06864739       5.00843358      15.24693209      -1.53119090       3.51511024      -0.87130095
Si       4.67356946       2.11252683       5.71950525      -0.57185179      -0.80457766       2.58053972
Si       2.27962881       4.55938563      12.66546593      -1.49037678       0.72622136       2.70194490
Si       5.61440590       7.92059212      21.77676493       2.63445295      -2.70116162       0.49620934
O        8.91520291       5.61717233      22.49321592      -1.17942664      -1.69956744       0.51070583
O        4.25716175       1.16855822      12.54345157       0.26379746       1.00850451       0.68560119
O        1.54377411       4.63221005       5.54373945       0.36222543      -0.84086859      -0.88287604
O        6.14919417       8.12113334      14.73716377      -2.07699727      -1.53611007      -0.74951499
O        0.73795388       3.86427978      12.59730282       0.87565903      -0.47698766      -1.39931369
O        6.93653607       9.00708344      21.69145468      -1.62081286       0.24687882       0.96113096
O        9.27438370       6.12305971      15.33833813       0.77937812      -1.63513650       0.52985869
O        3.93903109       0.71086386       5.29831525      -1.68945781      -0.21985881      -0.85041635
O        3.94223229       6.02465818      18.85442476      -2.05716377      -2.93622795      -0.61807873
O        4.11087600       6.33355701      15.22599592       0.19141135       0.06257178       1.18981784
O        6.65705439       3.51212535       8.88907032       0.65059404       0.88282817       0.11613397
O        6.20864039       3.13422734      12.49250603       0.82325300       0.20618567      -0.17616770
O        1.37858797       8.11754693       8.40876480      -4.73552924      -4.47874775       0.52102965
O        1.84490888       8.88697120      12.51293787       0.15218346      -0.15510622      -0.60558975
O        8.56430604       1.85464821      18.73017313       0.20959481       1.03883183       0.52174552
O        9.12263757       0.84591716      15.34813725      -1.88491869      -1.35557902       0.20200522
O        2.63799167       4.47711056      16.77735997      -0.08607143       0.01071754      -1.15055971
O        5.14544031       7.79672686      17.44446065       1.07732831       0.83905910      -0.13821161
O        7.09197127       5.26673869      11.17406170       0.28774665       0.76249979      -1.07847146
O        4.62940331       2.17889393      10.11141982      -1.19473512       0.67747713      -0.17969373
O        0.33440798       7.26811009      10.90984261       0.31485654       0.38261151       0.78861784
O        2.33663388       0.31430601       2.81504558       0.16123572      -1.02519659       1.73766127
O        0.56500285       2.69312593       9.92061285       0.08013865       0.47783951      -1.59670472
O        7.53665839       9.56262061      24.59657941      -0.17385662       1.32903551       0.97286249
O        9.31499412       8.13208888      23.17961657       0.86756264      -0.99907997      -0.89181642
O        1.72215711       1.34485924      11.88952601      -0.14940384      -0.80733807       1.12035254
O        1.58228152       1.99212945       5.04297761      -1.82869777       2.23823546       0.05660284
O        8.31823457       8.64159706      15.93953377      -3.02580962       3.13930421      -1.40155074
O        3.68013989       4.15553497      12.00703931      -0.91012153      -0.19848373      -1.39442602
O        6.37178729       6.48099453      22.24480705      -0.83481320       0.43872055       1.33473757
O        6.73702635       5.55320865      16.13441878       0.95935363      -0.35562156      -0.17555414
O        4.49842707       3.53781381      18.85282840      -0.29739029      -0.90504721      -1.54697930
O        8.87443889       3.40990865      12.04246281       0.11094608       0.05281179      -0.62489681
O        6.05953751       0.79222729       8.75632478       1.82510876      -1.02225493      -1.07092174
O        1.61284019       6.70873431      15.40152218      -0.04799162      -1.22504254       0.39635994
O        3.20456642       8.72502284      18.89671539      -0.11657830      -0.80408238      -0.56300797
O        8.26512457       3.45728468      15.56511457      -1.71674745      -0.36233999       1.03815547
O        6.20953384       1.69434599      19.38884049       0.78608661       0.81466886      -0.79710242
O        2.00161880       6.22707964      12.61821108       1.20173546      -0.77393234      -0.75885765
O        4.15785894       8.03531017       8.78381023      -0.42812151       0.60054673       0.02068855
O        7.75989324       5.26542279      13.64562255      -0.70382229      -1.86873710      -1.52524480
O        4.60258610       2.51037798       7.32384859       0.64029427      -0.33294371       2.19046475
O        2.63374786       4.27816602      14.30043092      -0.48962494       0.61864206       0.20159453
O        5.21819407       7.69610109      20.23291379       0.20242159       0.93403082      -1.29330836
O        0.41219226       2.97320194       7.23051342       0.78423391      -0.69973000       1.41440161
O        7.92554630       9.68691599      13.46243315      -0.15150944      -0.05713415       0.05066111
O        9.57577576       7.30035651      20.44710009      -0.75588326       0.21123511       2.52550583
O        2.47822236       0.07395160      14.30315595       0.88217178       1.92428984      -2.69913759
80
Lattice="9.77192453 0.01751879 6.90363604 0.24348012 9.76890588 6.90363604 0.01370155 0.0133883 13.86910312" Properties=species:S:1:pos:R:3:forces:R:3 energy=-576.44807184 source_file=vasprun.xml step_index=350 time_fs=96700.0 time_ps=96.7 file_index=48 pbc="T T T"
Na       8.20578701       8.43544048      18.69210820      -0.56097528      -0.13229100      -0.28540507
Na       6.51321043       1.49872034      13.81080470       0.01543556       0.15031396       0.04085156
Na       3.28759140       1.83525804       8.13770666      -0.75391680       0.27732831       0.35912477
Na       6.83866294       7.23354592      11.12074889      -0.08774398       0.62832166       0.26016783
Na       9.18964859       3.32141392      20.69705282      -0.71316677      -0.04310599       0.32159758
Na       3.07183128       2.78361259      15.22332723       0.01581516       0.18409038       0.43800849
Na       2.21304659       6.56972842       7.25313420       0.31469496      -1.94188726      -1.32570119
Na       3.80872737       8.67830983      13.82584353       0.26664652      -0.38838999       0.38590263
Al       7.83175824       5.46922409      22.87447907      -3.02533499      -2.44500155       1.66569082
Al       4.94964418       3.13785657      11.43261010      -0.14943485      -2.68808187      -1.97056677
Al       3.13113291       4.61660063      18.39292531       0.08095497      -0.33907214      -1.62242224
Al       5.88578754       7.20695584      15.94293572       0.85180479       0.06934989       0.84824484
Al       0.72895029       1.93864479      11.44503336       0.87761813      -0.72251148       0.92243016
Al       8.39234560       9.62807020      22.74111627      -0.41808411       0.71075697       0.21519414
Al       0.21725839       8.05495299       8.79207971       2.16079199      -0.68257425       1.28912440
Al       2.59848865       0.39190484       4.55387616      -1.43853742       0.82812892       3.17957652
Si       3.14017375       5.88263433      15.19116419      -4.21935608      -3.80678839       1.22859232
Si       4.97795428       7.44313269      19.07952612      -2.21419674      -1.29237679      -0.89924964
Si       7.68775916       4.29107709      12.11926479       2.03071340      -1.29326770      -2.08891702
Si       6.19861006       2.76820367       8.32775044      -0.84343230      -0.20320595      -0.19225532
Si       1.18302203       7.54907719      11.95079962       3.17754813      -1.49809326      -1.93565992
Si       3.33904166       9.17003976      22.41019525      -0.82480604      -2.22800835      -1.88263037
Si       9.56875762       2.65740424      15.34610702      -1.11890699      -0.15044841       1.43709377
Si       7.51849696       0.46059180      18.82921410       0.96742619       5.58881976      -3.17711101
Si       0.74602732       2.83553588       5.59808001       1.62957126       0.11630057      -1.78713805
Si       7.37635501       9.49813775      14.63492278       0.19129246      -0.66865787       0.36788230
Si       0.22719714       7.19222168      14.62842616       2.37556898       0.15326954       1.54741366
Si       3.48611369       0.60502299      12.72227760      -2.34509324      -2.29924464       0.17009819
Si       8.40084265       5.67968538      14.65157314       0.09506991      -1.36495718       6.97193058
Si       4.86152989       2.31065830       5.67464481       0.68138399      -2.97012690      -3.49146069
Si       2.37994874       4.58798165      12.29394157      -0.67689628       1.44588370       0.91410172
Si       6.05354855       7.88564493      21.77693673       0.60356423      -1.66946128       1.25849040
O        9.26968639       5.93795433      22.27062219       2.70760860       1.39968118      -2.07038802
O        4.62461425       1.53962831      12.23416499       1.69886853       1.90736357      -0.44673499
O        1.68648233       4.21111913       5.51572532       0.14284565      -0.44900982      -0.30419943
O        6.00239032       8.58249220      14.79660106       0.92319638       0.77017902       1.09324066
O        1.04928751       3.52525288      12.43123805       1.36696821       0.78647593      -0.93218675
O        7.10459960       9.10965487      21.67101751      -1.21348077       0.74756176      -0.04642393
O        9.68898595       6.55225095      14.84397617       1.90361824       2.59565864       0.40012291
O        3.71012889       1.04780159       5.90915459       1.27737481      -0.12342023      -0.52201264
O        3.75692364       6.11345004      19.08792635       2.53960132       2.53491600       0.33996197
O        4.53987744       6.47852439      15.15700735       2.17229262       1.77701308       0.34032288
O        7.37650209       3.86015544       8.21078138       0.27098102       0.91619499       0.16552625
O        6.27630005       3.51507730      12.40442579       2.18941993       1.04708104       1.15767827
O        1.91763724       8.33429547       8.10222351      -0.00130517       2.46732220       1.90404609
O        2.13683963       8.70959094      12.38988122       2.57026077       2.54385942       0.46138385
O        9.03157683       1.13867506      18.89101587      -0.42107468       0.60777565      -0.06785560
O        8.36952186       1.51527825      15.29714521      -0.16327323       0.90423339      -0.10472362
O        2.84223877       4.80990926      16.50005750       0.54638842       0.95133947      -0.25346701
O        5.81108883       7.72911310      17.71780274       0.15011773      -1.02735727      -1.84330830
O        7.57960198       5.19249148      10.77942716       0.12088223      -0.31431750      -0.66185704
O        5.36912138       2.64126448       9.70991204      -0.09606690       0.59765936       0.42525953
O        0.55099508       8.08200434      10.63326166      -2.11923432       0.03234802      -3.80507722
O        3.20145340       0.14749268       3.00730953       0.29461444       0.12929286       0.23824476
O        0.78362347       2.08309220       9.69311096      -0.37326922       1.39786954      -0.03535719
O        7.45570374       9.55412059      24.29630981       0.94486472      -0.92497284      -0.56588896
O        9.73585190       8.70741453      22.11417767      -0.18311684      -1.14432213       0.23718689
O        1.98641096       0.91081581      12.26361626      -0.44040267       0.78881870      -1.25928852
O        1.40348528       1.65458513       4.60286873      -1.31180252       1.19992387       0.78627642
O        8.66668621       9.13399271      15.65162633      -2.33965055       0.87490770      -1.63920427
O        3.51649140       4.00373567      11.30947940      -1.07000272       0.68621232       0.21758032
O        6.65126900       6.70983192      22.78298673      -0.57246565       1.25724292      -0.90630749
O        7.23109548       6.09941913      15.72235591       0.06664418       0.48076092      -1.12080824
O        4.29938103       3.21783061      18.32916383      -0.35551720       1.02432320       0.58498595
O        9.01042750       3.21641640      11.91478138      -1.42579071       0.04863413       0.81312282
O        6.85996244       1.32217872       7.95192257       0.26653785      -0.50674145      -0.01627714
O        1.92198837       6.95957733      15.02063547      -1.53650274       0.77967176      -0.77792450
O        4.15983884       8.81827180      19.38526736      -0.34221732      -0.72238417      -0.30437676
O        8.91572259       4.20358242      15.22569068       0.92295095      -3.00966155       1.12461795
O        6.44694256       1.74752232      19.05199012      -1.51816168      -0.12372877       0.57361719
O        2.08381443       6.18175489      11.84192582      -0.25456233      -1.59740298      -0.53559864
O        4.48560193       7.90027407      22.36332459       0.02350940       1.79209811      -0.77567891
O        8.26648005       5.33721981      13.19052698      -2.10681321       0.28878797      -4.35521672
O        4.98541725       2.98147794       7.10460967       1.17797408       1.00160276       2.66213195
O        3.07587638       4.94302211      13.80324824      -0.57088347      -1.80004461      -0.38806392
O        6.18022605       7.42380631      20.21202137      -0.96223389      -1.28479293      -0.62311422
O        0.78998109       2.37072008       7.19654244       0.60365377       0.09680603      -1.60377261
O        7.64480068       9.18207594      12.98443597      -0.26987305      -2.83145550       4.13053145
O        9.79383719       7.23945969      19.84357455      -2.69257774      -0.78970589       4.07699178
O        3.38895744       0.56254563      14.37641373       0.52947432       0.92002817       1.11893430
80
Lattice="9.77192453 0.01751879 6.90363604 0.24348012 9.76890588 6.90363604 0.01370155 0.0133883 13.86910312" Properties=species:S:1:pos:R:3:forces:R:3 energy=-575.63908017 source_file=vasprun.xml step_index=730 time_fs=43460.0 time_ps=43.46 file_index=21 pbc="T T T"
Na       7.67760299       8.50771792      18.73378974      -0.25954385      -0.52166161       0.14286621
Na       5.44693460       3.43808312      16.43641519       0.10402059      -0.24448047       0.23566574
Na       3.97245239       6.36154108      10.12256147       0.06433119      -0.48177619       0.37182983
Na       3.07572765       8.35918485      14.23332818       0.36056256       0.26649271       0.28846884
Na       7.39165132       4.03435826      19.95164194       0.13573557      -0.20462453       0.24565076
Na       8.92924224       1.69188420       9.99286081      -0.02775786       0.38376371      -0.26560215
Na       0.55049397       8.09522913      17.95024118       0.27454809       0.27995939       0.67554143
Na       2.79580386       4.03894544       7.87994052       0.15696033      -0.26740914       0.22007710
Al       7.32108378       5.30958958       9.16890971       0.02303524      -0.53258242      -1.30184009
Al       4.53305998       3.20680785      11.63441889       1.20189666       0.45235445      -2.09383235
Al       3.24328171       4.78931831      18.42022575      -0.46351585      -2.11657015       1.05057437
Al       5.64149374       6.78581532      15.79045286       1.35307744       1.45393266       2.28510453
Al       0.38073577       2.08387624      11.55463624       1.57678118       0.55413043      -1.24211036
Al       8.16100663       9.39357534      22.93427319      -0.02517578      -1.42306007      -1.77928754
Al       9.86489106       7.77307261      16.00952070      -4.44383924      -1.90970666       0.27005175
Al       2.31885608       0.50143068       4.44884534      -0.53327338       3.49673747       3.00848350
Si       2.84509666       5.36999657      15.40310182      -3.03638658       1.25289304      -2.42541383
Si       4.63038642       7.64720323      18.69770203       0.51232158      -1.42046172       1.66974183
Si       7.66421257       4.30021592      12.07975637      -1.86946878       1.16949125      -1.23680885
Si       5.81424449       2.66080016       8.83231607       0.52700524       0.03527166      -2.28574484
Si       0.97071959       7.71035542      12.17457834      -2.30007497      -1.63533517      -1.34918455
Si       2.82392118       9.04714041       8.50793264       3.28261986      -1.58801889       2.27682696
Si       9.34544148       2.29960234      15.41259977       0.86717476      -1.01582895       2.75840998
Si       7.52100559       0.86649228      18.94259484      -1.45465554       0.92827181       4.93043528
Si       0.71021149       3.01767149       5.63525158      -0.07140809       2.01134545       0.00251911
Si       7.31799033       9.51939292      14.95411691       2.04988601      -1.67386116      -1.13491839
Si       9.76556192       6.82987597      21.74750346      -1.72905773       2.43774979       1.93605581
Si       2.76770706       0.56603736      12.66267269       1.80107801       0.48903492      -2.63283915
Si       8.04423423       5.03668947      15.19472973       0.92507505       1.37670773       0.52228581
Si       4.69700368       2.40057558       5.75424751       1.52556864      -1.72633548       1.04527950
Si       2.07132968       4.67776103      12.51063221       2.97406569       0.89051378      -1.82794167
Si       5.61823003       7.57057232      21.71326716       0.46407328       0.63300454      -1.04378943
O        8.66439813       5.68462841      21.85754249      -1.16151728      -0.62710696      -0.30828128
O        3.80991325       1.86742968      12.34568600      -2.15543896      -2.65880010       1.19922070
O        1.88932626       4.21668926       5.75938109      -0.05708920      -0.62761437      -1.08045716
O        6.35925844       8.26336040      15.23468691      -0.67772889      -0.42203597      -1.24569856
O        0.99433732       3.78286533      11.83498816      -1.65165311      -2.29222942       0.24608767
O        6.67934745       8.72093489      22.13700472       0.82009841      -0.14522891       1.08409476
O        9.21925856       6.13169599      15.34443129       0.39790381       1.71993097       0.94213694
O        3.49049787       1.28685232       5.54860520       1.65839533       0.86267314       0.47333923
O        3.52287712       6.36095069      18.91949827       1.52317053       2.90800826      -0.26094386
O        4.00066497       6.46423631      15.32154115       0.79756617       0.94861440      -0.77006469
O        7.30378942       3.50065151       8.82163293      -2.31782790      -0.21883277       0.34377887
O        6.28060398       3.36259245      11.93678589       1.12848613       0.80661119       0.53066320
O        1.65841387       7.99356487       8.70572031       1.49772853       0.40226762      -0.93946729
O        2.04327898       8.92195095      12.29361980      -0.55706786      -1.33895414       0.36770568
O        8.65839934       1.92726009      19.20427863       0.37424224       1.95457924       0.52398971
O        8.35584823       1.09619709      15.20366395      -1.64989032      -1.34872367      -1.27683352
O        2.90961496       4.55256453      16.70248323       0.74445636      -1.93733130       2.39308832
O        5.75626981       7.43183677      17.53227893      -1.67252200      -0.26303165      -0.19200863
O        7.62727413       5.53546975      10.88488285      -0.50895284      -0.93112664       0.97783277
O        4.55452094       3.11463460       9.75377067       1.17360127      -0.80925145       0.96603706
O        9.68892119       7.66097120      17.80405217       1.00006913       1.12940248      -0.19766420
O        2.89499718       0.14224367       2.97030999      -0.03407636      -0.61647905      -2.87413042
O        0.44964850       1.71714993       9.82475528       0.06720816       1.57486078      -0.85763976
O        7.80676354       0.06821458      17.67587933      -0.38527203      -1.98529730      -1.57756625
O        9.40306144       7.97475216      22.94933937      -0.58250687       0.72069147      -1.32514442
O        1.20279003       0.65886438      12.22600173       1.40881360       0.18720603       0.09687938
O        1.11453494       1.92553045       4.57823002       0.76046772      -3.11666284      -1.54643190
O        8.87229142       9.15798112      15.49611095      -0.79483692       0.62945921       1.05858652
O        3.50193998       4.60252053      11.63051874      -0.50906548       0.56239989       0.49977462
O        5.75163277       5.97411361       8.28625025       1.73737467       0.01124831       1.52871743
O        6.60546090       5.31891185      15.94546946      -0.27701452       0.28448801      -0.85433004
O        4.76103618       3.72897181      18.70834242      -2.12974526       1.68679057      -1.28726716
O        9.04775548       3.52098653      11.73083486       1.14433722      -0.90346102       0.95139616
O        6.43653070       1.04646049       8.77847569      -1.00449761       2.16694171       0.81948538
O        1.38050936       6.19864265      15.42933143       1.14849782       0.77838340      -0.60192209
O        3.68404365       9.01024928      18.66832949       0.04094991       0.29101036       0.78208910
O        8.49481269       3.63933441      15.86662667       0.47369078      -1.06132227       0.02010449
O        6.25202126       1.86493016      19.25121618      -1.75259947      -0.13069224      -1.07528644
O        1.67411974       6.23079333      12.23192737       0.11779835       1.77198944       0.51360564
O        4.12277330       7.88863665       8.53816432      -0.31204985       0.94513546      -1.03997724
O        7.87894664       4.83704950      13.61164039      -0.88603272      -0.13947276      -1.63835523
O        4.94973309       3.01954603       7.32542738       0.22830827      -1.28997918      -0.14921987
O        2.63037580       4.53199159      14.01605846       0.28971921      -0.83852206       1.35311385
O        5.82630691       7.64011296      20.01028976      -2.52401962       0.16277000       0.02292517
O        0.52228645       2.48534996       7.19558976       0.24392600       0.78747815      -0.78550729
O        7.64491778       9.71118408      13.36589511      -0.41770910      -0.50271162      -0.62908072
O        9.59464874       7.74793884      20.28331504       1.33324014      -0.95163954       1.75484102
O        2.81181551       0.23858458      14.23714106      -0.08996080       0.49555521      -0.26654991
80
Lattice="9.77192453 0.01751879 6.90363604 0.24348012 9.76890588 6.90363604 0.01370155 0.0133883 13.86910312" Properties=species:S:1:pos:R:3:forces:R:3 energy=-574.49624029 source_file=vasprun.xml step_index=595 time_fs=31190.0 time_ps=31.19 file_index=15 pbc="T T T"
Na       4.15481025       2.34132254      15.02262305      -0.24198077       0.04059912      -0.22526398
Na       6.29885672       4.65591667      17.26823867      -0.31091606      -0.39621175       0.72324275
Na       2.54657758       4.98517409       9.28502038      -0.42290061       0.24424988       0.26698764
Na       0.38401039       7.73385875      17.98787598       0.50991473       0.18487645       0.30917826
Na       8.39449824       0.51291703      11.30691276      -0.55097879      -0.56968241      -0.48889533
Na       8.69829945       3.44169220      20.95880531       0.28449176      -0.18175244       0.05432199
Na       6.57648861       7.72186088      10.81058122      -0.47260053       0.10627687       0.40366336
Na       3.30088622       0.07373501       7.61477940       0.24234262      -0.52319132      -0.05416782
Al       7.28511948       5.39211049       9.28687332      -1.31309558      -0.20924720      -2.29881848
Al       4.67877244       2.62826647      11.59282123      -1.64728943       0.38576996      -2.39981478
Al       3.21020115       4.48741300      18.14125454      -3.70364422       1.95670478      -1.48406399
Al       5.63691389       7.15286264      15.75771801      -0.18265871       2.28134784      -1.62346954
Al       0.33231853       2.36328809      11.36394114       1.09328973      -0.98100532       2.44277258
Al       8.21672168       9.30955367      22.40177906      -1.87130497       2.40136239       0.99008731
Al       9.79527931       7.45700792      16.02290954      -0.81437825       1.45385823       1.28483709
Al       2.01431678       0.21363927       4.63410198      -1.13797310      -1.23569366      -0.78015313
Si       3.12663431       5.82842823      15.21326869      -1.94613416      -1.06575970      -0.16899463
Si       4.19811388       7.37923468      18.61257198      -1.87240691      -1.10039450       5.44353904
Si       7.45503968       4.11463644      12.03177239       0.72671484       1.06907569      -0.53681350
Si       5.89451443       2.48352828       8.45559363       2.40832527      -2.81946560       2.81711845
Si       1.15993357       7.27657796      12.05420940      -3.12158410       0.46821275       2.16867542
Si       2.70485440       8.75521570       8.43575397       1.91994128       0.91201513       1.94501958
Si       9.38825952       2.45776416      15.26958717       0.97362741      -0.74011873       0.03499026
Si       7.46378453       0.70210875      18.74177737       0.31122665      -0.76748962       0.86091020
Si       0.43267188       2.77552833       5.22331094       1.30667420       0.48280178      -1.81713332
Si       7.61980930       9.40452751      14.57983852      -2.12759681       0.97881437       0.45163496
Si       9.89413468       6.73277992      22.09729119       1.78675532       1.32991442      -4.49092555
Si       2.74224910       0.36578451      12.55350364      -0.36067430       0.65698556      -3.97045362
Si       8.12541224       5.02402525      14.99908821       2.18258615       3.12560544       1.84190138
Si       4.58671810       2.02910146       5.55813090       0.01576417       0.08460379       0.79686832
Si       2.30107754       4.49923600      12.42162398      -4.34526576       0.68862402      -0.00828763
Si       5.60805878       7.79042507      21.41693204       1.34815168      -0.85130978       4.98137859
O        8.93268854       5.54363427      22.49604132      -0.77342617      -0.73272661       0.04817174
O        3.92871463       1.52294783      12.67365519       0.35430391      -1.83492241       1.27670716
O        1.53733473       3.66096486       4.29670900       0.63278652       0.21560282       2.06589998
O        6.20532388       8.69949068      14.85099245      -2.03288262      -1.61265256       1.21341563
O        0.82722544       3.54313477      12.59205997       1.97096722       2.01161221       0.04656630
O        6.70062530       8.94651347      21.54182908       2.12133414       1.03653019       0.44910936
O        9.58918508       5.89236189      15.34130967      -2.93513048      -2.24363100      -0.56011578
O        3.24762059       1.06311041       5.43648611       2.80372987       1.96833672       1.23231820
O        3.11190973       6.16486316      18.81290858       0.67708841      -1.09994507      -0.19259008
O        4.19061383       6.86230596      14.70144426       1.90019017       1.74451291       1.44045377
O        6.68537948       3.88942291       8.47567318       0.05129761      -0.02548441      -0.27312884
O        6.01892968       3.38134597      12.22940237       2.77730571       1.10175161       1.09896964
O        1.65917984       7.57389631       8.58584353       0.55390669      -0.01629029      -0.26491633
O        2.12661455       8.45284282      12.54787703       0.90864917       1.87134670      -0.93403818
O        8.49921699       1.90824321      18.94166382       0.76231587       0.82342679      -0.39320345
O        8.52021417       1.12409086      14.94259903       0.74466321      -0.68235411       0.51549069
O        3.64984888       4.75600210      16.33782332       0.09320397      -0.56626262       0.99340165
O        5.15969467       7.21258860      17.48622899       4.09769672      -0.99794550      -5.88037634
O        7.38566268       5.44699564      10.98418570      -0.23305861      -1.04623436       1.85366880
O        5.30574903       2.08617800       9.99447969      -0.01669234       0.36650854      -1.83035171
O        9.80644864       7.75146110      17.86818897       0.04854007       0.21025861      -1.45613810
O        2.74355889       9.68576084       9.89098335      -0.03227239      -0.71612890      -2.79382184
O        0.55785111       2.75617457       9.73956402      -0.20582974      -0.88328963      -3.41129113
O        7.81279212       9.69964736      24.25842232       0.35692058      -1.35737613      -1.63552768
O        9.42316440       8.16589342      22.72870698       0.54844330      -1.23339019       0.26108834
O        1.64783288       1.20599854      11.67465307      -0.31787802      -1.86056740       0.36662398
O        0.56909340       1.26089047       4.66621229       0.98509696      -1.17268386       0.53442302
O        8.68748475       8.76375492      15.47283683       3.49987344      -2.37259089       2.16903778
O        3.34071304       3.88661756      11.43117891       2.02538766      -1.34422766      -1.43037110
O        6.07175403       6.67574553      22.72302652       1.23484686      -0.37825542      -1.70920292
O        6.86971324       5.93983819      15.60063319       0.87966509      -1.51270451      -0.09363188
O        4.45941117       3.60243973      18.80179211       1.97772664      -2.99233263       1.16980141
O        8.75322489       3.18412094      11.42949509      -2.21755301       0.72498170       1.23508021
O        7.33335426       1.21357626       8.06269652      -2.46013058       3.73869993       0.65161583
O        1.66936468       6.53511221      15.68732135       1.14098588      -0.67743171       0.67292134
O        3.27000185       8.64545427      18.51791414      -1.25033595       4.39844604       0.93791557
O        8.26202838       3.54031127      15.66697768      -2.33494119       1.72169317       0.35290364
O        5.93357535       1.30926377      18.71492092      -1.86446690       1.03165192       1.28820599
O        1.75099032       5.88938958      11.56813535       1.84315957      -2.36051102      -0.37534049
O        4.26332732       8.16234179      22.17631076      -2.79716314       1.14854474       0.83134144
O        7.98826526       4.72913391      13.46705608      -0.61515060      -0.07903881      -2.57551918
O        4.75423730       2.20076243       7.34234330      -0.54572713      -0.19305823      -2.71278365
O        2.94062347       4.98002409      13.81801658      -0.64762855      -1.26276307       0.23544754
O        5.31921770       7.57719065      19.92553804      -1.42110490      -1.59963031      -3.70202964
O        0.38000914       2.70653355       6.88316357       0.41230736       0.87667105       0.60722639
O        7.93946004       9.28816801      13.00928514       0.03752597       0.76967456      -3.33291522
O        0.30446195       6.88421841      13.46958254      -0.76027654      -0.39443105       1.94559722
O        2.52791594       9.54955463      20.84318258      -0.67989816       0.07337120       2.55856540
80
Lattice="9.77192453 0.01751879 6.90363604 0.24348012 9.76890588 6.90363604 0.01370155 0.0133883 13.86910312" Properties=species:S:1:pos:R:3:forces:R:3 energy=-575.43813603 source_file=vasprun.xml step_index=205 time_fs=80410.0 time_ps=80.41 file_index=40 pbc="T T T"
Na       8.72445685       3.35921681      20.95219695       0.41651474       0.28994602       0.07917412
Na       7.74323789       1.39448141      10.45840481       0.25431843      -0.06320551      -0.44114508
Na       6.08033013       5.50676235      18.52499162       0.48266765      -0.79707349       0.31281755
Na       1.44245790       8.77938589      16.98397783       0.08915846       0.38801153       0.12771695
Na       3.29323043       2.38088072      16.09958291      -0.48490681      -0.05574365      -0.11237311
Na       6.35620343       2.13787894      14.13271493      -0.00748783      -0.51820504       0.51853435
Na       3.53794693       7.24766750      13.08664004       0.17159946       0.22498326      -0.39509754
Na       1.92903698       5.67708925       7.57977562      -0.37300166       0.23601317       0.36187826
Al       7.13294842       5.16819769       9.16469914      -0.56056238      -1.00776313      -2.59989667
Al       4.52796620       3.06830676      11.75206117      -1.14248980       1.70009430       0.75934946
Al       2.62599915       4.85966241      18.59592162      -0.29484811      -0.48428931      -1.30432297
Al       5.39315183       6.72492675      15.85625438      -0.41898915      -0.64586832      -1.87328852
Al       0.27548067       2.15091761      11.31646689       1.51699834       0.05358537       2.24805907
Al       7.79605079       9.35467218      23.04396108      -2.45371659      -0.46896073       1.18893448
Al       9.28675005       7.76085319      16.38931672       0.18950744      -1.03713694      -0.98689968
Al       2.09955817       0.59281498       4.66518350      -2.03163718      -2.00246774      -1.06119313
Si       2.52567081       5.56043862      15.51438776      -5.37916816      -3.29577292      -0.94758526
Si       4.12163667       7.59668130      18.79550357       1.57346267      -2.73157873       0.39802424
Si       7.35749264       4.36903258      12.11592501       0.76784480      -0.71217689       1.93565130
Si       5.43720468       2.47965156       8.65409681       0.93846981      -0.22955439      -0.33819951
Si       0.68375151       7.68974497      12.33916743       0.82215300      -2.39718347       0.46504753
Si       2.44065773       8.87485554       8.53395131      -0.13347604       0.62901018       1.38216421
Si       9.08800362       2.00773594      15.41269988       0.25182672       0.19101951      -0.50677262
Si       7.16450084       1.10035509      19.11603159       2.18883577      -2.02611612      -2.94620623
Si       0.15623727       2.87574793       5.58056047       2.71046663      -1.10335676       0.54461431
Si       6.93889907       9.23069777      14.72399069      -2.93485428       0.90865809       3.23688798
Si       9.61386395       7.07034508      22.18494738      -0.45672029      -5.57548510      -4.34739000
Si       3.02392138       0.75782606      12.78764294      -2.18665228      -1.54811367      -0.21717554
Si       8.03073771       5.14378235      15.08765809       0.57490581      -1.19810430       3.75469049
Si       4.33099523       2.41547482       5.90972976       0.86010713       1.26002568      -1.45813200
Si       1.78853275       4.64744893      12.52058610      -1.11460442      -0.24061268       1.56526673
Si       5.23977108       7.46454811      21.77765051       1.16016522       0.66006520       2.27727566
O        8.72218112       5.59978726      22.35940831       0.75722523       1.78595710      -0.82570936
O        4.16226308       1.83390861      13.14376352       0.68993568       0.45333148      -1.34699418
O        1.20675320       4.19528204       5.58954079      -0.85254587      -0.21613400       0.03631583
O        5.68333122       8.15896478      14.94909319       1.67424971       0.41247252      -0.91126252
O        0.49526600       3.73176366      12.01733450       1.15329746       1.59330585       0.11319961
O        6.29580969       8.75608547      22.32212861      -2.03246329      -2.53012992      -1.57232438
O        9.29731823       6.05285553      15.72390908      -2.03039413      -0.98735901      -1.12748827
O        3.20141726       1.30886817       5.74239710       1.02354650      -0.47315753      -0.86529633
O        2.79643732       6.65512979      18.91644364      -0.74298357      -0.92188662      -0.00438277
O        3.76663646       6.30632710      15.06555586       5.08709891       1.02550381      -0.23435365
O        6.98529365       3.23226800       8.81371977      -1.29889248       1.32345050      -1.10543363
O        6.08069299       3.49712993      12.51838429      -1.93194848       0.31615884      -0.70223468
O        0.97710177       8.15228928       8.73648424       3.61998230       0.91141333      -1.40735287
O        1.88369431       8.75556077      12.34911594       0.58733733       1.26986351      -0.36733542
O        8.64282741       1.83986540      19.16210081      -2.19307224      -0.65956708       1.28716357
O        7.93515376       0.85946016      15.12120803       1.90685831       2.44708445      -1.33286908
O        2.38237973       4.54199738      16.78796051       1.09516052       0.76453947       0.78204593
O        4.92473911       6.99003780      17.44429435      -0.89878077       1.41012642       3.10117284
O        7.38290734       5.17925489      10.79313484      -0.12343977       1.21087366       2.05289859
O        4.69256175       2.93704250      10.01099525      -0.28159035      -1.04476512       0.97838606
O        9.36779687       7.74089919      18.10442162      -1.34170428       0.81272634      -1.27181115
O        2.35068795       0.21012113       2.87085836       0.68553086       0.46580494       0.65299705
O        0.44337724       1.43907539       9.76921817      -2.54198988       1.25988567      -3.02409477
O        7.11828735       0.51190367      17.58130729      -0.10065353      -0.59858488       0.96514112
O        9.07842858       8.19683574      23.02808073      -0.86927690       3.02292852       3.57767055
O        1.68531863       1.41402663      12.13089910       1.61309476      -1.25272290      -0.24124664
O        0.71096279       1.67861695       4.58811568      -0.35353274       0.64332142       0.28039034
O        8.26614585       8.94346748      15.57302151      -0.43459171      -0.35666177       0.60263797
O        3.26540755       4.37442990      11.98260862       1.48212129      -1.48916944      -0.44599128
O        5.68988666       6.00759151       8.56950324       0.56139678       0.52229966      -0.28697490
O        6.63297771       5.42279671      15.95600219      -0.34465149       1.21455629      -0.52622252
O        4.05782667       3.85421538      18.96857315      -0.12124422       0.07973770      -0.52724035
O        8.38041199       3.05326026      11.97358398       0.87935567       0.64049149       0.14405263
O        6.00235958       0.87949458       8.57985454      -0.35738425       0.61355933      -0.03652541
O        1.41984737       6.77018513      15.50398018      -0.02124115       1.25346911       1.95826509
O        3.90208793       9.15613660      18.82559721      -0.60077015       2.34865291      -0.48180748
O        8.13883999       3.44604756      15.46356000       1.15561219      -0.15058852       0.50764610
O        5.94388369       2.05305873      19.37956977      -2.71571556       2.14229031       0.52199877
O        1.50464069       6.19425593      12.17057758      -0.32398083       2.08545136      -0.17196270
O        3.68466308       7.76073536       8.57240162       0.32106484      -0.38940457      -0.85769422
O        7.79688578       5.17899825      13.51936712      -0.00547381       0.46381061      -2.33554565
O        4.22913254       2.85598998       7.43099133       2.68985266      -0.18344924       3.80276696
O        1.82068105       4.65313236      14.25089104       0.75448153      -0.78495072      -0.55604199
O        5.07560929       7.05632094      20.13740366      -0.16383499       1.44862800      -0.41641807
O        0.20850221       2.29815036       7.15853095       0.00610145       0.12382642      -0.43664433
O        7.13257507       9.65883382      13.23661480       1.05192265      -0.23928079      -1.82393124
O        9.59965702       7.60648795      20.60848120      -0.50031093      -0.05027728       1.07899936
O        2.77757968       9.72677559      21.01394569      -0.60571139      -0.19478239       1.19020683
80
Lattice="9.77192453 0.01751879 6.90363604 0.24348012 9.76890588 6.90363604 0.01370155 0.0133883 13.86910312" Properties=species:S:1:pos:R:3:forces:R:3 energy=-575.72870107 source_file=vasprun.xml step_index=390 time_fs=62780.0 time_ps=62.78 file_index=31 pbc="T T T"
Na       8.62896021       2.33595064      21.33253986       0.32981024       0.46452959       1.13019485
Na       7.65145530       5.97363267      18.30865237      -0.11870081       0.16200217      -0.32416346
Na       8.83318148       7.74968167      24.93256803       0.01287695      -0.58087303       0.12067219
Na       2.88192631       9.11819813      14.19779061       0.23304423      -0.43243873       0.17869117
Na       6.42106455       0.08478067      11.58317329      -0.13036180       0.22275961       0.19638565
Na       5.50908261       2.64008291      15.79492908      -0.23586664       0.06290265       0.20557775
Na       2.40829664       3.61790996       7.55896580       0.24344022       0.07361696      -0.03492238
Na       3.69059527       6.65719599      10.46126742       0.08168478      -0.57601819       0.60177060
Al       7.26313472       5.48036468       9.06352577      -2.30309582      -1.15908885       1.48451346
Al       4.28082124       2.56385900      10.98957637       1.05593269       0.56050843       1.89879817
Al       2.91024259       4.39191667      18.32842846      -0.31522630       0.00373160       0.03819455
Al       5.32215044       7.11319488      16.11667016      -0.10428652      -1.15439624       0.21040524
Al       0.26558616       1.96975912      11.48764914       1.06390687      -0.38000192       1.03791900
Al       7.58472219       0.09416612      15.79628107       1.82948157      -0.19688458      -0.50203710
Al       9.38282551       7.84705421      15.53517185       2.56354329       1.29746435       0.86581607
Al       2.02640227       0.42152327       4.50356942      -1.42219547       0.55258914      -1.85523276
Si       2.63161894       5.73754366      15.27491495      -0.33991381       0.35420453       3.24020785
Si       4.39634658       6.94214567      19.28201633      -2.43850028      -1.03290517      -2.59585700
Si       7.15945829       4.09174776      11.83566789       0.01160645      -0.46943374       5.31815168
Si       5.60044069       2.67154272       8.24586917      -3.68559818      -0.45993549      -2.76286846
Si       0.79263145       7.26534302      11.72482848      -0.24685212       2.37135015       0.64930602
Si       2.51835632       9.09581607       8.27136258       0.16880631      -0.13278140       1.84436013
Si       8.99487143       2.74222093      15.35754254       0.16370994      -1.27929981      -0.04644221
Si       7.36759745       0.63157092      18.96046055      -3.08190682      -0.48718878      -0.66643054
Si       0.26567917       2.75461934       5.54671006      -0.61167069       1.46754318       1.84987380
Si       6.93471826       9.30237888      14.64070521      -1.97853114       1.79877780       1.83028483
Si       9.61141269       7.20901627      21.61783083       0.32180748       0.46293238      -0.83108593
Si       3.01066379       0.11897102      12.41434212      -2.57869628      -0.31816792      -2.13771275
Si       7.69082317       5.49921958      14.79125342      -1.97392302      -2.69073859      -1.75711639
Si       4.49605875       2.05410453       5.39558328       1.19103607       0.98203101      -2.28213120
Si       1.96316342       4.44680535      12.57442359       1.28761611      -3.04311408      -2.80174824
Si       5.37233982       7.82746490      22.11899063       1.87022289       1.96391265      -2.23215595
O        8.67710610       5.99546369      22.18196616       1.32494700       0.48596539      -0.87268728
O        4.27054691       0.84350109      11.66997260       0.16156198       0.96569842      -0.20670982
O        1.42199306       3.86876139       5.29915449      -0.26836874      -0.26973332       0.78809813
O        5.56816778       8.67129121      15.39127456       2.49391940       0.51570855      -0.54626583
O        0.76465690       3.31284305      12.47404710       0.67268308       2.11388110       0.90491772
O        6.41045731       9.18414048      22.15124757      -3.86006292      -2.18533466      -1.07813093
O        8.60824403       6.71718938      14.58606218       1.48400440       1.40243681      -1.75017224
O        3.39220755       0.85662095       5.56888393      -0.18083241      -0.32566332      -0.15318981
O        3.51921959       5.53017157      19.54097624       1.28260961       1.84507271      -0.48464209
O        3.95883417       6.66995391      15.14087165      -0.66702022      -0.72444732       0.30566952
O        6.59225527       3.91170887       8.28511586       1.65289194       0.91789907       0.98893903
O        5.94250878       3.01651474      11.97294409      -1.07997435      -0.28217312      -3.04553331
O        1.25737460       8.08718454       7.91027658       0.66430907       1.25887143       0.77212836
O        1.85899884       8.53961964      11.83977882      -0.14457536      -1.92028644       0.73693099
O        8.62388828       1.51504966      19.47109863      -0.29272170      -1.05550716      -1.40537761
O        7.63252094       1.81190178      15.30873621      -0.00103817      -0.47687209      -0.27628251
O        2.44204637       4.85512811      16.74180088       0.20037936       2.28471682      -3.31028525
O        5.26237497       6.93498338      17.86187996       0.37422710      -0.10227726       1.03062160
O        7.52680163       5.28702518      10.86274612      -0.31577432       0.43940720      -2.30912285
O        4.24238536       2.68612327       9.19260385       1.29140429      -0.17875445       1.43234173
O        9.63792708       7.40514284      17.33082667      -1.08723124       0.23205432      -1.81760788
O        2.15652320       0.29341310       2.71263820       0.16836981      -0.64514863      -0.60716071
O        9.68567283       2.37141435      16.76026423       0.49253987      -0.10629103       0.42844781
O        7.83095448       9.68775777      24.41597758       0.88598266      -0.19021742       1.71444773
O        9.11567958       8.64015003      22.21004685       0.16007552       0.12473245       0.15002379
O        1.62271328       0.90203839      11.80792610       1.36161229      -1.80899057      -0.06678150
O        0.55737471       1.45797019       4.76488297       1.69181015      -3.25321097      -1.41322966
O        8.47416541       9.32131327      15.12569893      -0.22583761      -0.28366304       1.59443045
O        3.34451565       3.90761110      11.61775319      -2.39488770       0.88976549       0.94613987
O        5.94809506       6.68305984       9.19489253       0.53903417      -1.29912871       0.23850763
O        6.67384907       5.99551459      15.94075236      -0.54761687      -0.58887670       0.35257337
O        4.08917670       3.10033362      18.02128092      -0.22239503      -0.70117828       0.84004026
O        8.50076744       3.21749949      12.14583579       1.15439299      -0.50973088      -0.49211545
O        6.21639137       1.18033688       8.00903580       1.08662476       0.64904498       0.08265026
O        1.45993826       6.93146517      15.02976274      -0.77658281      -0.17895360       0.38691626
O        3.37866071       8.21244902      18.94248842      -0.71331338       1.96304211       1.12849981
O        8.64072539       4.31045280      15.35930289       0.52769204      -0.48258286       0.77343955
O        6.02392372       1.61883768      18.62676104       0.12644980      -0.75514075       1.47595247
O        1.39117874       5.79416512      11.83776793       2.04609707      -0.93862827      -0.66722842
O        3.81020659       7.95563637       8.74858728      -0.86265690       1.49747036      -1.11724636
O        7.01500423       4.78618605      13.45138515      -0.20319559       1.14451778      -0.24259496
O        4.61870652       2.94093159       6.74731897       1.22872572      -0.52218326       1.56120051
O        2.55521502       4.71265756      14.04626277      -0.36351863      -0.65934581      -0.36745063
O        5.39880764       7.31695946      20.45016238       1.20364578       0.80655511       2.97512260
O        0.32320866       2.28390814       7.26039157      -0.39314132       1.38904953      -0.77385711
O        6.99378739       9.07370617      13.05559665       0.82738591       1.62569904      -2.74347162
O        9.57567913       7.19801027      19.92643082      -1.46647852       0.59645152       1.47251425
O        2.88557725       0.33983639      14.03435246       0.12129915      -1.11301160       0.76751715
80
Lattice="9.77192453 0.01751879 6.90363604 0.24348012 9.76890588 6.90363604 0.01370155 0.0133883 13.86910312" Properties=species:S:1:pos:R:3:forces:R:3 energy=-576.72917511 source_file=vasprun.xml step_index=720 time_fs=67440.0 time_ps=67.44 file_index=33 pbc="T T T"
Na       8.14492355       0.29383814      13.67492551       0.02325003      -0.28033784      -1.39463717
Na       1.83601566       2.21480196      15.79930304      -0.02311792       0.67600748       0.51409092
Na       4.27330188       5.92277134      10.34375659       0.44523820       0.28483722      -0.47946165
Na       1.23142702       9.35031239      17.01769489       0.27346774      -0.46370170       0.17158876
Na       8.20559940       4.03851268      20.50471838       0.43030357      -0.00866037      -0.43540054
Na       6.06246134       3.54438128      17.09954109       0.08820429       0.68762491      -0.84346742
Na       1.61220846       5.93631575       7.59430486      -0.32156303       0.24367053      -0.07705833
Na       3.71121785       9.45437051      14.12360598       0.48846076      -1.04090294       0.89450824
Al       7.58569820       5.32279250       9.15183175       0.12765407       1.22958158       0.29610882
Al       4.76728572       3.27462870      11.81430552       2.21490505       1.26388579      -1.91495105
Al       3.02763341       4.77439179      18.82081469       0.59715654       0.02123356      -3.17133618
Al       5.64373763       7.18508286      15.98537379      -0.06349427      -0.91709048      -2.73125376
Al       0.78969828       2.35608577      11.46940204       1.17841897       0.40384967      -0.50501804
Al       7.95177314       9.63033449      23.16811758       0.10020413      -0.80010075       1.68948066
Al       9.63484675       8.06743833      16.29019759      -1.71330575       1.30846131      -0.59332557
Al       2.73529465       0.72250958       4.73108170      -1.69702068       1.24562740      -1.97214170
Si       2.73339654       5.95172832      15.71220676      -0.46795002      -1.01153062       2.24021014
Si       4.76553094       7.51984809      19.02261764       0.82784503       1.39800696      -2.26428175
Si       7.88607490       4.46530700      12.08621929      -1.32557633      -1.33808174      -0.82814762
Si       5.79986567       2.79148487       8.68278821       0.74399110       2.26063949       0.77089169
Si       1.09612514       7.88647480      12.25275401      -0.60670126       1.80606081      -0.85974361
Si       2.88369905       9.19585527       8.58176698       1.43745042      -0.94215240       2.81430289
Si       9.55597505       2.44897511      15.35694316      -0.09823563       5.75135450      -1.67673989
Si       7.59556659       1.28410614      19.12759371       1.79503875      -0.90800213       2.42302154
Si       0.65002366       3.10636269       5.45681342       0.08315399       0.25568121       0.81533727
Si       6.81663289       0.01706928       8.16610752       1.49656753      -1.74402407       0.71206210
Si       9.74619220       7.24063664      21.98683239       1.76526104      -0.20820259       3.18775092
Si       3.05462758       0.69080387      12.66238790       2.57156375      -2.43471983       0.89509531
Si       8.11015542       5.47240410      14.98088928       2.01585593      -1.53253209       1.59389304
Si       5.00085864       2.48465346       5.77351071      -2.79754648       0.17081552      -0.53182543
Si       2.34275878       4.94641023      12.79509750      -1.02929183       0.75811473      -2.01817449
Si       5.70134547       7.68958771      21.85221541       0.68253883      -0.61705839       3.59137339
O        8.77277579       6.02281760      21.71599031      -1.17185740      -1.76701376       0.71170245
O        4.29192809       1.76139813      12.46361472      -1.66566284      -0.93678531       0.63918264
O        1.42665556       4.51485982       5.73035821       1.40474294       0.81631989       0.34679919
O        6.06250967       8.54482888      14.92719747      -0.93607250      -0.43610421      -0.04325234
O        1.31712607       3.71561881      12.41842869       0.63362666       0.91292692       0.20875080
O        6.78683562       8.92044012      22.04565259      -0.53162809       1.17323976       0.54604390
O        9.33173147       6.48078476      15.43814280      -0.41217185       1.29854526       0.83145654
O        4.13370965       1.02732552       5.71422539       1.70234389       1.69563297       0.03030909
O        4.01353948       6.14949008      19.22499242      -2.01531395      -0.90480606       0.26611199
O        3.96554920       6.91748702      15.43572435       0.64849590       0.29854989      -0.19649936
O        7.16531432       3.73414132       8.61545589       0.18440820      -0.75919307      -0.95968274
O        6.40223261       3.74762321      12.36369442       0.85875260       0.13169753      -0.36549260
O        1.53479719       8.34010661       8.85895021       0.24065091       0.30370028      -0.56587638
O        2.14867580       9.22623934      12.48545672      -0.60643513      -2.23773260      -0.65516710
O        9.05535907       2.06545623      19.03106749      -2.98335301      -0.97259891       1.11956851
O        8.54591014       1.32451138      15.61869836      -3.21178438      -3.71148617      -0.11839172
O        2.80336715       4.94357467      17.00501169       0.14576365       0.11394381      -0.41985276
O        5.60083185       7.67996496      17.56080373      -0.76733966      -0.13252868       4.10246282
O        7.99500651       5.46265202      10.83939660      -0.24820957       0.34442562      -0.74636903
O        4.94083908       3.38072467       9.87336027      -1.63951563       0.23681592       2.93129757
O        9.61739128       8.22593625      18.05822821       2.09034155      -0.88655483       1.14491470
O        3.02545536       0.50874317       2.95929664      -0.41795486      -1.60405505      -0.66361735
O        0.71592043       2.45643483       9.72748585       1.91386186      -0.12965873       0.48205586
O        7.30078520       0.24490284      17.99883498       0.17858189      -1.33675891      -2.96248508
O        9.23128082       8.38178571      23.03098199      -0.83215688       0.97226681       0.10445041
O        1.78480066       0.89020095      11.73622535      -0.80003866       0.84474017      -0.25486424
O        1.54021300       2.11724982       4.66263177       2.69422383      -2.25384611      -1.99573974
O        8.39748830       9.42225852      15.83515078       2.57031664      -2.18471625       1.10437938
O        3.79066668       4.74844159      12.10363087       0.02018952      -0.96234190       0.36980298
O        6.22656320       6.41115230       8.97397886      -1.74324594       1.59866670      -1.32051857
O        6.63085499       5.65960141      15.54477163      -1.21340967       1.43535616       0.97199662
O        4.31048623       3.52996392      18.55478149      -0.02633457      -0.77899387       1.67920130
O        9.03232408       3.25774939      11.58813694      -1.98949524       1.17629755       0.99567309
O        6.18799466       1.27394171       8.90783481      -1.31528590       0.27059544       0.85019488
O        1.38189153       6.79807948      15.97494582      -1.90410074       1.59065557      -0.88718559
O        3.84933640       8.88962435      19.15845342      -0.63486815       1.13129355       0.45973084
O        8.63062184       3.96862664      15.50465706       0.81159012      -2.23199171       0.27429118
O        6.54026830       2.51956988      19.02662039      -0.30408518       0.64682274       0.34777500
O        1.85105304       6.43793516      11.95401834       0.09885238      -0.68678108       1.27038078
O        4.03930634       7.87077664       8.48041818       0.36026468       1.67870608      -0.29538030
O        8.31615972       5.28707825      13.42540270      -0.03038417       0.15423770      -2.39470459
O        4.93439093       3.08678231       7.30269422       0.22516090      -0.70887168      -0.90156186
O        2.32343507       5.08249701      14.39390821       0.13252908      -0.83970220      -0.75233341
O        5.73158567       7.43993049      20.31383859       1.19689073       0.00143896      -1.42162819
O        0.47064722       2.32634249       6.88096770      -1.32548837      -0.47135559       3.80670744
O        7.25266831       0.57153944       6.75009211       0.92336966       1.75063422      -4.06465281
O        0.40128236       7.97049191      13.75136817       0.08020432       0.38067950      -1.54798927
O        2.60489416       0.53943628      14.34803056       0.35213162       0.43096183      -2.38726068
80
Lattice="9.77192453 0.01751879 6.90363604 0.24348012 9.76890588 6.90363604 0.01370155 0.0133883 13.86910312" Properties=species:S:1:pos:R:3:forces:R:3 energy=-574.10189169 source_file=vasprun.xml step_index=405 time_fs=46810.0 time_ps=46.81 file_index=23 pbc="T T T"
Na       7.53113915       7.32561688      18.37696503      -0.41843345       0.14907617       0.27631911
Na       3.85379916       2.49201139      15.26061453      -0.07949538       0.15897958       0.26585848
Na       5.41704786       6.17087092      11.96687651       0.22469139      -0.29956707      -0.14886172
Na       3.17441074       8.56169724      14.18563199       0.32795415       0.52827065      -0.12734218
Na       8.87600861       3.78380539      20.71544200      -0.00883600      -0.04536170       0.16309652
Na       9.62478249       0.26829617      10.29530932      -0.22973107       0.98982187       0.40363857
Na       0.37512272       8.36836376      18.29944676      -0.46819726       0.03524469       0.07934537
Na       2.43670402       3.10369428       8.80919687       1.04571652       0.11814683      -0.17666394
Al       7.30052801       5.45593082       9.05178173       0.11222886      -0.14069013       1.53331689
Al       4.85807283       2.93254302      11.28435086      -2.57810139      -1.94782473       0.84594689
Al       3.11266363       4.61075090      18.39957059       0.05437192      -0.94784456      -1.36451893
Al       5.60536405       7.41621248      15.79487192       0.28507591       2.14708794       2.38735000
Al       0.52700726       2.12344052      11.67157070       0.06047571       0.94640729      -0.61675697
Al       7.92900936       9.67628055      23.00335258      -1.16153129       0.40658016       0.00265266
Al       9.63162096       7.68210198      15.74699834       0.34399389       0.58733893      -0.13146475
Al       2.36753545       0.42636097       4.62690035       2.79403783       0.57587221      -0.18021440
Si       2.85873707       5.74652475      15.37480182      -0.21602300      -3.71355871       0.92331592
Si       4.45649745       7.67711120      18.91860632       1.78875271      -4.25771480       0.00586855
Si       7.65227123       4.10754786      11.95462879      -1.28910059      -1.98181342       0.68125500
Si       5.93626559       2.64918519       8.43321146      -4.16699356      -0.81737875       0.62145377
Si       0.87990488       7.48269992      12.00873423       1.61928448      -3.78808178      -0.07821008
Si       2.61430526       9.29347109       8.44457122       4.14811871       0.97564629      -2.78863259
Si       9.32602898       2.88657242      15.67671520      -0.61519862      -1.10493901       0.95961581
Si       7.52015580       0.85291917      19.11218127       0.60309523      -2.32771021      -1.35683210
Si       0.75480650       2.87655241       5.70540872      -3.53475557       0.13556407       0.47188988
Si       7.49792058       9.61330555      14.86712814      -3.46525525       1.46466634      -0.07035910
Si       9.72328836       7.07997223      21.87209329      -3.30089803      -2.11681643      -1.35316192
Si       2.76939128       0.50448526      12.55645448       0.30454150       4.53408839       1.23925556
Si       7.85244936       5.47731168      14.83791716       2.01696819      -2.48815011      -2.43543722
Si       4.66147835       2.08784160       5.67510863      -0.87096542       0.26552559      -0.96883111
Si       2.41673061       4.46257547      12.48844007       2.95767788       3.89452944       0.52007417
Si       5.55630269       7.91667601      21.78401174      -1.18254407       3.72066494      -1.99904244
O        8.91488949       5.63183983      22.10646923      -0.52386685       1.22410373       0.27292869
O        3.97633465       1.53533158      12.03398796      -1.86037152      -0.39724119       0.83665276
O        1.74914287       4.07634898       5.51376526      -0.01690435       0.80297001      -0.25050887
O        6.04198544       8.82863423      14.75620592       0.14309156      -1.02965911       0.68351471
O        1.28570039       3.44291380      12.72351251      -2.52799635      -3.54154783      -0.53931932
O        6.17734375       9.38061561      22.22851952       3.04454978      -0.02519771       0.60357651
O        9.05133789       6.60931015      14.58359715      -0.62233136      -2.18582968      -0.13094697
O        3.67550481       0.77021751       5.79824129      -0.80487675      -0.07677840       0.21774677
O        3.83424335       6.08244685      18.76743337       0.69171886       3.65485668       0.90101967
O        4.17921709       6.64516205      15.32807893      -1.61197618       1.33786201      -0.64462427
O        6.88192046       3.86167153       8.35881532       2.24114870       3.77349077       0.73106617
O        6.35431155       3.13818128      11.92553616       1.66845936      -0.18238747       0.07006592
O        1.29792114       8.42997646       8.30579699       0.50820521       0.37605189       0.33150613
O        2.03664175       8.66783618      12.11111562      -1.54678675      -2.43796505       0.19681645
O        8.63842766       2.01852287      19.14368117       0.16944151       1.06943751      -0.12534299
O        8.36904621       1.59500019      15.86581361      -0.00571374      -1.88731007      -0.32915563
O        2.96690511       4.51638580      16.58423914      -1.27955367       2.82757912      -1.17278986
O        5.37061411       8.05774489      17.67842654       1.44469158      -0.94987365      -4.60051738
O        7.52058417       5.28455992      10.94374442      -0.40859872       2.35023665      -4.66651614
O        4.80154513       2.47984949       9.64439075       0.56456528       0.76581161      -2.41469549
O        9.80441170       7.53315685      17.49072384       0.17736965       0.00437836       2.14907288
O        2.77893392       0.43615205       2.84118361      -1.39597160      -0.84574559       1.81198170
O        0.66242344       2.97715114      10.04699203      -0.87547761      -0.85894471      -0.20093945
O        7.91822338       9.48733185      24.80345984       0.58411899       0.74885190      -0.19646041
O        9.06908820       8.28846923      22.60730417      -0.60308901       1.95985032       1.20905231
O        1.25819913       0.49310067      11.81208933       0.55070805       1.81843111       0.21728943
O        1.06197109       1.37627484       5.15349821      -1.09448815       1.36810152      -0.24491929
O        8.55168599       9.05450840      15.85482578       0.54927190      -1.00812978       2.14203318
O        3.78264599       4.31369950      11.54948239      -1.15023945       0.19447783       0.43572632
O        6.08911495       6.83381282      22.81788653       1.00659203      -2.53463080       0.00794774
O        6.75313264       6.16787007      15.67485970      -1.27887680       0.85110160       1.55015492
O        4.00517118       3.13717880      18.46918316       1.60518245      -1.43709172       0.87860170
O        8.95987987       3.20182628      11.85028490       3.15491271      -0.81249990       1.00747995
O        6.85735249       1.37870200       8.52164171       1.62071132      -2.47224243      -0.84718905
O        1.45379163       6.78409749      15.25171422       5.37969496      -1.16279581       1.16268481
O        3.44535051       8.84395158      19.08375869      -1.45433883      -1.98774504       0.03551333
O        8.23235642       4.09733058      15.75659352       0.57093939       1.95135215      -1.14102561
O        5.97668937       1.33448659      18.91590153       1.40008782       0.59251861       0.77062457
O        1.69684658       5.86687281      11.95240447      -0.77548618       2.67172736       0.30710263
O        3.95254572       8.34311090      21.69550990      -2.22154531      -0.12255742       2.14323293
O        7.31332284       4.88682500      13.30468552       0.83202668       2.30734432       4.67998813
O        5.01593458       2.91960484       7.05726050      -0.33150640      -1.32732761      -0.26257575
O        3.08744331       4.72186416      14.06514724      -1.14326346       0.67987897      -0.95497898
O        5.67562736       7.74734557      20.03760728       0.89309861      -1.13008620       2.70833799
O        0.49178968       2.86277791       7.39737520       0.14148826      -0.19940432      -0.48223626
O        8.27881721       9.67788338      13.48196719      -0.84504783       0.97217134      -2.14813510
O        9.61345994       7.33349807      20.24444120       0.72340748       1.00546743      -2.73065900
O        2.51458733       0.89429510      14.27675009      -0.36237064      -2.34720298      -1.54586428
80
Lattice="9.77192453 0.01751879 6.90363604 0.24348012 9.76890588 6.90363604 0.01370155 0.0133883 13.86910312" Properties=species:S:1:pos:R:3:forces:R:3 energy=-574.33327957 source_file=vasprun.xml step_index=785 time_fs=77570.0 time_ps=77.57 file_index=38 pbc="T T T"
Na       9.02142018       4.40899481      20.52342385      -0.41354852      -0.03978489       0.07965494
Na       8.09781493       1.72846547       9.91209408       0.09247965       0.56923308       0.30166312
Na       6.28065516       3.91205376      17.37532948      -0.47758115      -0.52738512       0.59093641
Na       1.86609163       0.13687245       7.58646828       0.06599097       0.73896878       0.94649788
Na       2.52342342       2.38249289      15.21749480       0.40876740      -0.72873751       0.83627480
Na       6.79804895       0.92283995      13.49328514      -0.96143395      -0.22041900      -0.16345621
Na       5.10763534       7.58774466      13.16828671      -0.22835931       0.05017576      -0.52726292
Na       1.04308992       6.37412922       7.07706082       0.22972177      -0.50616819      -0.30589743
Al       6.88924346       5.30214787       9.31840316      -1.77197067      -0.36295656       0.75527039
Al       4.39748441       2.99357563      11.98786925       0.42967536       0.72090187      -1.67696284
Al       2.77924601       4.50578875      18.59219154       0.43057839       1.20918068      -1.31919679
Al       5.31894329       7.03527031      16.09640809      -1.59825427      -2.45453124       2.87959143
Al       0.31796216       1.97069274      11.59825008       2.33150690      -0.89297768      -1.51728352
Al       7.59496619       9.63520128      23.18769083      -0.96792712      -1.21779613      -3.74381827
Al       9.21391741       8.02468941      16.14638170       2.23313156      -1.37805218       1.52221252
Al       2.09222449       0.29777917       4.74579281       1.12085011       1.08981473      -0.46133463
Si       2.50735926       5.47708974      15.39908525       0.00884563       0.96658918       3.61712259
Si       4.34032656       7.39403051      19.12095774       0.80257706      -0.99568493       1.78864188
Si       7.12155551       4.05075542      12.38684281       1.73926918       2.24480199      -1.96950661
Si       5.18249433       2.56241187       8.93903082       1.65390097       0.34705863      -4.53683637
Si       0.66777691       7.55699046      12.42197115      -2.76378923      -2.45291736      -2.67258045
Si       2.40132602       8.94357086       8.46759512       1.04612393       2.71563050       2.65367585
Si       8.94598459       2.38832098      15.68014532       1.08265797      -0.14363977      -0.13449294
Si       7.15696851       0.79421208      19.15605570       1.25220141       1.67744994       1.31745272
Si       0.31310106       2.90967267       5.83527570       0.13200768       0.23441707      -1.04687410
Si       6.91185034       9.52345552      15.11438604       0.35524294       1.00948446      -0.94435271
Si       9.42905149       6.95403591      22.21203344      -2.71175249      -0.13076150       2.30821002
Si       2.77578493       0.45656104      12.76014126       4.01906559      -0.04514865      -1.05310010
Si       7.68029204       5.35114205      15.18574443       4.29690370      -2.16650313       0.50876605
Si       4.45684180       2.05980022       5.82657957      -0.06816405       0.24696230       1.99105759
Si       2.06324480       4.59449172      12.64465589      -0.39022937       1.87571608      -1.31157586
Si       5.43907185       7.87665470      21.85392519      -3.09248577       2.34919914      -0.57681634
O        8.55367354       5.49572656      22.67032741       1.56247159       2.28370175      -1.22176164
O        4.08746477       1.50030196      12.72286178      -1.69503947      -1.37873737       1.72693236
O        1.29511170       4.25874270       5.62546528      -1.86038449      -0.95387492       0.67590067
O        5.85261990       8.30602542      15.17392398       1.09342441       0.70358485      -0.77254247
O        0.94262937       3.57590682      12.14012989      -0.95518166      -0.93508473      -0.29364468
O        6.02212602       9.32675163      22.15301538       2.97873869       0.69950647       1.50745041
O        8.78904263       6.52863871      15.26196775      -0.73208027       0.53865743       0.28700958
O        3.71453652       0.62178691       5.72934599      -1.75001647      -1.28871589      -1.34367271
O        3.48390110       5.96481326      19.30656929       0.09023224       1.64557691      -0.19842148
O        3.82628543       6.45984639      15.30575387      -0.66181980      -0.03881049      -1.22374948
O        6.40376446       3.73539788       8.66329241      -1.10938118      -2.27736914       0.42014715
O        6.01643562       3.02554815      12.70673258      -1.48715758      -1.50960388       0.72638842
O        1.10743963       8.03434714       8.59650112      -0.56137555      -0.06324032      -0.65437796
O        1.56886275       8.84383302      12.69509512       0.66402448      -0.38963806      -0.16959666
O        8.62896304       1.70861949      19.36931854      -1.99915112      -1.37600320      -0.47605642
O        7.72484059       1.34505216      15.42080789       0.02385559       1.12758387      -0.11664289
O        2.82405607       4.50502447      16.72598078      -1.19902059       0.68585132      -0.04957531
O        5.24482686       7.42601183      17.83751228       0.75279102      -0.87854037      -3.76350313
O        6.65527810       4.94846203      11.12100882       0.58657837       0.93422252      -0.43159462
O        4.30044311       2.72595626      10.19549941      -0.53293310       0.35877728       2.04323246
O        9.47288474       7.72722324      17.89570094       0.96123364       0.39345138       1.76757417
O        2.34955135       0.13237468       3.01885538      -1.00399304      -0.45040186      -1.01203458
O        0.13685177       1.53521975       9.82897333      -0.96050693       2.15888189       0.70181321
O        6.98875496       9.75695799      24.71532600       0.50628414       0.48572230       3.10059481
O        8.69990404       8.34940458      22.76097180       1.20669339      -1.63843447       0.19488623
O        1.81730624       0.98668367      11.70523514      -3.80625496       1.54617301      -1.84407672
O        0.98623516       1.61379398       5.12210680      -0.32146210       0.55898580      -0.85508441
O        8.42243098       9.52912959      15.79005269      -1.12407329      -0.76916881       0.36208747
O        3.60801495       4.59632965      12.24301553       0.49107845      -1.31402874      -0.46369861
O        5.75748979       6.47610739       8.56120162       1.94993154      -2.59908559       2.68323639
O        6.32943686       5.52118132      15.88483652      -3.19364539       1.91419397       1.22893710
O        3.85251129       3.20049385      18.73914971       0.88370197      -0.80563480       0.23865441
O        8.51090019       3.25978354      12.05918655       2.92685130      -2.03957552      -0.29985993
O        5.91415892       1.02131435       8.86041791       0.66428709       0.95385282       0.88661263
O        1.18910226       6.62533855      15.70082263       2.62753415      -1.60768868       0.01133374
O        3.59100034       8.79137496      19.26262819      -1.75558197      -0.47456940      -0.68757663
O        8.26479808       3.94541435      16.17160797       1.02415661      -1.09864603      -1.76871844
O        6.08551709       2.06630082      19.29502672      -0.01791806      -0.48564408      -0.11189176
O        1.44287475       6.09499929      12.22683225       0.93935204      -0.07694049       0.68287270
O        3.78989683       8.23243813       8.38493810       1.05111188      -2.03347034      -0.58021896
O        7.69427142       4.85062222      13.67201908      -0.50724084       0.96121431       0.16955242
O        4.30775023       2.32649036       7.48265914       0.32249223       1.06802277       0.34626359
O        2.14902003       4.25639020      14.28136337      -0.64365669       2.34530359       0.67573175
O        5.49139140       7.74051219      20.26740430       0.15132641      -1.37017430      -1.37641929
O        0.21614698       2.27619007       7.36766075      -1.66637914       1.67464800       1.21718846
O        7.30073906       9.53254487      13.50664800      -0.60463102       0.55149653      -0.93869102
O        9.48808284       7.12171130      20.62885420      -0.29708224       0.55673968      -2.43832835
O        2.06985782       0.30419556      14.16594497      -1.26664425      -0.09424828       3.29224603
80
Lattice="9.77192453 0.01751879 6.90363604 0.24348012 9.76890588 6.90363604 0.01370155 0.0133883 13.86910312" Properties=species:S:1:pos:R:3:forces:R:3 energy=-574.52109135 source_file=vasprun.xml step_index=470 time_fs=40940.0 time_ps=40.94 file_index=20 pbc="T T T"
Na       8.76664403       1.56566968      10.14289038      -0.25984267      -0.44098089      -0.04235321
Na       2.63451845       2.56794831      15.52475266       0.00201539      -0.58650996       0.05522386
Na       5.68470397       6.91002390      11.12973597       0.11360222       0.31765068       0.23967897
Na       2.50263060       9.10942373      16.14976393      -0.49468701      -0.21412437       0.00880100
Na       8.33144829       5.84962569      19.64021264      -0.59606437       0.09892850      -0.23663077
Na       5.97772763       3.66865087      17.07248574       1.53918206       0.73000264      -1.63602758
Na       1.03996156       6.32767235       6.43039135       0.63895391       0.14651882      -0.34012759
Na       3.05603199       3.08609011       8.65570381      -0.54295266       0.08879119      -0.12846723
Al       7.37348059       5.38168983       9.05558670      -2.65254661      -1.67248350      -0.58125550
Al       4.80296842       2.76777657      11.45228685       1.69998555       0.71122764      -2.25548098
Al       3.16663299       4.67841248      18.25194513      -0.41301977      -0.31111504       0.32800728
Al       5.38819169       7.00765874      15.92788750       1.70930401      -0.04469858      -2.80583094
Al       0.73323683       1.63582128      11.41538519      -0.87476053      -0.39248892      -1.67741706
Al       7.80094486       9.55860978      22.75778682       1.20942842      -2.52310704      -1.41036846
Al       9.70172214       7.90724546      15.78366619       1.47633826       0.67186670      -0.24982866
Al       2.60564682       0.23985779       4.55955372       0.06479638       3.98712474      -2.30029657
Si       2.57522485       5.68807857      15.21138090       2.39709688       0.23723561       2.58954097
Si       4.51052681       7.16033844      19.03159495       2.14223171      -4.38785930      -1.13386013
Si       7.53085865       4.33141161      11.91833813       2.54874042      -2.03658331      -0.29563991
Si       5.89648887       2.60201438       8.32138039      -2.19814196      -0.39819183      -0.06623703
Si       1.11663194       7.44264794      11.82387425       1.86695262      -1.64953420       1.36454962
Si       2.91363852       9.18484409      22.11061168       2.46073606       1.76601168       0.39995316
Si       9.27171646       2.41256363      15.34863136      -1.32001853      -0.98527701       0.12695818
Si       7.47769905       0.48785333      18.69779514       1.09014443       0.30778905       1.46457283
Si       0.69089308       2.83270005       5.44288523      -3.14945582      -3.87933345      -2.24382948
Si       7.13712706       9.53816898      14.76844548       0.94442096      -3.29563645       0.49092749
Si       9.67394564       7.13681450      21.82361849       3.90175420       6.55969075       1.10535267
Si       3.38349503       0.36488154      12.36048958       0.55446693       1.39118064       1.79856741
Si       8.11255513       5.32915589      14.88603631       0.47018940       1.26051349      -2.05874626
Si       5.12582169       2.24674496       5.37664368      -1.02941366       1.22587177       0.51682429
Si       2.21383001       4.35921220      12.40027616      -0.74962705      -0.41153134      -1.84718837
Si       5.55875354       7.50305234      21.73365870       0.47150309       1.53362934      -0.63539017
O        8.58001199       6.10490111      21.99299163      -1.75241167      -2.66369480      -1.47042667
O        4.67593315       1.28605789      12.14483621      -0.90786010      -1.94072502       0.76856132
O        1.82487629       3.88232855       5.26130860       0.83965993       1.34252037       0.76234752
O        5.93670552       8.50491571      15.10133122      -0.42197172      -0.53049815       1.18996145
O        1.13610873       3.02003949      12.33079129       1.19130570       3.63668769       1.14133342
O        6.51838875       8.84223744      21.81565453      -0.38392644      -0.88422377      -0.14595082
O        9.45645527       6.30302655      15.04763780      -1.17508862      -0.01575798      -0.31983734
O        4.12579694       1.05958300       5.31918698      -3.00410408      -3.92456285      -1.20776964
O        3.17241158       6.22269004      19.27684047       0.53932613      -0.82168247      -1.36094818
O        3.77722960       6.77833445      15.22906709       0.63905020       0.24015516      -0.00302923
O        6.67226722       3.93214677       8.22003881       3.46956011       2.45912979       0.70976773
O        6.39667345       3.24193481      11.85969348       0.18585821       0.34311990       0.71985041
O        1.62849458       8.31849386       8.19267568      -5.45715859      -1.79173838      -0.12556026
O        2.31943011       8.52040034      11.92756417      -0.23981383      -1.90390402       0.84430968
O        9.06933807       0.81592632      18.79841881      -0.59240772       0.23890148       0.29935553
O        8.07264995       1.31838760      15.45244805       0.11088874       2.34096953      -0.76490649
O        2.69244747       4.64373387      16.51007891       0.72133413      -0.11197475      -0.08427814
O        5.22949303       6.58625766      17.53225385      -1.59918509       0.98622429       4.53252206
O        7.42753195       5.38287280      10.74242696       0.50069889       0.67319588      -0.03786361
O        4.95352801       2.54268210       9.64354833      -0.93526589       0.14177710      -0.20197262
O        9.90724117       7.67578311      17.50597320      -0.60532669      -0.25114586       0.22546991
O        2.75602091       0.27004373       2.72630645       0.81004998       0.02612586       0.07204967
O        0.52259862       1.98550292       9.63071783       1.03718261       1.11875473       0.41562561
O        7.43163864       9.24792417      24.38686501      -1.37635146       0.44892308       1.93836067
O        9.40160758       8.59108320      22.67587180      -0.00322187      -2.13883134      -1.83621109
O        2.17762411       0.64394222      11.32393941       0.10857913      -0.71961940      -0.24316501
O        0.95041347       1.40044810       4.35591744       1.43095422       1.73986929       2.93773703
O        8.54379573       9.22217881      15.57055744       0.51629610      -1.19078373      -0.31910172
O        3.59160813       3.88728280      11.74904817      -0.53861154       0.52111540      -0.55094492
O        5.96207862       6.38476345       8.99371046      -1.44828332       1.44691613      -1.00911440
O        6.84403481       5.73989850      15.71312581      -2.60635401       1.53603818       0.52566819
O        4.45542230       3.45124267      18.39513058      -0.56695894       1.66645618      -0.67697189
O        9.00179098       3.43912602      11.61740724       0.33228472       0.08269133       1.12914309
O        6.76011460       1.22956254       8.39880477      -0.56224486       3.13461452       0.36575637
O        1.28185026       6.50157287      15.57396779      -2.01288122       1.09150882      -0.07458342
O        4.17024683       8.64387311      19.19704847      -0.65655540       1.27970175      -1.27602105
O        8.45564541       3.89344790      15.47028664       1.70378241      -2.75035582       0.34520690
O        6.66219531       2.06528247      18.59755983       0.00219121      -1.67993716       0.65597509
O        1.90012645       5.85106734      11.72004979      -2.04416656       0.93178689      -0.37320775
O        3.97892037       7.98779783      21.82072069       1.90055685      -0.94116643       0.70857704
O        7.73062001       5.25987639      13.20086767       0.62255291       0.59398888       2.96825421
O        4.93851020       2.79114900       6.90644877       1.10713600      -0.83084225       2.16909345
O        2.66849171       4.90535719      13.84150044      -0.61649102      -1.66559311       1.11959297
O        5.70886389       6.85126558      20.16039678      -0.16386873      -0.10578923       0.49378097
O        0.34889650       2.27007954       7.01566508       0.61691838       1.23488590      -0.89109637
O        7.23435590       9.47943075      13.16901887       0.33554581       0.91017886      -2.53420564
O        0.35627032       7.48729835      13.32719188      -1.08217721      -1.04178528      -0.34248198
O        2.96414630       0.55012462      13.97807449      -0.99969038      -0.06552412       0.25568290
80
Lattice="9.77192453 0.01751879 6.90363604 0.24348012 9.76890588 6.90363604 0.01370155 0.0133883 13.86910312" Properties=species:S:1:pos:R:3:forces:R:3 energy=-576.79336111 source_file=vasprun.xml step_index=625 time_fs=35250.0 time_ps=35.25 file_index=17 pbc="T T T"
Na       8.65498786       1.56987854       9.95439928      -0.01785721      -0.41375709       0.27059766
Na       6.42224093       4.72167734      17.65658333      -0.07165836      -0.25501590      -0.12973292
Na       4.08441843       5.27076496       9.85987711      -0.21373803       0.78654610      -0.97223247
Na       1.42810448       9.44340449      16.24114632       0.04144222      -0.14340315       0.17596195
Na       5.20786064       1.61914078      14.52955926       0.17234719      -0.19155009      -0.12262925
Na       9.24564063       3.59828440      20.89054405      -0.11946392       0.08596117      -0.26084904
Na       1.10187617       6.16015710       6.27914406       0.34336946       0.04803555       0.09081636
Na       4.42866228       8.54307144      13.31028903       0.38216459       0.03775377       0.12432498
Al       7.26879643       5.27842002      22.58206730       0.07989251       0.48954810      -0.20122374
Al       4.93159440       3.01309653      11.48794218       1.05242596      -1.41894282      -0.69849622
Al       3.05055706       4.51450603      18.15290717      -0.53913580      -0.87130776       0.90266468
Al       5.39760144       6.80709223      15.58564729      -0.65513272      -1.03411375       1.61813333
Al       0.66717929       2.08153789      11.28297324      -1.65098919      -2.76038688       0.10883854
Al       7.83318339       9.34088456      22.86994833       1.32649720      -0.67016582      -0.69340052
Al       9.66557154       7.77975981      15.91182960       0.38987891       0.75609750      -0.59000888
Al       2.48656878       0.29189253       4.39611892       0.52798421       0.44021434      -0.07004740
Si       2.54772883       5.53718943      15.21918737       0.85586644      -0.08487104       1.43368820
Si       4.53314631       7.17451977      18.74290701      -1.65575119      -3.31200690      -0.96039843
Si       7.64838048       4.24638480      11.66675844       1.51643751      -2.16359725       1.95464443
Si       5.72142243       2.73282176       8.27271984       3.29871067      -1.22685941       3.59534359
Si       1.31746341       7.45628442      11.84552963       0.06114270      -0.45731554      -1.56265467
Si       2.88998917       8.98118060      22.03155185      -0.59042014      -3.69447772       1.93135447
Si       9.30338689       2.50487910      15.37069044      -1.73945540      -0.60234709      -2.55903341
Si       7.46425677       0.46186689      18.95438718       0.27152230       2.58599900       0.46458439
Si       0.66548003       2.74377029       5.35089555      -3.37724826      -2.25286681      -0.40825185
Si       7.15982949       9.47360375      15.01260073      -2.22476431      -0.07275287      -2.74339434
Si       9.84325519       6.97480888      21.70363254      -3.12844557       0.84789153      -0.11078158
Si       3.14417358       0.34082948      12.30479945      -1.88981036      -0.66406441      -1.31229889
Si       7.97327147       5.25253747      14.54883074      -1.81659250      -1.00025063       0.69239899
Si       4.81454648       2.20476176       5.60158093       0.24245302       0.31563884      -2.63907607
Si       2.27295848       4.48198172      12.26018305       1.95100797       4.36693179       0.23947679
Si       5.56072883       7.36670064      21.54337629      -1.05033077       2.98580400       0.31217450
O        8.59904957       5.91524735      21.62034445      -0.30895908      -0.49898166       0.27621903
O        4.16857618       1.53633932      12.06264940       1.04424951       0.38588008       1.30677675
O        1.70051632       3.85557007       5.32993319       3.16064179       2.99874139      -0.62700305
O        5.91376220       8.35715515      15.17107658       0.98219721       2.64387724      -0.06976366
O        1.06646533       3.51257816      12.05520141      -0.40456829       0.14914768       0.93472249
O        6.50942843       8.66048284      21.89701535      -0.18640156       0.10107154       0.36289466
O        8.97779401       6.34195455      15.01867433       3.40151535       2.56332475       0.90296936
O        3.83689252       0.95009340       5.46774557      -1.42756354      -1.27587980      -0.71925437
O        3.22539330       6.05978295      18.85598026       1.12806345       2.50535729       0.99262589
O        3.75096630       6.59874703      14.90873840       0.54399150      -0.13475028      -0.23351786
O        7.01210652       3.70056303       8.06373539       0.27084358      -0.54660899      -0.98160224
O        6.65614086       2.95693069      12.05956425      -1.21994131       1.52654620      -0.07114901
O        1.43755974       8.15915551       8.17150824      -0.32967731      -0.08754293      -0.00297460
O        2.58906064       8.49963568      12.14698137      -1.55170879      -0.43398288      -0.61972302
O        8.92543315       1.35721765      19.02026525      -0.25551553      -0.39969590      -0.59596475
O        8.29843368       1.11825610      15.45194047       0.97906006       1.75681557       0.39479525
O        2.66454276       4.56139020      16.48918553       0.93127580      -0.65138303      -0.45498039
O        5.20749887       6.63581332      17.34789335       0.38397309       0.67002276       0.69183073
O        7.32841558       5.10104453      10.41917309      -0.72935726       1.31213804      -1.25158483
O        5.04132296       2.93681295       9.73930577      -0.41781496       0.47987999      -0.79654419
O        9.96595260       8.11086365      17.63337982       1.54528133      -1.66502915       1.63120022
O        3.17065921       9.76171043       9.56083772       0.02352414       0.14633085       0.20445735
O        0.56868889       2.78400556       9.68463244      -0.70439506      -1.42406813      -1.20928000
O        7.46110969       9.31330405      24.57086715       0.39190872      -0.18721401      -0.48530959
O        9.30692002       8.33600957      22.46403194       0.44818294      -0.35007049      -0.48358120
O        1.83085060       0.73353980      11.34444417       0.23459892      -0.13402312       0.30496015
O        1.03839856       1.30290902       4.62571101      -0.06477319       0.77359303      -0.19376018
O        8.52856635       9.16523849      15.68421931       1.75096739      -1.10229714       0.93001604
O        3.85699963       4.37849032      11.74743398      -1.11524175      -1.21688745       1.37317082
O        5.68686640       5.98388704       8.39121976       1.19859429      -1.49466345       1.95231209
O        6.64179727       5.60599325      15.40068380      -1.54132365      -0.17642407      -0.62216021
O        4.40994232       3.45551224      18.46929806       0.91835696      -0.28863504       0.14118381
O        9.09830100       3.46950871      11.32542920       0.78817674      -1.10911000       1.06934129
O        6.75432248       1.33070105       8.46816730      -1.90133063      -0.59350512      -0.30018699
O        1.21433399       6.33933490      15.68658537       0.94554521       0.45091912       0.95058636
O        3.91955319       8.63924481      18.64590123      -0.67053578       2.45388889       0.25384579
O        8.24558888       3.77699677      15.22648371       0.50231261      -0.51055407      -0.10421821
O        6.32740745       1.72297574      18.90581881      -0.37101792       0.76055733       0.74928630
O        2.02117515       6.01843981      11.17942116      -0.69211735      -1.08118270       2.58566184
O        3.95805747       7.64518174      21.65987640      -2.25446636       3.00622462       1.81610812
O        7.82947384       5.34615037      12.90372040       0.18614534      -0.85938759       0.59130875
O        4.64062258       2.77067367       7.14023699      -0.46592526      -0.42051120      -1.11698707
O        2.24852949       4.54876595      13.97146282      -0.01272114      -0.07736854      -2.52589713
O        5.53420562       7.06730439      20.00383481       1.55296138      -0.59676885      -3.64010323
O        0.25534294       2.50151638       6.91834965      -0.47317407      -0.54208773       1.60872766
O        7.20140295       9.37643527      13.30909042       0.83040474       0.08401070       0.62169951
O        0.69788387       6.95391689      13.29862630      -0.00242755       1.09986141      -1.22657104
O        2.64397755       0.22839941      13.90081811       1.16603957       1.54601989      -2.18617614
80
Lattice="9.77192453 0.01751879 6.90363604 0.24348012 9.76890588 6.90363604 0.01370155 0.0133883 13.86910312" Properties=species:S:1:pos:R:3:forces:R:3 energy=-576.73737056 source_file=vasprun.xml step_index=95 time_fs=74190.0 time_ps=74.19 file_index=37 pbc="T T T"
Na       8.60394164       3.37132298      20.68266485      -0.07062337       0.12827957      -0.02109896
Na       8.57132538       1.33140298      10.24362020      -0.00760438      -0.18502479       0.03589021
Na       6.85247619       6.26671121      18.32089824       0.69372729      -0.01346493       0.28383618
Na       5.27443785       7.65615604      11.33035182       0.40326312       0.02460715       0.02048624
Na       3.59497330       2.60630546      15.85141645      -0.54919860      -0.14492689      -0.02825611
Na       6.52887089       1.23497294      14.11477665      -0.33316012       0.86947158      -1.22036936
Na       2.87277384       1.99165275       9.05215071      -0.73986259      -0.10316607      -0.03224621
Na       1.23754208       6.40822016       6.86329003       0.18365927      -0.30532089      -0.41704553
Al       7.11708339       5.43568075       9.30120113      -0.31089327      -0.61867041       0.44727907
Al       4.59368892       2.65868969      11.65072395      -0.46177342       1.82115625      -0.99124170
Al       2.81279308       4.22341342      18.39391634      -2.30679000       3.17580311       0.44625457
Al       5.41041905       7.06409171      15.81220138      -1.60694190      -0.79738276       1.43297062
Al       0.63119248       2.23660300      11.33001976      -0.81855738      -0.92160061       0.76013751
Al       7.70861430       9.26434027      22.96361340       1.53100911       0.11284722       2.67126461
Al       9.56786892       7.80376641      16.16957743       0.45683093      -1.33374452      -2.66322757
Al       2.02333245       0.30400705       4.75640477      -0.07332186       2.13327239      -2.74597363
Si       2.64168819       5.62099306      15.36910556      -0.69754202       2.99252323       2.31874309
Si       3.95481179       7.13450627      18.92331816       2.30780491       0.88664140      -0.48828959
Si       7.28445602       4.37599014      12.21460198      -0.07237755      -1.95109424       1.55787183
Si       5.69412617       2.58911918       8.45745392      -0.48332193      -3.92864636       3.49763076
Si       0.91027149       7.21276742      12.11209365      -4.21310573       3.89005708       1.87477802
Si       2.55784588       9.24240762       8.53483892      -0.70750275       0.80038247       1.29243794
Si       9.03751382       2.33468720      15.58960955       0.96976664       1.85267367      -1.40661616
Si       7.45756163       0.65995255      18.96300232       0.77431504       0.62832018       0.93964405
Si       0.20629307       2.77360100       5.63266743       3.24277201      -0.97984734      -0.07497291
Si       7.28919330       9.41566731      14.96361942      -0.65976572      -0.90718237      -0.45067072
Si       9.51718695       6.75306408      21.90853298      -1.73105614       0.66077954      -1.59468323
Si       2.92083397       0.27833035      12.52944343      -1.84708355       1.36412756      -1.12660427
Si       7.89183241       5.29695711      15.19032517       2.00557682      -1.79320879       0.17990697
Si       4.64896857       1.94559413       5.65741718      -0.17271917      -1.55059819      -1.19641663
Si       2.08806621       4.49108924      12.69370606       2.49475915      -1.77083075      -2.28384579
Si       5.25380083       7.88084061      21.96593100       1.84410373      -1.67221118      -1.54612264
O        8.54883689       5.41118062      22.15149712       1.33936333       0.19974162       0.07679446
O        4.25903433       1.24116742      12.58654390       0.01836087      -0.96129939      -0.53393494
O        1.31734537       3.97339978       5.44898156      -0.37967441      -1.03054784       0.45724978
O        6.12212631       8.29214038      14.87499215      -0.40236583       1.34335566       0.05525693
O        0.78567449       3.60177345      12.52386731      -1.66077826      -1.00460402      -0.35419384
O        6.31760427       9.20433954      22.04058625      -3.94714749      -1.64969362      -1.38203295
O        9.31282326       6.19589854      15.16992529      -1.68624936       0.30096934       0.85640365
O        3.69162740       0.56313565       5.19870624       2.04566253       2.22554110       1.45812748
O        3.10584081       5.81555784      19.12133397      -0.32433266       0.70469985       1.05006631
O        3.90677384       6.57669169      15.04741594      -0.00896209      -0.37045538       0.21471373
O        6.49035942       3.88543072       8.53533536       2.15386331       2.77231935      -0.50074276
O        6.05836198       3.26062263      12.38402117       0.67055164       0.60560485      -0.22637097
O        1.21942544       8.35692444       8.35941660      -0.35990840      -0.58104515       0.05460697
O        1.56645434       8.70403285      12.23322728       0.14000800      -2.76324360       0.72586485
O        8.82944715       1.58628367      18.86072360      -0.84259356      -0.31423234      -0.37587347
O        8.11340227       1.06284962      15.71057311      -0.49389355      -0.42238837       0.03691822
O        2.59016138       4.79184327      16.75785886       0.65583900      -1.41201225      -0.44546670
O        4.96289830       7.03593762      17.63455737       0.10862693       0.32246028      -0.66027841
O        7.19069339       5.58591931      11.17864723      -0.05041016      -0.70446482      -2.38177227
O        4.83436691       2.58914622       9.89241120       0.14230643      -1.10547897      -0.90149539
O        9.70740316       7.31807754      17.73793541       0.38073576      -1.24412511       1.41092918
O        2.14395891       0.55434072       2.87451690       1.07059990      -1.22155269      -0.51952076
O        0.59901030       2.49322598       9.55247232       0.98389034      -0.40588428       2.00538377
O        7.30389902       9.29705498      24.72642532       0.03349570       1.15799934       0.34558696
O        8.61728776       7.95621728      22.47676544       1.27269895      -0.68053892       0.80534449
O        1.67586890       0.84955374      11.55332600       1.81514511       0.71523305       1.02970813
O        0.67789634       1.48353630       4.66307838      -0.43905777       1.31288128       1.70276858
O        8.24919606       8.91493371      16.19292764       0.28008060       0.89295568      -0.65537039
O        3.18550702       3.80838980      11.61176614      -0.08897817       0.08720896       1.60877982
O        5.91174185       6.64073016       9.08090835      -1.53960731       2.29665726      -1.68577119
O        6.65855329       5.85841055      16.02319936       0.21984868       0.05818288       0.81763078
O        4.10616950       3.25334652      18.73947389       1.13612569      -1.55473140       0.01926302
O        8.60259032       3.30118926      12.01108664      -3.70761259       1.80641671      -1.87070431
O        6.75350609       1.20026220       8.46325788      -0.63986537       2.17067405       0.70343891
O        1.26963844       6.65591680      15.48824033       1.67353417      -1.35326790      -0.06872228
O        3.21209757       8.57504771      18.72605079      -0.25312248      -0.10335455       0.97814133
O        8.14780453       3.68317954      15.85905051      -0.61968971       1.89561440      -0.94295659
O        6.30348154       1.99892214      19.17036715       0.01686176      -2.57898751      -0.19737339
O        1.86593707       6.00626158      12.22249215       1.98992712      -0.98398579      -0.18711288
O        3.81599621       8.14779760       8.81876404      -0.66839411       0.94608681      -0.08909814
O        7.36776764       5.08549943      13.67605075       0.36494399       0.00377319      -0.42673990
O        4.67188892       2.14226960       7.30583496      -1.74716620       0.26688892      -1.03235245
O        2.59154941       4.49101231      14.24713736      -0.29698581      -1.46954293      -1.17651496
O        4.94965567       7.43162819      20.26790555       0.77605124       0.33324719       2.64044437
O        9.67995528       2.30464759      14.05432168       0.11138836      -0.11047147       0.29017676
O        7.82655711       9.48577537      13.42475380       0.23913276       0.95682704      -1.25420621
O        9.49913876       7.11790334      20.27958024       1.32742857      -0.85238360      -0.96241067
O        2.55517559       0.40129379      14.15107390       0.14992396      -0.84871361       0.04542772
80
Lattice="9.77192453 0.01751879 6.90363604 0.24348012 9.76890588 6.90363604 0.01370155 0.0133883 13.86910312" Properties=species:S:1:pos:R:3:forces:R:3 energy=-573.70535335 source_file=vasprun.xml step_index=475 time_fs=12950.0 time_ps=12.95 file_index=6 pbc="T T T"
Na       8.40309837       5.62601293      17.72941324      -0.07016273       0.38415211      -0.06075155
Na       8.31978067       0.77412874      12.77862535      -0.00630105       0.15097420      -0.45926001
Na       1.51631037       9.38531701      16.75005064       0.00016969      -0.28888546       0.37925448
Na       8.48119609       7.58950660      12.99047354      -0.23883539       0.71003196      -0.71339764
Na       9.11375755       2.76284422      21.15556367       0.16684053       0.01424321       0.13419673
Na       3.86808642       2.48747015      16.00804142      -0.04632734       0.06041914      -0.33798924
Na       3.68912908       5.04694191       8.36716521       0.25654833       0.58245447       0.19809970
Na       3.95280781       9.10264694      13.99344912       0.21529713      -0.26938570      -0.34090487
Al       7.58237559       5.48915759      22.64678290      -0.60228468       0.91567769      -2.85478205
Al       4.90144305       3.17955427      11.29986728       1.19574312      -0.64249836      -0.76905831
Al       3.00317912       4.88203029      18.42440193       0.66069293      -0.12097997      -0.44330201
Al       5.78828214       7.30242134      15.99306302       1.54339076      -1.17056261      -2.11065046
Al       0.90726441       2.13815996      11.40374147      -0.04378542       2.62658007       1.09157144
Al       7.99620521       0.04925968      15.85944340      -0.09848971      -2.75945389       2.51839547
Al       9.82766477       8.28406946      15.79804579       0.50290623      -0.69924123      -0.53668961
Al       2.47814237       0.59463494       4.47257964       0.48561666      -1.88575637      -1.78066883
Si       3.02700237       5.88017109      15.29540244      -2.11841327      -0.17192200       0.69551394
Si       4.85820644       7.48528238      18.91314266       0.93693856       3.20814210      -1.62160377
Si       7.78686951       4.23454296      11.75679692      -2.50818491      -0.81758772       2.43874138
Si       6.01934149       3.03041902       8.16611557       1.69161209      -3.55915559       2.62237303
Si       1.23426602       7.65844143      11.97131482       1.75452465      -0.58853769      -3.31210873
Si       2.85277481       9.30924656      22.10212548       8.61332190       2.13143681       2.07169155
Si       9.56593210       2.53016046      15.37376399       0.60750908       1.96933840      -1.20731070
Si       7.70233124       1.06268122      18.70989102      -1.82737311      -3.25439475      -0.46010973
Si       0.70304053       2.93750125       5.62387986       0.28624365      -5.31694324      -2.61742476
Si       7.14220909       0.19464073       7.93028759      -0.21562780      -3.02252873      -0.79449063
Si       0.21912474       7.31485992      14.59487675      -3.19285615      -0.64827795       0.72066948
Si       3.38867152       0.59464627      12.38618323       0.45108036      -2.80239796       0.00811009
Si       8.27352257       5.51426795      14.74406133      -2.84477398      -2.50272914      -0.49336180
Si       4.85098918       2.29233262       5.27048643       0.11579314       0.53333890       0.27944486
Si       2.75560346       4.89972055      12.52864537      -1.33106361      -4.57111675      -1.25452737
Si       5.83459397       7.94761239      21.84547770      -6.40449946      -2.37478898      -1.40563941
O        8.87583521       6.10027109      21.59798921       1.32565682       0.37001294       0.90392204
O        4.53395720       1.55710644      11.90413883       0.00239020       1.56120447      -1.45983077
O        1.65192617       4.17625790       5.59126672       1.76333962       2.06588918      -0.78388418
O        6.41347494       8.66843777      15.06362327      -1.22399163       0.24387437      -0.26924269
O        1.66275888       3.67349065      12.01163410      -0.19422983      -0.19285964       0.51131084
O        6.85940637       8.92846116      22.33467911       1.40921088       3.68203649       0.84182118
O        9.13852338       6.74226157      15.01046838       3.35894410       4.61354948       0.51742173
O        3.83446783       1.02763808       5.44656102       1.07791771       0.75805842       0.36676785
O        3.92974582       6.25603474      19.20808307      -1.86548519      -2.96218220      -0.53097814
O        4.16678368       6.99983173      15.34050290       1.19454868       0.13409986       0.29205557
O        7.28086394       3.93002883       7.90005512       0.97476101       1.50642173       0.00140975
O        6.45086352       3.25338838      12.14290301       2.23686651       1.60728413      -1.24301390
O        1.42956111       8.90309221       7.90346548      -4.10809270      -1.85377609      -0.74519133
O        2.27612181       8.84405827      12.12158531       1.18448841      -0.68420954       0.97537168
O        8.97115076       1.96246450      18.88351353       1.59490625       2.43543587       0.94471295
O        8.22081133       1.60571342      15.27116343       0.51016035       1.67662919      -0.68119331
O        2.56365137       5.05714558      16.64551230       0.98862112       0.41779247       0.73984199
O        5.97771140       7.49158450      17.65314611      -0.81252641      -1.01056745       2.15930234
O        7.66497379       5.04523675      10.37864561       0.87732404      -0.23593478       2.50924029
O        4.95104554       3.27713515       9.31399136      -0.72582791       0.73553646       2.20509519
O        0.59280300       7.69964290      10.46208836      -0.62397301      -0.25121259       0.04337407
O        2.80916818       0.50824886       2.71117346      -0.36263830      -0.35467594      -0.60374144
O        0.82199088       2.09295560       9.65900245      -0.67110424       0.07164240      -0.32159052
O        8.51984559       9.63648030      24.55239472      -1.51817284       1.75008020       0.44805599
O        9.41835229       8.60470492      22.37253972       2.33703277      -0.30601985      -0.88484883
O        1.84290761       0.89466237      12.05385473      -0.37575270      -0.92623375      -0.91023770
O        1.05263202       1.38555840       4.68885713      -2.26042627       5.02958978       1.88444418
O        8.75179151       9.61379280      15.55060101       2.07396672      -1.33883806       0.22971436
O        4.10444906       4.63762478      11.76620173       0.81512050       0.12481849      -1.36194300
O        6.13063954       6.48959452      22.37639327       0.58929248      -1.97059940       0.52575044
O        6.87944932       5.83340696      15.50397263      -0.89897468       0.05307101       1.18279283
O        4.19473357       3.54594897      18.26990445       0.34329768      -1.00672114       0.57642444
O        9.02193683       3.11064183      11.77322473      -0.38369498       1.44196422       0.87776563
O        6.90672113       1.51698704       8.71416180      -2.90750431       4.56237134      -0.68679766
O        1.75058160       6.99086300      15.03062508      -0.04211738      -0.27662211      -0.27976097
O        3.89543677       8.79638671      18.52286158      -0.91718430       1.51100734       0.69958414
O        9.19967575       4.26033805      15.28243738       0.14318392      -3.13707264       0.88424762
O        6.22796548       1.79557733      18.33161029       1.01100696       0.25859584      -0.08810482
O        1.94383379       6.16120981      12.16404016      -1.29127647       3.50239178      -0.34702596
O        4.01403849       8.03282855       8.52507689       0.76985298       1.01155573      -1.32065303
O        7.88506824       5.36684544      13.14099221       0.83882485      -1.20073868      -2.15171389
O        5.25921424       2.77481219       6.82280871      -1.55576534      -0.54591447      -3.05669281
O        3.17102442       4.72585707      14.09663316      -0.48197589       1.11950393       1.87515398
O        5.67167912       7.98523675      20.19954421       1.17085681      -0.00063895       1.23040451
O        0.72307529       2.20026826       7.10160798      -1.29558222       0.83725943       0.86086443
O        7.22497976       0.20908315       6.23482686       0.78167616       0.63914075       0.40266952
O        9.81492685       7.75081960      19.90160905      -1.16276301       0.34231068       1.50231144
O        3.50916431       0.60189775      14.01634925      -1.60679550      -1.62494355       1.93375285
80
Lattice="9.77192453 0.01751879 6.90363604 0.24348012 9.76890588 6.90363604 0.01370155 0.0133883 13.86910312" Properties=species:S:1:pos:R:3:forces:R:3 energy=-573.85589037 source_file=vasprun.xml step_index=235 time_fs=68470.0 time_ps=68.47 file_index=34 pbc="T T T"
Na       8.37131819       4.59912608      18.23972879      -0.05975410      -0.16659160       0.31398969
Na       8.64299737       1.63495119       9.87092189      -0.17452086      -0.12033013       0.38179522
Na       3.72842243       4.76067623       8.05261429      -0.06505928       0.47968865      -0.25531274
Na       4.38554398       8.01485680      13.04540757      -0.27112940       0.07658550       0.22258085
Na       2.65879411       2.51641778      16.24789567       0.24667859       0.04199779      -0.23473628
Na       6.21125451       1.53560309      13.82281937      -0.17720990      -0.37124819      -0.31618872
Na       1.79996737       9.23482309      16.40236940      -0.45122072       0.01182493       0.14838761
Na       9.50449878       7.96350804      12.83176436       0.19039694       0.26120958      -0.01379845
Al       6.87683075       5.51071166       9.23146423       0.15089674      -1.50424953      -0.28829807
Al       4.57278684       2.87767362      11.35672878       0.21153486      -1.46804963       2.65971655
Al       3.10574032       4.59265657      18.59139394      -0.53157744       0.09166774       1.46330562
Al       5.32923702       7.07610484      16.11782759      -0.50801914       0.02739410      -0.29380764
Al       0.38364533       2.07516067      11.72655243      -1.94245159      -0.76637309       0.91564790
Al       7.95377887       9.51233653      22.93209790      -1.41441407       0.14256846       0.87426989
Al       9.42575495       7.50962169      15.99596160       0.41335648       0.07482717       1.16949790
Al       1.73658054       0.24757744       4.79609380       0.99831844       2.33448213      -1.18142760
Si       2.62348796       5.65304050      15.45593104       0.40723745       0.28531673       1.61020615
Si       4.36793703       7.44019352      19.15987633      -0.29675148      -0.39790044       3.59555937
Si       7.39707020       4.16017340      12.11688783      -0.44869409      -2.05647694      -0.59491333
Si       5.39154093       2.63148768       8.55818183      -0.33538851      -4.48830883       1.82561940
Si       0.82952387       6.96902406      12.04286416       1.41880201       2.33615929       1.72415889
Si       2.44154227       9.10883888       8.37138555      -0.82563215       2.67773874       3.46627207
Si       9.03435744       2.41063235      15.69801657       2.78641276      -1.23534085      -2.75242177
Si       7.43810176       0.77918264      19.05965844      -0.21699215       2.82576237       1.43780901
Si       0.46677967       3.02787187       5.99341130       2.63657516       0.45274404      -3.06258349
Si       7.15800402       9.46058003      15.17894282      -0.24221755       1.91454640      -2.12767540
Si       9.40347422       6.81084070      21.81108260       3.46109424       4.07583449       0.96555735
Si       2.95440477       0.28614937      12.62718650      -2.13651756       2.56535177       0.22862792
Si       7.43239813       4.97639056      15.34550595       4.01072803       1.11424688      -3.73222492
Si       4.41037029       1.86315520       5.55859158       1.31297662      -2.63899665       1.02891094
Si       2.18483740       4.47948920      12.76956752       2.63005623      -1.87027269       1.10440764
Si       5.23724576       7.95974482      22.21513304      -0.04120468       1.08858538      -1.91585876
O        8.52098914       5.72448341      22.41310728      -2.92268778      -2.32205654       0.98410363
O        4.39934435       1.03789305      12.34379092      -1.81877432       0.76465386      -0.82951219
O        1.51528314       4.21235455       5.47339160       0.42252150      -0.87350078       0.93452886
O        5.96516511       8.42144983      15.05081454      -1.29427461      -1.78704487      -0.09485554
O        0.97728948       3.38434786      12.66463523       0.41144795       2.25966361      -0.10769277
O        6.25658694       9.16045947      22.33054790       2.79672630       1.35224917       1.14133178
O        8.65985874       6.14011903      15.30999222      -1.30020039      -0.53593262      -0.56226378
O        3.40000338       0.54773135       5.47768460      -0.05066304       0.60877193       0.35165512
O        3.95549345       5.93313693      19.31945978      -1.50310675      -2.61562070       0.56374615
O        3.87791641       6.66361316      15.12009940       0.22731613       0.54996927       0.61192886
O        6.27455854       3.91327679       8.63156725       0.64191188       1.21078148      -0.16045705
O        6.27155522       2.96768725      11.71812292       0.92161816       0.13480692       1.70628277
O        1.01817853       8.17740835       8.10126846       1.78591012       0.61448931       0.22697456
O        1.47202264       8.48959749      12.10201334      -1.04136010      -2.49794206       0.15277414
O        8.28041542       2.22502878      19.11107295       1.25816844      -0.82490643       0.04427343
O        8.04579515       1.22761367      15.15151280       0.31007861       0.32013235       0.52017410
O        2.77582240       5.04959719      17.02119396      -0.70498936       0.49865158      -4.12405612
O        5.13740096       7.55964542      17.82317086       1.31797944       0.98276438      -2.96338079
O        7.03857251       5.11587088      10.89367396       1.09612980       1.78992774       1.08419029
O        4.23254555       2.46331128       9.79447118       0.81591334       0.33346308      -4.35247488
O        0.17847865       6.55440308      10.64102345      -0.36501734       0.61212294      -0.55451056
O        1.91692163       0.37530764       2.89200019      -1.07279754      -0.63408515      -0.14940976
O        0.20941367       2.08803081      10.03850059       0.20086783       0.09161158      -1.32754246
O        8.30791759       9.73509804      24.75042358      -0.50698583      -1.62061705      -1.59150682
O        9.06523668       8.30016484      22.55290079       1.11159939      -2.03362693      -1.39403988
O        1.38229407       0.66515826      11.89387645       2.74998466      -0.59137325       0.66416697
O        0.73962413       1.49599437       5.57570677       0.88830052      -1.41561032      -2.48761476
O        8.25994883       8.91845566      16.17124301       2.36514185      -0.90971007       0.88286728
O        3.44614716       4.10121953      11.80886190      -0.15214841      -0.49549964       0.42571020
O        5.49068365       6.53468772       8.94354858       1.32494486      -2.40064536       1.84969278
O        6.18581404       5.49539913      16.10868596      -1.26834588       0.70215466       0.78441975
O        4.06653399       3.12700250      18.57761275      -0.78726623       1.16368778      -1.61537273
O        8.89784489       3.46794145      12.18838293      -2.88756008       0.54011423      -2.58880105
O        6.31752856       1.10873125       8.89406824       0.13828151       1.83647424      -1.14052653
O        1.26961324       6.66614352      15.42284014      -0.00808150      -1.10849053      -0.39462545
O        3.03412119       8.45076958      19.34959953       1.02507528      -0.99719843      -0.88783875
O        8.14013153       3.66072793      16.01880923      -2.12145027       2.24584088       1.10729525
O        5.82210734       1.14635612       4.96265929       0.11942462       0.03762982       0.94353283
O        2.19085618       6.10155382      12.56097243      -2.21449094       0.17656436      -0.76659341
O        3.87121528       8.50217129       9.00183234      -2.92295036      -0.38308638      -0.74064432
O        7.40870109       4.59323838      13.67046476      -1.92778176       1.03704648       2.22392150
O        4.65201480       2.57136102       7.10403516      -0.33113125      -0.91481212      -0.55124593
O        2.75994045       4.33104233      14.41075079      -1.44043803       0.85202457      -0.10008777
O        5.12531602       7.59448784      20.64973835      -0.10166343       0.95515895      -2.39086631
O        0.34758012       2.77995467       7.50006664      -1.66239197       0.32889229       6.15845913
O        7.95934311       9.73980203      13.58256327      -1.29104208      -0.55214748       0.85336853
O        9.49264925       6.83198941      20.18892629      -0.30972735      -0.31367313      -1.18253524
O        2.64834986       0.61706697      14.25877483      -0.61936750      -1.94908645       0.46597722
80
Lattice="9.77192453 0.01751879 6.90363604 0.24348012 9.76890588 6.90363604 0.01370155 0.0133883 13.86910312" Properties=species:S:1:pos:R:3:forces:R:3 energy=-576.13706288 source_file=vasprun.xml step_index=470 time_fs=32940.0 time_ps=32.94 file_index=16 pbc="T T T"
Na       9.05258006       1.10842803       9.96234952      -0.18135686       0.12971286      -0.19043863
Na       5.99868172       4.02205690      16.97740822       0.02312131       0.12269200      -0.18513813
Na       4.11602136       6.25438499      10.16184495       0.28774132      -0.33629728       0.19767790
Na       0.82714077       8.29037578      17.59419170       0.24890234       0.08913936       0.19125744
Na       5.99800841       1.45625162      14.28636036      -0.05441939       0.41413043      -0.81775382
Na       9.05924410       4.62093585      19.78205442      -0.78851368      -1.22844823      -0.13475487
Na       1.88144962       5.40204820       6.63545061      -0.32421115       0.29491009       0.38783618
Na       3.51233651       9.28840886      14.32937968       0.45234941       0.05318323      -0.33527212
Al       7.16284074       5.44854929      22.50532644      -2.24968055      -2.08830543       0.51589724
Al       4.76033741       2.75043102      11.36387162       2.74964890      -1.65488559      -0.05481942
Al       3.20688286       4.51870468      18.03508882      -0.21824810       2.45382198      -1.23830186
Al       5.54779477       7.22687071      15.48047705      -0.75283323      -0.48051647       0.67875065
Al       0.48331147       2.00483043      11.36810519      -1.46204317       2.44608284       1.38592467
Al       8.31824724       9.34198137      22.56291849      -2.30884745       0.46113456       0.95893349
Al       9.75474581       7.63747994      15.82481220      -2.01621399      -1.76468300       1.90744396
Al       2.11363418       0.13944562       4.51597865       0.04282570       0.77113758       0.26075774
Si       2.90217060       5.63485322      15.12532582      -1.07424145      -0.64202795       1.35628917
Si       4.57609364       7.46501689      18.69265327      -4.44078118      -0.59097740      -2.30011125
Si       7.64419506       4.21146002      11.73391160      -0.71212393       2.29428327      -0.58861895
Si       5.89754429       2.39915087       8.33268640      -0.18148783       1.47251759      -2.80554163
Si       1.16306987       7.08961162      12.00326826       0.39759911       0.73370355      -2.75436133
Si       2.56972290       9.31213595       8.34305393       1.11081793       0.04544027       0.38477391
Si       9.31008245       2.51255300      15.18642022       1.99399068       0.10460987       3.25522495
Si       7.43616583       0.69152433      18.74952187       1.97305278       0.33614390      -0.67447914
Si       0.68638764       2.75793021       5.35278658      -2.11789946       1.90725510      -1.22316925
Si       7.38581337       9.40300587      14.55180106      -2.07374167      -0.63513111      -1.85252877
Si       9.78068460       6.62336623      21.67381590       1.35975033       1.39169258       2.11925483
Si       2.87110020       0.46407709      12.42319164       2.65572336      -1.85630435       0.77582155
Si       8.07970160       5.31439655      14.69428570       1.07540201      -1.35870364      -0.85613800
Si       4.56185474       2.02970416       5.48393221       1.70939563      -2.47686336       2.40822809
Si       2.27837455       4.40191802      12.42133322       4.28820722      -1.00457326      -1.13476982
Si       5.48220354       7.99057466      21.62421174       2.04994100       2.08993962       0.59593124
O        8.70289800       5.52370205      21.80207763      -1.66197534      -1.26955122      -0.13907946
O        4.27588738       1.25730472      12.24068514       0.49224830       0.24464878       0.50546287
O        1.81868162       3.85521345       4.91467834      -2.19993650      -0.62821181       0.98544543
O        5.97686551       8.50603938      14.40584578       0.36789136       1.04337665       1.02361200
O        1.13767680       3.33405245      12.50947195      -2.37270698      -0.10115881      -1.08850892
O        6.70081813       9.16606740      21.72222848      -0.58403788      -1.29568207       0.14557491
O        9.37861322       6.06474193      15.16278149       1.80283991       1.47983255      -0.11633657
O        3.58439331       0.76130773       5.25997521      -1.17411064      -0.35342117      -0.27193633
O        3.53022298       6.04881834      18.91789550       1.21089108       1.07689194      -0.97372839
O        3.76150977       6.95572300      14.87900678       1.91126005       0.80178093       0.23184165
O        6.57419181       3.84147723       7.92065923      -0.19577976      -0.09671670       0.33192345
O        6.33264106       3.42221787      12.31307539      -0.95698884      -1.05619008      -1.20792918
O        1.41271865       8.20293307       8.34448046       2.02844393       0.21983442      -1.68903854
O        1.83134426       8.50376389      12.42595228       0.83964309       0.33979656      -0.65675789
O        8.70533705       1.73733048      19.02305079      -0.78666655       0.24944136      -0.76890011
O        8.55253910       1.11116292      15.02251558      -0.30131279       0.07747607      -0.70902000
O        3.54044416       4.69771865      16.29098025       0.13032202       0.13093042       1.73637237
O        5.49133366       7.53287056      17.31676188      -0.87004532      -0.63774673       0.44469133
O        7.14988446       5.23952943      10.32654125       1.38857025      -2.21489227       4.34977655
O        5.26836401       2.22236121       9.72665633      -1.40466972       0.81762419       3.57951085
O        0.27249600       7.10026003      10.65990655      -0.34285280       1.13626274      -0.33235674
O        2.02606900       0.42709568       2.77595958       0.89292377      -0.95785227      -0.13319315
O        0.46709018       2.41876190       9.74271551      -1.50881763       0.60342395      -4.08144945
O        7.96324396       9.55592034      24.31029776       0.19152623       0.33363304      -0.57432422
O        9.38149713       7.98046744      22.46883371       0.11447218       0.53269106      -0.66696165
O        1.72828242       0.96111308      11.54143902      -1.10517296      -1.15356228      -1.43909564
O        0.83186958       1.29144180       4.78449731      -0.36217527      -0.24538921       0.63748259
O        8.43310257       8.77516112      15.54205329       1.68546419      -0.64606926       1.45638834
O        3.51444389       3.83783860      11.40269678      -1.90015767       1.69712072       0.85979348
O        5.87299427       6.68812605      22.41637189       0.82673983      -1.60603588       0.61084210
O        6.75958116       5.96167120      15.22579873      -2.47605316       0.09281271       1.30926424
O        4.29270342       3.39180665      18.57296847       2.34921135      -1.12097267       0.44328775
O        8.99454855       3.27746000      11.38738977       0.29722265      -0.18944569       0.73835483
O        6.86583374       1.12822986       8.18021724       2.16495273      -0.37803031       0.22388132
O        1.34396950       6.17043526      15.55533490       2.12562194      -0.50948201       0.35300728
O        3.22728204       8.65200021      18.61934475       1.94632312      -0.43595108       1.16866807
O        8.34815185       3.80660337      15.34989516      -1.98969787      -0.42811165       0.55929480
O        6.03419554       1.53680871      18.73848920       0.52091480       0.13792257      -0.48375632
O        2.29067729       5.89883150      11.70614285      -0.61316266       0.72751303       0.58396280
O        4.08488421       8.48899664      22.24332893      -2.02242848       0.95610112       0.82841110
O        8.14490220       5.13644979      13.09965789      -0.34653154      -0.46784390      -2.71470974
O        4.75741009       1.91995586       7.19832854      -1.06283442       1.37261659      -2.12749778
O        2.76832993       4.49251751      13.99880836      -0.11075743       0.61014025      -1.56329409
O        5.25803454       7.57757537      20.10682955       1.12207656       0.23899891      -0.87895918
O        0.43905607       2.87086657       6.97250160       0.90956435      -0.06256643      -0.62868463
O        7.89347958       9.39216150      12.98758449      -0.26878746      -0.40764669       0.98468497
O        0.28940206       6.49222364      13.20025477      -0.31490768       0.70491377      -0.37204442
O        2.44845231       0.58595539      14.04764673       0.12617270      -0.83143857      -0.70065752
80
Lattice="9.77192453 0.01751879 6.90363604 0.24348012 9.76890588 6.90363604 0.01370155 0.0133883 13.86910312" Properties=species:S:1:pos:R:3:forces:R:3 energy=-576.07096448 source_file=vasprun.xml step_index=415 time_fs=8830.0 time_ps=8.83 file_index=4 pbc="T T T"
Na       6.45900480       3.88684979      17.14025573       0.32350708      -0.07849912       0.34702733
Na       6.77154493       0.60349225      12.61095934       0.39705313      -0.00715744      -0.12804408
Na       2.77462363       3.30935711       8.84587369       0.96253421       0.11060245       0.23519294
Na       7.55470758       7.59978611      11.39725581      -0.17440539      -0.07554983       0.25732532
Na       9.37519037       3.21611933      21.24192478      -0.56913261       0.32765397       0.23323793
Na       3.51731817       3.03480261      15.10751154      -0.08254700      -1.17332899      -0.50805408
Na       1.89263783       7.24343287       6.36007427       0.06878564      -1.23551288      -1.15192016
Na       3.68224217       9.14663500      13.90231280       0.39396924      -0.50819064       0.41444570
Al       7.50909710       5.58006760      22.97273550       0.73051901      -0.56457657      -0.44950843
Al       5.08401126       2.74080727      11.39793204      -3.30081848       0.62244823       1.12869237
Al       3.32966872       4.62111885      18.15978478       0.76935382      -1.44524358       3.55847690
Al       5.93694820       7.40889886      15.94500638      -0.64525567       0.70931649       1.49800255
Al       0.81915979       2.30201479      11.64878313       6.98341335      -0.05273200       0.09052354
Al       8.39994203       9.63411658      22.63801433       1.15647622       0.13469015       0.80065995
Al       0.37082333       7.94879906       8.84261620      -1.99479131       0.29664002      -2.66632671
Al       2.42438845       0.32298142       4.49990880       2.27422203       1.41787773      -0.73221016
Si       3.03452384       5.81202122      15.46346370       2.16342388       3.76059273      -4.25271175
Si       4.82332965       7.42158255      19.02877737      -2.21809679      -1.09211501      -4.85286398
Si       7.76664204       4.23156737      11.94731914      -0.58620198       1.57015410       1.64903136
Si       6.07470515       2.69594884       8.44245455      -1.40613395      -0.00529815      -1.48118135
Si       1.24358948       7.21872186      11.81484178      -0.46691012       2.72440196       1.09740551
Si       3.04591922       9.51382577      22.26606796       0.81287548       0.71421630       0.16471547
Si       9.66272745       2.85909084      15.73357649       0.37590533       0.36635782      -2.42433825
Si       7.88910249       0.91068465      18.76780768      -3.94495453      -1.07123835       0.34240839
Si       0.99655512       3.10158583       5.69866109       0.34311016       1.63517293       1.29410998
Si       7.50143463       9.66419169      14.76626150       5.50696360       2.61112974      -0.54798267
Si       0.22655098       6.90130905      14.79975745      -2.69524749      -1.45925206      -0.11797666
Si       3.39420902       0.41318214      12.62724808      -3.26453168       1.96997412      -3.03377004
Si       8.36867042       5.56283289      14.77619156       1.28972949      -0.50882880       1.23621313
Si       4.86894021       1.96859023       5.58476313       3.63965000       2.17831583      -1.74537087
Si       2.46541123       4.61808560      12.53017940       2.66502742      -2.79300502       0.94936769
Si       5.98043403       8.16732213      21.79166950      -2.75326129      -3.23317344       0.16976408
O        9.15498347       5.51263433      22.25720487       0.40616476       2.24660579      -1.08141274
O        4.71187705       1.06791409      11.94547382       0.93290986       0.76099474       0.94487259
O        1.96282531       4.45326675       5.44285237      -0.97075639      -2.05230824      -0.88609257
O        6.20428638       8.91150773      14.97282338      -3.97783715      -2.69263393       1.09688093
O        1.27622142       3.56905654      12.88976067      -0.59057191      -0.11057442      -0.62028433
O        6.95774319       9.41389230      21.57688233       0.82064510       0.53711117      -0.34183842
O        9.78396929       6.45314778      14.66123898      -0.89432100       0.39951581       0.81533558
O        4.22735688       0.63640967       5.16054434      -3.32296032      -3.60502142      -0.11732958
O        3.84523128       6.08970371      18.89862261       0.70134322       0.95512662      -0.63954582
O        4.32840058       6.89424846      15.52397447      -1.66324267      -1.02884271      -0.28494062
O        6.85459324       4.09977523       8.42379238      -0.13420514      -0.20481981      -0.75098137
O        6.52339603       3.20719857      12.16403164       1.38225574      -0.22804956      -0.16907507
O        1.87404447       8.48120636       8.01575019      -1.37704124       0.00599837       0.84009775
O        2.16815842       8.62635296      12.06672595      -0.46348020      -2.10578036       0.81857442
O        9.10842470       1.92536055      18.89703170      -4.51413722      -1.50953913       1.20300393
O        8.68554796       1.57698213      15.69090193       0.39299196      -1.28221567      -0.76584056
O        3.24493109       4.62726826      16.45503029      -0.62537792      -1.03125407       1.10348604
O        5.89397613       7.52678231      17.77581882      -0.50120474       0.54231317       0.03791195
O        7.72581169       5.38905508      10.83079356      -0.73357246      -0.25356025      -0.33988534
O        5.11130699       2.72765731       9.73022844      -0.14830167      -0.51055079      -1.80465182
O        0.51907917       7.55157359      10.43428012      -0.04392671      -0.98158976       1.88237339
O        2.59265789       0.65136827       2.77976978      -0.39577748      -0.43870306       0.85874730
O        0.93166123       2.92887694      10.05234496      -0.06256645       0.36196319      -0.49700196
O        7.98733411       9.58385637      24.35732460       0.31179630       1.64270957       1.85237420
O        9.57215082       8.28677880      22.42166803      -1.46630979       1.34051220      -0.32747650
O        2.03816371       0.94071158      11.78168783      -0.07614871       0.90810092       0.92426983
O        1.65148224       1.67819879       5.16347960      -2.18890142       2.49768486       1.10834299
O        8.82417610       9.22987223      15.64936622       0.23246221      -1.12750493      -0.73092596
O        3.65618696       3.85980234      11.70477068       0.56730915      -0.84248788       0.02332838
O        6.64433217       7.11268105      22.92878119      -0.87768762       1.26587895      -1.51412676
O        7.23680176       6.35568369      15.61223692       0.35727907      -0.90776494      -0.22106347
O        4.48581001       3.14074316      18.40761310      -1.56881624       2.71609853      -0.91635191
O        9.22752856       3.66216228      12.03340668       4.05796777      -3.65849827      -0.13002031
O        7.16242709       1.49570041       8.34087172      -0.07081414       0.18931700      -0.08883932
O        1.70946523       6.72065692      15.26605191       2.80510203      -0.67129005       1.66429326
O        3.60971037       8.63654371      18.98328210       1.43769455      -1.16057595       1.64046187
O        8.53224911       4.04657999      15.68138029      -0.02411782       2.19608080      -0.45962459
O        6.53193339       1.90925399      19.02932523       1.35819986      -0.41375408      -1.07760066
O        2.18277211       5.93439197      11.74773879      -0.44729400       1.39751788      -1.76272537
O        4.41342962       8.68990606      22.12568263       2.82442942      -1.37868871       0.81734038
O        7.85241018       5.07892490      13.34440699      -1.03695464       1.13701365       0.50270082
O        4.92531145       2.37788647       7.13305602       0.35585615       0.80944771       2.73989443
O        3.14617682       5.06954572      13.95047659       0.23367996      -0.21453397       1.62609963
O        5.49555403       7.17468006      20.39418371       3.33478110       1.83070880       4.93888639
O        1.05748209       3.08413536       7.49817774      -2.24496286      -0.91867731      -1.00159574
O        7.88207744       9.67650835      13.12519471       0.70610032      -0.70571892       0.06785369
O        0.24079862       6.96706753      13.14225760       0.11132333       0.33637433      -0.64580835
O        3.11360725       0.89370324      14.22403450       0.29200225       0.14883564      -1.76884186
80
Lattice="9.77192453 0.01751879 6.90363604 0.24348012 9.76890588 6.90363604 0.01370155 0.0133883 13.86910312" Properties=species:S:1:pos:R:3:forces:R:3 energy=-574.94666023 source_file=vasprun.xml step_index=165 time_fs=56330.0 time_ps=56.33 file_index=28 pbc="T T T"
Na       7.32343941       7.59277097      18.11168340      -0.20333955       0.19844045      -0.02964054
Na       8.23511732       3.67531981      20.21068338      -0.40235096       0.89167128       0.64046117
Na       9.59073094       7.41866735      12.43585137      -0.39438784       0.05396752      -0.08151847
Na       4.23251045       8.18785178      13.29971064      -0.10234991      -0.07978555      -0.42638298
Na       1.31471316       2.08448919      14.78735896      -0.00224929       0.50883070       0.32303168
Na       6.52784536       1.19358603      13.98159126      -0.65160133       0.24966081      -0.40512785
Na       1.51922357       0.97758283       7.88762681       0.09000200       0.09629938       0.03101460
Na       3.86484252       5.82933248      10.08100327       0.00948355      -0.19382557       0.07289497
Al       7.02313639       5.13259392       8.88037708       0.85064292      -0.12047296      -0.42315895
Al       4.71030647       2.64655944      11.43538215      -1.39541582       0.92385495      -0.08714267
Al       3.03975261       4.30727171      18.35405980       0.73684777       0.90185597       1.63451588
Al       5.19664930       6.91860529      15.89123800       1.27424526       0.91212155      -1.87266131
Al       0.17337987       1.98935406      11.56166205       1.01174614       0.59532257      -0.55449832
Al       8.18440462       9.20765438      23.09198000      -0.34617426      -0.71164388       1.25658339
Al       9.58522837       7.17640940      16.08493167      -1.46359008       2.47521626       0.40646595
Al       1.90062874       0.29255708       4.47137923      -2.36082350       0.32499872      -2.13660073
Si       2.77996933       5.26909062      15.32531632       0.15345467       3.99341232      -0.70536970
Si       4.37386537       7.21559012      19.04897175      -0.33045508       1.46048508       0.54849002
Si       7.27191515       4.17499517      11.87074166       0.74897003       1.13615096       4.15013938
Si       5.49632988       2.43040529       8.36643350       1.83642524      -1.63451271      -0.29138421
Si       0.95348304       7.19946262      12.09153294      -2.20452879      -0.67249163      -0.41127174
Si       2.36577554       9.12386321       8.46264320       3.66584931       0.29510816       1.19132939
Si       8.85112552       2.49664795      15.43520616       0.12841020      -0.36466810      -2.67198587
Si       7.54743735       0.44694885      19.31389951      -0.95092795       0.60613069      -1.49336603
Si       0.40534853       2.93382976       5.54052651      -2.36980663      -2.40891979       1.08817825
Si       7.12260065       9.40626912      15.13173479       1.63490972      -5.41801582      -1.28992625
Si       9.68760577       6.73991916      21.97253865       3.84413877      -1.14916308       1.06790116
Si       2.79375355       0.26778164      12.50321059       0.09862812      -0.63928261      -1.13992904
Si       7.66000021       5.13326136      14.72341530       0.58626350       3.59519718      -1.11891993
Si       4.38380595       1.64681500       5.56753908       4.60867811      -0.32608376       2.29540100
Si       2.07965577       4.26609247      12.51625562      -0.25402471       1.56054811      -0.93969410
Si       5.45611495       7.83539431      21.91120635      -1.41485519       4.02928818      -3.00146608
O        8.70272000       5.52060163      22.04858006      -3.44004061      -1.81960813      -0.10329657
O        4.14372623       1.10257100      12.01417900      -0.91485553      -0.35746023       1.09071855
O        1.31937500       4.04523384       4.97359985       3.26507592       1.28000161      -0.31006879
O        5.69937783       8.48683600      14.89003316       0.75485420       0.75726494       1.53282720
O        0.58198432       3.43247918      12.57292037       2.64467843       0.29962454      -1.29718273
O        6.54069801       9.04741247      22.30323294      -0.46688427      -0.78455130      -0.02928367
O        9.20529086       5.69789518      15.26135805      -0.94486335      -0.71612040      -0.87322948
O        3.36345764       0.54490031       5.17775647       1.22155628      -1.39969195       1.98835216
O        3.70782994       5.80339172      19.29079164      -0.94194478      -1.92625241      -0.45085079
O        4.08982095       6.25209517      14.60405870      -2.45318961      -0.98841605       2.70533178
O        6.52129657       3.59806836       8.01283295       1.26512598       2.64223239      -0.53265264
O        6.09431329       3.13646614      12.36815358       0.62651717      -0.27186791      -0.66917584
O        1.09628633       8.24550943       8.49875787      -1.49833371      -2.29273266       0.16055027
O        1.97551688       8.38798585      11.84861678       0.48603998       0.48119201       0.18286290
O        8.50225829       1.78301512      19.35631729      -0.77852541      -1.04201768      -0.18262797
O        8.22746289       0.94919094      15.32753812       0.98701209       1.25285919       0.05625107
O        3.11963896       4.55816027      16.67486770       1.02505343      -0.55283078      -0.13021134
O        5.09888229       7.32238104      17.60872871       0.41991124      -0.25135708      -1.21861525
O        7.01638136       5.07751070      10.63032232      -0.46188783      -0.00240280      -2.69865665
O        4.81327305       2.82402459       9.71202066      -0.90641156      -0.20118305       1.35181210
O        9.44751634       7.29719200      17.93215701       1.87074151      -1.04002604      -0.50313942
O        2.21991385       0.54261054       2.70394716      -0.93134503      -1.01910956       0.36783059
O        9.78206925       2.45501136      16.75384485      -0.33354527       0.55067208       0.04929592
O        8.21784433       9.30733739      24.91346585      -0.36704680       0.44594165      -0.40726761
O        9.46675496       7.89851607      23.03342267      -1.91716289       2.40602743      -0.19282025
O        1.44378961       0.81429046      11.73462328       0.62270505      -0.15828715       0.36463944
O        0.63730002       1.36899645       5.08911511       0.91404918       0.04456115      -0.24703836
O        8.27623955       8.40981813      15.90615706      -2.28211579       1.55224600       0.42305379
O        3.48124923       4.02706800      11.57550168      -1.92021901      -1.22168838       1.90543268
O        5.98558639       6.55888073      22.56585745       0.03494659      -3.46109222       1.45941470
O        6.62778942       5.98076032      15.62167367       0.16339024      -1.03873177       0.62845409
O        4.14102733       2.93184678      18.61231230      -0.66690238       2.66711969      -1.05002601
O        8.73537896       3.49622937      12.01723761      -1.93850444      -0.20647306      -1.34591599
O        6.62800341       1.15211976       8.61029081      -1.00285929       1.20933826       0.48042613
O        1.36896979       6.05996888      15.61679423       0.14212468       1.23628761       0.22415230
O        3.24777242       8.44441907      19.08229899      -0.19174997      -0.20062686      -0.24184973
O        7.58039959       3.52970056      14.87934112       1.22669015      -2.33576696       1.98480922
O        5.97740113       0.97289895       5.46905118      -1.41713833       0.44748077      -0.49486490
O        1.82595053       5.83751904      11.90928054       0.23164693      -1.19401336       0.09035549
O        3.78638473       8.20146005      22.14394928       1.89106378      -1.43386718       1.55237706
O        7.34251715       5.50221374      13.04096885       0.78143131      -1.80377339       1.65110531
O        4.41291392       2.04091153       7.23238701      -1.06363791      -0.56062925      -0.92676448
O        2.18364607       4.36867352      14.16316199       0.92746152      -2.75127369      -2.25745373
O        5.54680771       7.68281390      20.17991295      -0.26129910      -0.31615896       0.67566264
O        0.11762485       2.69154877       7.17101598       0.62809959      -0.25373263       2.06455332
O        8.03760339       9.33330737      13.66595490      -0.57580412      -0.17409666       0.75149224
O        0.24597039       7.19124868      13.56135216      -0.31372060       0.85561287      -0.67810552
O        2.47098985       0.23518233      14.13010740      -0.57849539       2.54413637      -2.51331721
80
Lattice="9.77192453 0.01751879 6.90363604 0.24348012 9.76890588 6.90363604 0.01370155 0.0133883 13.86910312" Properties=species:S:1:pos:R:3:forces:R:3 energy=-576.11024667 source_file=vasprun.xml step_index=335 time_fs=44670.0 time_ps=44.67 file_index=22 pbc="T T T"
Na       8.59451198       1.25017614      10.34864957       0.25077109      -0.09649717       0.08496958
Na       6.34833881       4.32781709      17.72704459      -0.18375932      -0.32283461       0.08125255
Na       5.67675377       6.51684482      12.10597683      -0.26989177       0.18427682      -0.23458711
Na       1.32838127       9.18285907      17.26315500      -0.30336480      -0.26788514       0.22939441
Na       8.98983172       3.35082692      21.31036037       0.38704029       0.26228382      -0.39601688
Na       6.24057036       1.33830631      14.17884059      -0.08122359       0.53577202      -0.49765477
Na       2.14682899       5.57442332       7.24114759       0.17760041       0.22420045       0.72619870
Na       3.49315170       0.01461548       7.57577004       0.01540884      -0.22414057      -0.64544953
Al       7.19774850       5.32739376       8.90944892       1.00581271       0.41339506      -0.82085984
Al       4.71431111       2.96839030      11.45456524       1.44955245      -0.87357922      -0.15275088
Al       3.05490497       4.64240811      18.55391949       0.15657479       0.03292681       0.34710271
Al       5.43434948       7.19168460      16.04391701       1.42206578       0.35202585      -1.12888768
Al       0.47163034       2.57538495      11.70611995      -1.62634483      -0.75736694      -1.47665645
Al       8.11148993       9.38781486      22.99577089      -2.44544899       1.40427481      -0.19006794
Al       9.91231121       7.47514420      15.95388554      -0.05390384       0.58428849       0.03257421
Al       2.04189725       0.52653258       4.41422903       1.18753417       0.92569142      -0.15812378
Si       2.81980744       5.97745167      15.58095085      -0.23432008       0.24756714       0.93309205
Si       4.20232854       7.63209339      19.02466562       1.44958743      -0.75307222       0.30089763
Si       7.56676736       4.19423505      12.05677504      -2.92317682       2.54588553      -2.47613249
Si       5.84259878       2.51213584       8.42258523       1.40835442      -1.10683189       0.74618565
Si       1.18851215       7.54168828      12.15092533       1.83467893       1.56527104       0.08137646
Si       2.62757815       8.81519383       8.36745567       0.60570859       3.60524731       3.64760719
Si       9.14006273       2.51361346      15.61346129      -0.66485378       1.37051688      -4.86249699
Si       7.53602964       0.83239160      19.08448560       0.86382232       3.47339100      -1.52068712
Si       0.61449445       3.03266945       5.83827137      -0.52367221      -0.40887522      -0.58713185
Si       7.62437632       9.38246030      14.84543680       0.38414077       1.85588595      -1.21684385
Si       9.82635907       6.96966380      21.97567678      -0.56268559      -1.92653695      -0.33686254
Si       2.90362190       0.59729819      12.59147719      -1.58935222       1.89824700       2.24275439
Si       7.64523999       5.27383560      14.86414185       1.43553944      -1.48572615       0.51874906
Si       4.65211018       2.14167499       5.63385343       1.78680238      -3.10308046       0.52924957
Si       2.38456093       4.84395391      12.68700593      -0.69074792       0.18546747      -1.51314747
Si       5.49920305       8.02556326      21.79283836       0.53584481      -0.78822733       0.56682755
O        8.87424674       5.64893711      22.09900660      -0.14023442      -0.48564580      -0.22397066
O        4.20670073       1.53800609      12.32911422      -0.51126575      -1.43666813       0.87206530
O        1.59935580       4.28340623       5.67928105       1.36305215       0.30109770      -0.94778870
O        6.47605609       8.36278608      15.01097635      -3.50410706      -2.95896623       2.10312805
O        1.06803515       3.85792385      12.58337961       0.70209408       2.92622857       0.87502143
O        6.38696424       9.26627410      22.28417821       2.23095052       0.62732673       0.22408601
O        8.91290676       6.19219095      15.28329191       0.27716362      -0.66719620      -0.32603753
O        3.52361471       1.04340321       5.34681311       0.32826495       0.37603701      -0.80130611
O        3.59586015       6.08181663      19.35933810       0.73269792       4.13521725       0.32980422
O        3.92297051       7.12465785      15.09713336       0.01411479      -0.16513177       1.19060851
O        6.91032960       3.72105417       8.19955409      -0.78118684      -0.13940635      -0.46605487
O        6.46142513       3.03724661      12.07499628      -1.12122559      -0.64520058       0.49664734
O        1.80958892       7.49096450       8.18658992      -3.71795713      -1.27024616       0.30684486
O        2.10950288       9.04710482      12.42708361      -2.70652322      -4.95891730       0.65901331
O        8.73240103       2.05025056      19.35930234      -1.54078200      -1.19486447      -0.01525049
O        8.51878128       1.09941987      15.36557478      -1.09671523      -2.17580095      -0.12853906
O        3.19023402       5.02934663      16.87064866       0.20554135       0.05372250      -0.95011762
O        5.06023686       7.74688133      17.67147283       0.66104790      -1.24925251      -1.63718201
O        7.23674263       5.07026559      10.59825005       0.19979135      -0.42067416       3.03856698
O        5.00315978       2.56905810       9.75542061      -0.89408862       0.64925905       1.67830035
O        0.26832722       7.37570616      10.82973404      -0.02859695       0.57325804      -0.86785775
O        1.79147501       0.14815437       2.73750523       0.84520003      -2.10582424      -0.98160899
O        0.26765445       2.71284604       9.92427769       1.19648018       0.75825672       3.53515390
O        7.54430239       0.13725247      17.69193937       1.89984194      -1.83822136      -1.68373857
O        9.18349201       8.09094062      22.86868704      -0.39008611       1.83085263       0.60095625
O        1.57348361       1.36717313      12.02149098       1.96103127      -2.70710374      -0.37844981
O        0.98110341       1.83638518       4.83384176      -0.76434495      -0.04799526      -0.41187403
O        9.05606672       8.96537709      15.41546210       0.44334869       0.25264120       1.01801153
O        3.65001313       4.22521264      11.95427627       1.35584366      -0.44313345      -0.59657554
O        6.17531341       6.62641820      22.28295930      -0.49699075       0.17757267      -0.44965167
O        6.37482993       5.56353097      15.77433679      -2.05135172       1.80507826       1.49521739
O        4.38653162       3.64493068      19.17604321      -0.32500733       2.11451636      -1.96861965
O        9.01318810       3.63598225      12.01770992       1.34454455      -0.83996949       0.41855504
O        6.87880555       1.14424990       8.50255191       0.90202792      -0.31711779       0.00269127
O        1.38337897       6.71563882      16.10892938       1.19960475      -0.13168547      -2.19398926
O        3.13803337       8.90950313      18.78994840      -0.24144150      -1.69946389      -0.31166448
O        7.89635417       3.57521337      15.12622312       0.58798700       1.00998045       0.89552598
O        6.14870076       1.64992104      18.72341038      -2.79478438       2.28505042       2.45783348
O        2.40371317       6.36036918      11.97474227      -1.72373427       0.40073393       0.87442404
O        4.06559663       8.13083563       8.74733404       0.53703632       0.27615062      -0.52453775
O        7.22689893       5.32429974      13.27034510       0.55497249      -0.16723192      -0.55758588
O        4.69719335       2.13689473       7.34416395       0.26939205      -0.37638662      -1.83519243
O        2.63947682       5.11879073      14.23079898      -0.36789213      -0.55816057       1.58751205
O        5.37444464       8.22597322      20.12410426      -1.80447326      -1.19742465       0.62434388
O        0.44803609       2.64275400       7.39259664      -0.03147796       0.26447960       0.25486438
O        7.67538831       9.43776176      13.17380448       0.36649952      -0.57032930       2.22491952
O        9.89820357       7.38394972      20.33774866       1.34445504      -0.44844935       1.16822949
O        2.47902143       0.24083215      14.25770690       1.30967087       0.84755538      -3.52602267
80
Lattice="9.77192453 0.01751879 6.90363604 0.24348012 9.76890588 6.90363604 0.01370155 0.0133883 13.86910312" Properties=species:S:1:pos:R:3:forces:R:3 energy=-577.57211608 source_file=vasprun.xml step_index=565 time_fs=83130.0 time_ps=83.13 file_index=41 pbc="T T T"
Na       8.71807140       4.28095127      20.88003929       0.28063215      -0.33693766      -0.62375231
Na       8.44885302       1.86272510      10.15466909       0.37047571      -0.35253659       0.31789140
Na       6.53837245       4.06083365      17.36262842       0.05523023      -0.21363761       0.27503095
Na       5.04793537       6.33551860      13.13792848      -0.12188504       0.12817837      -0.44341806
Na       3.06187790       2.83299389      15.98716084      -0.21949260      -0.42443222       0.09766432
Na       6.22137802       0.45595041      13.44950271      -0.16160875       0.21882268      -0.09840405
Na       2.23808819       6.19686988       7.48033752      -0.21689364      -0.01648725      -0.05939994
Na       0.61515649       8.95745441      17.91325660      -0.13630728      -0.10590212      -0.34280265
Al       6.96105837       5.40367214       9.14771942       2.10466632       0.91032172       2.57913372
Al       4.66454361       2.82883534      11.70190546      -0.50369973      -0.50799714      -1.53148685
Al       3.11853713       4.71478952      18.49915094       0.95385259       1.21623877      -1.05448662
Al       5.43019695       7.26700950      16.02786209      -0.15213270       2.05406261       0.95284656
Al       0.41894507       2.57123018      11.43014640      -0.08711862      -0.39062270       0.25990391
Al       7.78778126       9.71706377      23.07354248      -1.37029221       0.92823218      -0.29583409
Al       9.59694401       7.87718030      16.30686377       0.77183135      -1.63773426      -1.07775473
Al       2.10938336       0.55223839       4.76284347      -0.35592850       0.81219729       0.29470869
Si       2.54159778       5.97614092      15.58842156      -0.71346455       1.22408779      -2.38355813
Si       4.26148731       7.62419660      19.12479117       2.36556709      -1.65278775      -1.70376335
Si       7.41856664       4.28246919      12.17114118      -1.11989898      -3.74259050      -1.29359892
Si       5.71016240       2.71167409       8.60278397      -2.07499066       0.54319330       0.45399400
Si       0.85336137       7.41402048      12.14440512      -0.57466919       0.61769037       1.76386872
Si       2.68808076       9.28434686       8.76772996      -1.11548308       0.41480699      -1.62699642
Si       8.98751722       2.65716647      15.35234656       0.53668129      -1.06380696      -0.09132754
Si       7.60511433       1.11070903      19.20611554      -0.12785703       3.25183546      -1.60533720
Si       0.45553402       3.21440399       5.46812029       3.65898546      -3.91387287       2.53011429
Si       7.29289358       9.65684889      15.01563065      -2.37581894      -1.20899918       1.31818520
Si       9.49408571       7.18173374      22.01028602      -0.20367871       0.79042345       3.65061460
Si       2.68862587       0.56016562      12.67900575      -1.52359793      -2.27559923       1.44622024
Si       8.00571162       5.62194550      15.08943899       0.14014030      -1.69591649      -0.90884544
Si       4.63950298       2.35744992       5.73025487      -0.63673477      -2.18597893      -0.16787117
Si       2.26333708       4.85692347      12.73785318      -0.66547706      -0.27279312      -1.42903357
Si       5.19745557       7.88765723      22.19674506       3.26321504       0.61997662      -3.41758916
O        8.69058141       5.85523512      22.51045735      -0.81154351      -0.20872981      -0.01214544
O        4.10700257       1.26000760      12.55673512       1.09756609       2.12548088      -1.80829001
O        1.80520391       4.11154012       5.44771520      -3.31246738      -0.33171662       1.38618080
O        5.92275689       8.71092304      15.09220495       0.88816650       0.09528857      -0.50838411
O        0.92961753       4.12054508      12.09924944       0.98375347      -0.14006435       0.84245607
O        6.12502655       9.11806871      22.73890241      -0.15967319       0.09762671      -0.76102264
O        9.24019228       6.61891888      14.94510545       0.35414691       0.42384209       1.06234755
O        3.55216915       1.14149828       5.56413749       0.42103643       0.25922741       0.87954002
O        3.59868784       6.14711757      19.34355691       0.15200762      -0.10254416       0.01608471
O        3.95964419       6.65684169      15.25441192       1.00048511       0.05280890      -0.46741005
O        6.87630594       3.89187818       8.39005178      -0.94461828      -1.59323114       0.34713361
O        6.34506383       2.83556726      12.24861763       1.29662728       2.51599133       0.22385269
O        1.22256596       8.62763915       8.65285034       0.04358062      -0.49737876       0.58457360
O        1.40697452       8.91704440      12.09857569       0.20128693      -0.09506363      -0.05733991
O        8.72265499       2.42422474      19.30150524      -1.66290678      -1.73905688       0.42958161
O        7.75276849       1.40471128      15.10691681       1.76801828       1.54336565       0.60579939
O        2.57775854       5.10583376      16.86182725       0.37138743      -1.68944258       2.54972106
O        5.08391188       7.79916000      17.68078153      -0.80658860      -0.66225119       1.14769888
O        6.90025513       5.30925208      11.08888288      -0.50202444       0.58299544      -2.65979511
O        4.60395473       2.63719045       9.84830419       1.79618838       0.66928622       0.75087768
O        9.64411799       6.98395166      17.85968084      -0.03013486       0.88276907      -1.41257485
O        2.76593300       0.39703065       3.14047564       0.11187123       0.53990767      -0.39999986
O        0.19757767       2.33463789       9.72693749      -0.69657676      -0.22074476      -0.58434889
O        7.80474590       0.33914274      17.81433903       0.50393686      -0.05583214       1.26215995
O        8.89816080       8.45411984      22.95741291       1.91723861      -2.17231498      -1.91871002
O        1.29648478       1.06255167      11.91328469       2.12312080      -0.11786906       0.76782447
O        0.78742748       1.78091014       4.62171125       0.32927453       0.98032222       0.61862362
O        8.35275986       8.96080377      15.99556979      -0.69980868       1.92483992       0.38146435
O        3.63947895       4.29251807      12.03749265       0.53135768      -0.64229405       1.19837749
O        5.84969792       6.47416841      22.40257495      -0.63089125      -0.38033018       0.63618928
O        6.72769281       6.05819605      16.02303903      -0.10405313      -0.17218567      -0.90834191
O        4.26549118       3.40001335      18.39912085       0.35878729       1.64245342      -0.59808171
O        8.83156723       3.47732610      11.72130429      -3.10321887       2.33923372      -1.12136848
O        6.75604486       1.43951584       8.72400572       0.01126593      -1.28329666      -0.71367253
O        1.33050335       7.06880337      15.45197207       1.00164653      -0.25114004       1.57154020
O        3.04159434       8.60441578      19.31838605      -2.74563318       3.70583472      -0.55217090
O        8.37099999       4.14743270      15.73935201      -0.83392218      -0.45801598       0.63087953
O        6.17177415       1.97044386      18.99858010       0.04139739      -0.23145174       1.25280188
O        2.18388571       6.43709462      12.20467019       0.14149630      -0.65810079       1.06225078
O        3.67635186       7.92014451       8.76294182      -2.03195245       0.65824957       0.16892143
O        7.65835372       5.07504651      13.49831154      -0.55262458       1.66608175       2.60965807
O        4.62940586       2.90603442       7.32172284       1.32039022      -0.74848305      -1.20976737
O        2.24576315       4.78735536      14.43096649       0.17874328      -0.31291695      -1.62587122
O        5.23807047       7.88683303      20.38368206       1.01098093       1.20351662       2.52486231
O        0.20166545       2.94105240       7.15062695      -0.58134181      -0.17334663      -1.21021976
O        7.53005646       0.08323707       6.57448514       0.48732736      -0.30715788       0.21494909
O        9.63128911       7.26928199      20.46775367       0.01719880       0.28264616      -4.23909798
O        2.59083297       0.57823559      14.36609824      -0.27759880      -0.68975631       1.24301619
