80
Lattice="9.77192453 0.01751879 6.90363604 0.24348012 9.76890588 6.90363604 0.01370155 0.0133883 13.86910312" Properties=species:S:1:pos:R:3:forces:R:3 energy=-573.79572445 source_file=vasprun.xml step_index=0 time_fs=0.0 time_ps=0.0 file_index=0 pbc="T T T"
Na       3.36066310       2.20882914      16.15899766       0.23135798       0.78786210       0.65991314
Na       7.72901408       6.39818042      18.42970702      -0.66938890      -0.11714263      -0.58435014
Na       6.58333653       7.57573984      11.52692700      -0.21700602      -0.61141522      -0.45616380
Na       2.31884391       3.39402580       9.23069461       0.50839978       0.13966832       0.39798232
Na       9.22332191       3.83155551      21.05157918       0.04935060      -0.69316903      -0.29662202
Na       6.01242573       0.71501579      13.62786128       0.58482656       0.03503526       0.19110226
Na       0.65375415       5.87572594       6.41344546      -0.07704120       0.62306761       0.29797957
Na       4.11863820       9.27215418      14.34488538      -0.54963091       0.08909699      -0.29056341
Al       7.04211001       5.02530493       9.17096435      -1.30579553       1.49560152      -0.17559796
Al       4.82559432       2.85009646      11.57812059      -1.38799119       1.41481542       0.03902087
Al       3.01327447       4.74013132      18.44473034       1.27343312      -0.86751160       0.99123065
Al       5.22596952       6.87836030      16.19733689       1.40720845      -0.46280865      -1.80547321
Al       0.39710753       2.01266417      11.66231042       0.26873218      -0.99631624       3.47278725
Al       8.00149824       9.44683793      22.95856104       0.96492274       0.08681178      -3.19079769
Al       9.63168950       7.81188557      16.01372331       0.19670516       0.75403235      -3.00922297
Al       1.99808922       0.35420366       4.70625755      -1.23150961      -0.25190547       3.84046657
Si       2.50535642       5.17149814      15.46175020      -1.15064149       1.06250298       0.81404658
Si       4.80940166       7.43954536      19.14313192      -0.99648154       1.48472822      -0.75887543
Si       7.49794522       4.62432508      12.20901253       2.04325852      -1.16406180       0.06669138
Si       5.22282482       2.40042614       8.53268388       0.97233264      -2.19979320      -0.06525485
Si       0.81056899       7.20761622      12.06737859       0.46622645       1.67267341       1.31236894
Si       2.78423093       9.13107550       8.65830354      -1.56658613      -0.11822155      -0.55368181
Si       9.19454453       2.59035051      15.61554158      -0.07047880      -1.33487931      -1.39295629
Si       7.24668730       0.66786446      19.02135320       1.12392599       0.40024370       1.31403815
Si       0.65200192       2.97623534       6.01815892       1.37672027       4.07367142       0.61415213
Si       7.03739982       9.22247131      14.70282447      -4.73906328      -1.31739892       0.03986118
Si       9.40997824       6.80307605      21.65296647      -1.41621552      -4.69613127      -1.45110031
Si       3.00233000       0.55794291      12.99011560       4.33926604       1.12666393       0.09109571
Si       7.80642118       5.35500241      15.16981434      -0.30920604       1.36080237      -1.63843351
Si       4.49501803       2.13125966       5.56106011      -0.96886845      -0.35442331       1.67799722
Si       2.23177160       4.47405046      12.50766766      -0.07401021      -0.87596662       1.78622265
Si       5.53758570       7.67998758      22.07966787       0.19688892      -0.57213792      -0.92630648
O        8.21911470       5.54419729      21.88400309       1.88750050       1.37980311      -0.78115841
O        4.29251006       1.72810670      12.75516766      -1.41502617      -2.02995163       0.94599411
O        1.91968911       4.18161075       5.82044903      -2.24317892      -1.16441683       0.65322441
O        5.79893585       7.99888231      14.95150320       1.02950132       1.90301117      -0.52875219
O        0.88934499       3.64951186      12.19326588      -0.83053457      -0.72214872       1.73258293
O        6.36025002       9.00370958      22.43909556       0.88352659       0.93173651      -1.71268500
O        9.14781149       6.20254917      15.42907848       0.52969362       0.37518256      -1.69029465
O        3.62958206       0.80967318       5.23837506      -0.42797723      -0.39669144       2.03572428
O        3.58540800       6.40102076      18.91653052      -0.14089863      -1.60730497      -0.20297218
O        3.61524583       6.35073740      15.68891511       0.38382598      -0.43447855       0.00168181
O        6.45819387       3.41974778       8.67399940       0.28538562       1.28689252       0.20081122
O        6.45810012       3.39746201      12.06511779      -1.13817672      -0.17973473      -0.14911061
O        1.34755538       8.44963286       8.12422134       0.17620833      -0.21279178       2.05601890
O        1.50057848       8.65036660      12.58902741       0.31600077      -0.23428858      -1.94577171
O        8.65768418       1.42084443      19.56194256      -0.02037535       0.05246990      -2.09112810
O        8.37533379       1.20999380      15.10158613       0.04077954      -0.12909644       1.93271162
O        2.33221093       4.30685894      16.89792931       0.18967207       0.75618701      -2.58127603
O        5.65115649       7.60980987      17.69681908      -0.46092833      -0.24520102       3.04267636
O        7.67895667       5.40971738      10.76938884      -0.48849676      -0.19442880       1.76928739
O        4.39888221       2.24700847       9.96291920       0.47481930       0.48287038      -1.70112870
O        9.88780691       7.11340337      17.53417911       0.31656137       1.18779371       0.60975426
O        2.66013326       0.06564196       3.21903116      -0.93752932      -0.98950762      -2.81052942
O        0.17580221       2.66091421      10.14075824      -0.87576540      -1.06910676      -1.95534503
O        7.38455251       9.70948442      24.49231524       1.26412030       0.49098836       1.49480685
O        9.10157633       8.10114349      22.39894244      -1.03958394       3.33493485       1.91011823
O        1.74157622       0.85591350      12.14558928      -2.78528689       1.09732100      -1.44176343
O        0.87913342       1.68251116       5.19857125       0.62916833      -2.17524694      -1.35123234
O        8.32801468       8.95580250      15.49196726       2.91767757      -0.86065826       1.77597150
O        3.42766400       4.07048302      11.62237635       3.00491189      -1.02741372      -1.91877646
O        5.86787772       6.46313192       9.14764317       0.72966879      -2.29213870       1.25840074
O        6.62587194       5.73186242      16.11261496      -2.03516647       0.28979826       1.64114062
O        4.18431246       3.33442114      18.49795512      -0.57816991       2.74799252      -1.76249059
O        9.09323237       3.89611453      12.36994482      -0.50341103      -0.04235971       1.35097402
O        5.97402659       0.82937845       8.36783490      -0.19279320       0.43008710      -1.31347381
O        0.99102718       5.99074715      15.32179623       0.71862881      -0.15726862      -1.22041509
O        4.04923838       8.95517449      19.31142068      -0.15631981       0.00959729       1.45683110
O        8.17021855       3.84323218      15.47969872       0.42100583      -2.04316057      -0.28906423
O        6.00935771       1.71768173      19.11210395       2.03958741      -0.31029120       0.48559108
O        1.88609628       5.99312238      12.18430682      -0.15229305       1.75376462       0.51384802
O        3.99952799       8.07794335       8.51033092      -1.30883290      -0.03587025      -0.49390454
O        7.22211030       5.63447827      13.55655772       1.15418143      -1.45683801      -1.08058753
O        4.21912502       2.68672164       7.17998472       1.38886474      -1.16296985       1.07074182
O        2.78492145       4.16216080      14.12350857      -1.24686926       1.53121157       1.04402147
O        5.80070611       7.12120183      20.48577636      -1.13328692       1.06985227      -1.11084814
O        0.82393317       2.77397044       7.74744738      -2.11917254       0.05732253      -1.92862867
O        7.19864207       9.04053325      13.00880728       0.15912120       1.98347072       1.43876048
O        9.19220871       6.93572910      19.88897970       2.01814249      -0.01085054       2.86978444
O        2.81902892       0.77218914      14.69997448       0.01292470      -1.93749212      -2.27738039
80
Lattice="9.77192453 0.01751879 6.90363604 0.24348012 9.76890588 6.90363604 0.01370155 0.0133883 13.86910312" Properties=species:S:1:pos:R:3:forces:R:3 energy=-576.63619961 source_file=vasprun.xml step_index=500 time_fs=1000.0 time_ps=1.0 file_index=0 pbc="T T T"
Na       1.43373771       2.88776985      16.30357312       0.06260317      -0.48789833       0.03434973
Na       7.79412229       8.50686273      18.23069849      -0.88756634       0.00857552       0.25770124
Na       8.51956997       7.35187895      12.29342343      -0.36904910       0.06598051      -0.06827166
Na       2.57712540       2.14597024       8.81644583      -0.25331888      -0.34971522      -0.69684662
Na       8.19065509       3.67365178      20.62195425       0.18472750       0.02423974      -0.27360550
Na       6.17371341       1.39451330      13.71038396       0.10258868      -0.01426128       0.46526668
Na       2.49278234       5.68424627       7.72121586      -0.01408522       0.34113174      -0.45530176
Na       3.82590495       8.63447757      13.79592158      -0.02916857      -0.20747497      -0.05131397
Al       7.10869974       5.26749171       9.21559137       0.24552863      -1.96246614      -0.97374830
Al       4.56550768       2.76521330      11.40795958       2.22289188       0.50309133       1.43480569
Al       2.94291152       4.78800915      18.55501752       1.57422187      -1.06203241       1.16281352
Al       5.45552189       6.91816332      16.10828697       1.27632025      -0.16477980      -0.52698046
Al       0.39461327       2.06418379      11.59837096       1.64589444      -1.08217549       0.23825015
Al       7.82663134       9.45729076      23.20256422      -1.05738135      -1.42849356      -0.95000254
Al       9.73128264       7.62064179      16.08643199      -3.22218108      -0.11245481      -2.16627123
Al       1.96683941       0.17605343       4.48080252       0.78063106       2.69526622       0.66150140
Si       2.51250213       5.74657214      15.66373250       0.33354602      -1.73010230      -0.05247972
Si       4.54174431       7.57551545      18.85029334      -2.88808526       1.13201284       1.45768972
Si       7.55878777       4.21409931      11.93234032      -1.22714460      -1.24084638       1.18726623
Si       5.57795155       2.32316594       8.64154850      -0.27163076       3.21500735      -0.45750797
Si       0.83071088       7.23545824      12.13737796      -0.91179322      -1.56374942       3.93273789
Si       2.71494418       8.99968494       8.48660242       0.04753198       2.67143563       0.50288174
Si       9.18934592       2.43299665      15.59446528      -1.01033030       0.76018064      -0.23589430
Si       7.25154625       0.88046486      19.07976921       1.31917604      -3.27188834       0.83726355
Si       0.52063358       2.90193624       5.57207639       0.03330886       1.82269023       1.37093010
Si       7.04659021       9.28057078      14.99634578      -2.07288784       1.98534822       0.49116689
Si       9.46134700       6.74549040      22.02246511       0.26223439       2.45681942      -1.76137985
Si       2.99828702       0.52329790      12.57923794       2.53671149      -4.51500584       1.76715703
Si       7.80607226       5.18442755      15.09550740       1.53229240      -0.51631593      -2.25088700
Si       4.45310497       2.10277310       5.68830928      -2.77854139      -0.03621975      -0.61919744
Si       2.07927438       4.35901898      12.84965920       2.27590573       1.16963484      -0.44509043
Si       5.50737977       7.80579415      21.87308038      -0.91775264      -1.07023597       0.62930438
O        8.64808028       5.33229879      22.09371699      -0.19958229       0.56285894       1.49465767
O        4.30649336       1.41684448      12.52545457       0.60416734       1.57193499      -1.01856042
O        1.73750979       4.04722134       5.74399111      -1.41715909      -0.21094740       0.80120070
O        5.78973724       8.21927650      14.87813002       0.61366013       0.23895628       0.61743252
O        0.76176431       3.42670854      12.63006255       0.67412498       0.83606958       0.05209943
O        6.35063753       9.17845831      22.13849098       0.09774484      -0.29720857       0.69490174
O        9.12851919       6.13481291      15.02242850       1.15967703       2.33817493       1.45649899
O        3.49940806       0.69658377       5.39955867      -0.03854123       1.04358197      -0.08950978
O        3.38787160       6.40827276      19.04435467       0.53586873      -0.07038814       0.28767037
O        3.83227074       6.64537694      15.63684657      -0.56047224      -0.11692365      -0.52818919
O        6.72684442       3.46572686       8.54154230      -0.08739655       1.74091434       0.41617186
O        6.41356018       2.98575595      11.70847625      -0.28718886       1.31437440       0.60352498
O        1.31627650       8.26483753       8.34575390      -1.25406129      -2.57927916      -0.67012979
O        1.66179416       8.60380777      12.40282639       0.54147185       0.20219068      -0.95438862
O        8.57902409       1.76743701      19.00981264      -1.00864495       0.75362807       0.35741722
O        8.21075987       1.14405705      15.72992175       0.76003387       1.74207424      -0.71783928
O        2.35036818       4.83915865      16.98847781      -0.14736834      -0.73860737      -0.91976418
O        5.68368227       7.41915715      17.79274966       1.28216751      -0.50595871      -2.37522022
O        7.37002728       5.50509892      10.95764297       0.12898035      -0.24487204      -0.73238627
O        4.39543538       2.66125965       9.69735950      -0.07415765       0.14310909       1.10850613
O        9.57470097       7.37510590      17.81341247       1.17630521      -0.33441198      -1.34615042
O        1.91605247       0.35653113       2.70760381       1.71313045      -0.98324260       0.63806165
O        0.68273842       2.24373178       9.82811747      -1.70437988       0.69358173      -0.60035318
O        7.67293113       9.40560070      24.93329316      -0.50002195       0.25605703      -0.44725829
O        8.71285647       8.12506856      22.58912412       1.58198013      -2.84233982      -0.07997589
O        1.52428151       0.76134445      12.22035168      -3.05786059       2.24142154      -1.28598615
O        1.05870672       1.71004209       4.70636582       0.11748018      -1.54298708      -0.26092756
O        8.16530219       8.79329599      15.97938809       2.96762787      -1.82903697       1.00682536
O        3.51033852       3.92282501      12.07217094      -2.75857156       1.03432422       0.73813239
O        5.86459414       6.24467996       8.59463798      -0.52385924       2.61468626      -0.70838436
O        6.53646566       5.51377836      15.91936188      -2.35490177       2.28402370       0.65576964
O        4.27175909       3.52529548      18.70758410      -1.00770517      -0.61178906       1.18762998
O        8.98778305       3.44706417      11.60500535       0.18622442       0.56406975       0.51599339
O        6.28767380       0.98957353       8.87656306       1.91392972      -5.12946334      -0.13986075
O        1.24667128       6.72667602      15.79242825      -2.40349140       0.66334999      -1.51629510
O        3.70388143       8.99886938      18.46153188       0.34525460      -0.69507241       1.26515780
O        8.17948227       3.77676214      15.72511667       2.30101207      -3.53583179       1.40173723
O        5.90490448       1.68057602      19.13073131       2.44705228      -0.10015584      -1.27571080
O        1.81563103       5.95056702      12.40022870       0.39842527      -0.27428579      -1.35472193
O        3.94185908       7.99896586       8.74399957       1.24449250      -1.86597492       0.62243842
O        7.56752276       4.88294222      13.46667633      -0.37586708      -0.19694195      -1.04880030
O        4.59126517       2.14230215       7.35387161      -1.43323768       0.51996208      -1.77006810
O        2.44634505       4.51474263      14.47540037      -0.58950165       0.65779167       0.23110848
O        5.40944023       7.61409658      20.23336430       0.04313588       0.54328461       1.18254828
O        9.77683445       2.60446055      14.04382295       0.76281038      -0.63619778       0.18490983
O        7.52357838       9.65831978      13.50327978       0.44271663       0.53613216      -0.45849130
O        9.51846211       6.91137398      20.30653966       0.44735914       0.98363802       0.65762227
O        3.42167892       9.78612773      21.12660616      -1.21213113       1.21589912      -2.29778655
80
Lattice="9.77192453 0.01751879 6.90363604 0.24348012 9.76890588 6.90363604 0.01370155 0.0133883 13.86910312" Properties=species:S:1:pos:R:3:forces:R:3 energy=-577.01867077 source_file=vasprun.xml step_index=0 time_fs=2000.0 time_ps=2.0 file_index=1 pbc="T T T"
Na       8.07762253       8.84355900      18.11889454      -0.16942713      -0.38473094       0.08469273
Na       6.41262807       1.65963787      14.17965632       0.01296072       0.37074189      -0.27884819
Na       3.06802627       2.96115937       9.44404302       0.61764265       0.14454002      -1.05603220
Na       7.69177879       7.38706205      11.11004714      -0.22391600      -0.08202966      -0.10691279
Na       8.96774348       3.11440396      20.81550440      -0.18900728       0.32210235      -0.31380214
Na       2.90332275       2.57674482      15.57660493       0.07348952       0.69354526      -0.10055556
Na       1.77215557       6.70436583       6.25827052       0.31200803      -0.34941367      -0.14098028
Na       4.37411293       9.25791509      13.73705918      -0.47973313      -1.18099446       1.09094124
Al       7.52402051       5.20330440       8.89549951      -1.56990881       2.28917361      -0.25678702
Al       5.07299049       2.97825306      11.49245115       0.32579609       1.04497222      -0.89017154
Al       3.29168972       4.57823161      18.32734490      -0.74324087       0.07204250      -1.42147209
Al       5.93795832       7.23857526      15.95769418       0.52309160       0.21517283      -0.63856469
Al       0.93975420       2.06764311      11.54332941       0.29537878      -0.47178984      -1.05579254
Al       8.19384261       9.51424975      22.72233869       1.68946769       0.52088295       1.14607972
Al       0.33227060       7.75735758       8.85597259      -0.71322494      -0.44271934      -0.35434976
Al       2.53704945       0.25502364       4.37351081      -0.06755126       2.78123257       0.82659813
Si       3.04423177       5.82369179      15.35035452       0.08364730       2.13474187      -1.86550271
Si       4.93304585       7.30886068      18.82585454      -0.65289834       1.15916470       3.44232072
Si       7.82945312       4.25523227      12.08145672      -2.04295398      -0.42999905       0.31518628
Si       5.96090324       2.64817713       8.28885598       1.44623162       0.66604477      -5.19480886
Si       1.09617036       7.39700235      11.92912253       3.47310459       0.14875838       1.58709721
Si       3.07036675       9.23238902      22.26888608       6.42273035       3.78484235      -0.03129347
Si       0.09626722       2.68767235       8.63999609      -3.13611271      -3.00447137      -0.27643829
Si       7.63919372       0.74338010      18.71132274      -0.02311850       4.24967736       0.22861328
Si       0.87213535       3.00574109       5.77904268       2.91874765       1.53446582      -1.52127349
Si       7.54285482       9.58097597      14.69165278      -0.45776323      -0.77590165      -0.51471612
Si       9.84665433       6.93481842      21.79566258       1.24163047       2.15876558      -1.63724249
Si       3.45681778       0.49058229      12.42868200       1.96148265      -0.05050620       0.38801112
Si       8.51192586       5.42839173      14.80363556      -2.41304874       0.54045885      -0.29752085
Si       4.78524432       1.97238807       5.42544990       0.23127416       2.84267658       0.25542576
Si       2.39599763       4.50870682      12.41206292       1.41010060       0.72237871       2.27586519
Si       5.88257455       7.93100377      21.84049796       0.78010858      -0.37254081      -2.35121113
O        8.89271702       5.68091436      21.81787177       0.87309412      -1.47335781       0.30094234
O        4.83827367       1.39680105      12.03843010      -1.68659996      -2.12541695       0.98021413
O        1.82685912       4.45628791       5.48551843      -1.39308879      -1.96773545       0.15298706
O        6.06694760       8.84224384      15.09124036       2.64612397      -0.08325501      -0.21635322
O        1.30257976       3.27237812      12.74539071       0.88662005       2.11722530      -0.03224421
O        6.92676672       9.30706786      21.60309267      -2.50365844      -1.73793009      -0.85838717
O        0.17895927       6.08964762       7.94953340       1.25282923       3.63787200       0.47559872
O        4.12507318       0.57720708       5.11313098      -1.64159588      -0.84409805      -0.36215966
O        3.80852170       6.19357377      18.72739996      -0.23121962      -0.97419197      -0.35580019
O        4.33979708       6.87841684      15.49409689      -1.91011090      -1.60550317      -0.58485420
O        6.93568597       3.98957223       7.79958168      -1.51021662      -2.52339870       1.18676587
O        6.44022826       3.38626081      12.56031619       1.14536156       0.92368120      -1.60520704
O        1.85746713       8.32468209       8.12189365      -2.75823018      -2.01387889      -0.44148162
O        2.43218998       8.46609423      11.88006411      -1.78197448      -0.82830098       0.74033319
O        9.09309572       1.68527390      18.77077908      -3.18103459      -1.79592861       0.24058017
O        8.74467888       1.27861732      15.52697209       1.76534842       2.77865571      -0.43273191
O        2.79416506       4.80522205      16.50577106       0.42015862      -1.99714564       2.89798893
O        6.04147417       7.46691297      17.68616286       0.49190443       0.49652190       0.33563663
O        7.78697182       4.96665403      10.63145761      -0.24103229      -0.33758250      -0.63262053
O        5.27261691       2.90608997       9.63831624      -0.63709615       0.08062628       3.43856545
O        0.30182866       7.74042453      10.63430779      -1.72448352       0.36275267      -3.13379542
O        2.87054626       0.61284263       2.66281950      -1.55944635      -1.53147259       0.37876780
O        1.09812088       2.69711037       9.87136653      -0.73229321      -0.21797679       1.40526836
O        7.44388736       9.68197209      24.35016113       1.02549543      -1.38027994      -1.36309547
O        9.26681167       8.13029223      22.74419365       0.23370972      -0.27782480      -0.25330233
O        2.17064456       0.84952374      11.61051748      -1.25706499       0.72454537      -0.95661879
O        1.52013018       1.76593789       5.01715408       0.52961129      -1.91575452      -1.50724757
O        8.92628243       9.11548463      15.44281662      -0.65330038      -0.88523519       0.09386320
O        3.59126527       3.95660771      11.39553175      -0.60831040       0.21134090       1.09845899
O        6.56414389       6.85300174      22.75865853       1.82538775      -2.33965817       1.79558825
O        7.33679210       6.22491883      15.64515579       0.87893237      -0.54114682      -0.85131140
O        4.36397990       3.19067768      18.26624848      -0.85014964       0.21906390       0.85167941
O        9.08703704       3.28667774      12.29681525       0.43319429      -0.76580283      -0.01924189
O        7.04268598       1.36909358       8.14954750      -0.40171119       1.61634379       0.61687009
O        1.67897936       6.79019996      15.21733752       0.06792792      -0.38621600      -0.08293308
O        3.94776476       8.68536928      19.01438829       1.09604712      -0.75912655       0.07310488
O        8.90993340       4.02749705      15.55768047      -1.13932548      -0.62679341      -0.72203984
O        6.31542274       1.76639134      18.92842267       3.80347795      -0.23596611       0.14110727
O        1.87848039       5.97658413      11.89413076       0.12284964      -2.04265866      -0.42860357
O        4.52622958       8.29478626      22.64802933      -3.05447678       1.87194152      -1.26608076
O        7.91917636       5.49098943      13.11912108       1.22527935       0.54805674       2.79803594
O        4.65658817       2.40509249       7.10810062       1.47263319      -0.38300845       0.33833131
O        3.14026731       4.89275816      13.96560624      -0.55769937      -0.68224103      -1.51270295
O        5.60399876       7.03337366      20.39744175      -0.02774929       2.07089970      -0.68733008
O        1.07246273       2.63512350       7.33988785      -0.40880611       0.25741751       0.95631388
O        7.87250922       9.56350706      13.03402532      -0.07433015      -1.98620270       2.36566809
O        9.83156727       7.31733272      20.05305026      -0.52393840       0.83349598       2.11309969
O        3.15832685       0.74674170      14.05753861      -0.07713926      -2.31151660       1.16671101
80
Lattice="9.77192453 0.01751879 6.90363604 0.24348012 9.76890588 6.90363604 0.01370155 0.0133883 13.86910312" Properties=species:S:1:pos:R:3:forces:R:3 energy=-577.10242567 source_file=vasprun.xml step_index=500 time_fs=3000.0 time_ps=3.0 file_index=1 pbc="T T T"
Na       8.01096622       6.99926638      18.72107106      -0.42698804       0.08883070      -0.28262441
Na       6.62978484       1.62278500      14.22905759       0.00402807       0.07403619      -0.71694377
Na       2.95768456       2.61173230       8.71790798      -0.00813017       0.13149831      -0.01072081
Na       7.40652706       7.23088528      12.03331775       0.15102198       0.57631865      -0.48577258
Na       8.53566578       3.52869983      20.88427463       1.50883603      -0.36062405      -0.73974924
Na       3.46841034       2.63954404      15.39455519      -0.54138437       0.10878189      -0.09702679
Na       1.38669610       5.97678989       6.61701593       1.44016768      -0.00510737      -0.92673143
Na       3.92268360       8.92283736      13.76941683       0.25968498      -0.12745521       0.30646984
Al       7.42043412       5.56578747      22.71218802       0.14280352      -0.84347766       2.13373521
Al       5.02661170       2.88141397      11.46566846       0.57192450      -0.73246696      -0.16072338
Al       3.47424127       4.67965467      18.19314277      -0.44685664      -0.37382089       1.81575812
Al       5.99170370       7.21989002      15.78950112       1.47081387       1.60068113       2.44176147
Al       0.86673320       2.26168673      11.37854239       0.38627378       2.13978914      -0.23058785
Al       8.46551657       9.56853962      22.77726241       0.26997471      -0.49246177       1.57563129
Al       0.21649840       7.79693534       8.91843096       1.34209329      -0.31076094       0.65668497
Al       2.32336759       0.39595470       4.43367817       2.20832864      -0.81774239       2.13359131
Si       3.44084131       5.84917755      15.18660560      -4.26678909      -0.94918836      -1.90892918
Si       4.67856931       7.52348257      18.89486591       2.23387617      -6.21525947      -2.00748747
Si       7.77786476       4.28369214      11.89236813       0.87870961      -0.33167156       3.88048421
Si       6.02070189       2.66967202       8.30545401       0.53542666      -0.00501378      -1.31049040
Si       1.22115779       7.28474378      11.97058825       2.24887963       0.66556160      -0.83598304
Si       3.04457412       9.30112259      22.08982372      -4.17223391       0.58861273       1.79545285
Si       9.48432363       2.75090157      15.28007021       0.49338879       0.61555241       5.17307186
Si       7.79363739       0.74632172      18.94315028       0.13915709       0.91431066      -1.63654370
Si       0.84674437       2.96706054       5.52992667      -0.28922030       2.10359207      -1.01748798
Si       7.71480890       9.58693647      14.92342782      -0.57404017       3.83452940      -1.97669866
Si       0.34977257       7.10264654      14.91607400      -0.28172972      -1.91685661      -1.12793690
Si       3.24850878       0.54182688      12.48674745       0.42437659       1.62063002      -1.52955827
Si       8.40561914       5.43032369      14.83665234      -3.01452186      -2.24411139       0.56674911
Si       4.93734680       2.14195103       5.48268931      -3.06027967       0.22792244       2.68092334
Si       2.66931409       4.54964522      12.39553274      -4.25837163      -1.04085962       3.13777901
Si       5.90812112       7.94010537      21.68209501      -0.65189395       2.74099824      -1.81813790
O        8.98186452       5.83308226      22.00761318       1.57350952       1.33922149      -0.13497052
O        4.65745098       1.47678124      12.71198952      -0.93102603       0.50145541      -1.99293433
O        2.06361001       4.05043523       5.25847703      -1.16695137      -0.29227237      -0.19693954
O        6.23819541       8.96816657      15.08906158       0.20331459      -1.83734891       0.65683615
O        1.23818819       3.62596576      12.63727831       1.23681742      -0.91833907      -1.89206674
O        7.08251289       9.07152703      21.78598818       0.13351977       1.60260208      -0.67993459
O        9.66949671       6.33331064      14.89376144       1.93181221       1.01490288       0.07256812
O        3.87630607       0.94425500       5.59577536      -2.56547040      -1.37656709      -2.59819171
O        3.61956015       6.21530499      18.94581985       1.00449885       2.07178113       0.53812860
O        4.56913623       6.94535528      14.85984320      -0.01429153      -0.90840849      -0.08610821
O        6.81063928       4.08388028       8.05419980      -0.48265625       0.93881641       0.71276305
O        6.59619670       3.29944710      12.21342892      -2.17025210      -1.28367100       0.12163991
O        1.79999197       8.12100789       8.09371308       0.82311814       1.47740029       0.76946648
O        2.39459439       8.53952044      12.17895818      -1.94708221      -0.16789820      -1.45056260
O        9.07835263       1.71693060      18.58414500      -2.41544205      -0.38792436       2.06491425
O        9.00622169       1.26356545      15.26406486      -2.37351588      -1.74925655      -0.63316152
O        3.43603074       4.94185681      16.51112625       0.45437712      -0.09169380      -1.28461614
O        5.72554540       7.36842459      17.59824412      -0.71682588       0.23849499      -0.42006594
O        7.69132509       5.20065045      10.70642567      -1.32913922       3.61360151      -5.27796685
O        5.13539754       2.67208251       9.63578253      -0.07926802      -0.64289248       2.24696471
O        0.29665399       7.22723208      10.60507105       0.45724768       0.86095856       0.64766962
O        2.69790346       0.48209419       2.74873702       0.15619482      -0.99671721      -2.20815544
O        0.83726997       2.81767916       9.63878755      -0.43172079       0.18749605      -0.12696011
O        7.98823661       9.57338844      24.54432621      -0.58833062      -0.76711178      -1.64507566
O        9.76021614       8.42086804      22.68147197       0.40580276      -1.01244679      -0.43901698
O        2.07671658       1.04816037      11.47043507       1.89072264      -0.42071758       0.09594455
O        1.18074623       1.55161084       4.91060622      -0.96258087      -0.02652787       0.32448446
O        8.89369758       9.19392302      15.92149788       0.13318247      -0.77875293      -0.61969502
O        3.76844750       4.10147957      11.41299478       2.24945043      -1.77301882      -1.22669078
O        6.36683559       6.94618159      22.75235976       0.27856208      -3.11571384       1.91819828
O        7.46389555       6.19068857      15.90371426      -2.50728173       1.34905550      -0.55095709
O        4.65001727       3.45141301      18.51318406       0.21294868       0.49955449      -1.24167875
O        9.15301331       3.54185819      11.86934059       2.87955599      -1.97579712      -0.30680700
O        7.32728715       1.62206447       8.10540395      -0.61816331      -1.90645520       0.37927506
O        1.96607687       6.68517238      15.00977481      -0.24660203       0.30170397       0.89286390
O        3.87105866       8.79757585      18.93136539      -2.23818454       4.01554360       0.29344074
O        8.23554724       3.85054420      15.47253305       1.12995261       0.19143527      -0.95068512
O        6.34598163       1.57275713      19.13769943       5.38689260      -1.52173685      -1.29190129
O        2.17444601       5.95094617      11.91216626      -0.93381724       2.77411440      -0.65265308
O        4.44956347       8.64675342      21.99867181       2.28502363      -1.08532519      -0.02678327
O        7.94742625       5.35511539      13.24804215      -0.43811458       0.10840888      -0.00660898
O        4.86287551       2.47942859       7.13149986       0.69485645       0.81328337       1.11949622
O        3.13981369       4.68351164      13.97456249       2.04293075       0.27135444       1.32341434
O        5.74027356       7.37191905      20.13159001       0.91844517       0.18189330       1.31809722
O        0.52672781       3.18233873       7.13854033       2.38782184       0.30402843      -2.57322719
O        8.08828118       9.43808016      13.22100944       0.26614939      -0.46382460       2.14842728
O        9.93390900       7.31668011      20.11545799      -0.29897252       0.23844388       0.90373575
O        2.60627872       0.63463277      13.94867975      -0.42908469      -0.65286827       2.49680037
80
Lattice="9.77192453 0.01751879 6.90363604 0.24348012 9.76890588 6.90363604 0.01370155 0.0133883 13.86910312" Properties=species:S:1:pos:R:3:forces:R:3 energy=-577.99165562 source_file=vasprun.xml step_index=0 time_fs=4000.0 time_ps=4.0 file_index=2 pbc="T T T"
Na       8.05765343       7.83920491      18.34281631      -0.03908835       0.24060760      -0.08841832
Na       5.94613477       1.64120639      14.41746779       0.73131672       0.06756945      -0.19591035
Na       2.70487892       3.61968590       9.08349045       0.31742745      -0.21376878      -0.02197682
Na       7.91693859       7.38203886      11.76553370      -0.17608307       0.03518746      -0.16626095
Na       9.38509821       3.79498370      20.73334934      -0.97054136       0.01744452       0.13092561
Na       2.47594793       2.87378070      15.51686450      -0.12622488      -0.76696749      -0.09607018
Na       2.17452128       6.30297744       6.09273856      -0.66929193       0.74478387       0.89287751
Na       3.97734425       8.68530619      13.82245719       0.16380391       0.41813212      -0.25565151
Al       7.50806371       5.35832253      22.75132976       0.37650621       1.70860838       1.17382943
Al       5.00494754       2.76590831      11.54907700       0.26161737       1.12724978      -0.41243881
Al       3.50891185       4.66956679      18.20557007      -0.45342628      -2.11555143      -0.79534389
Al       5.92485491       7.10636230      15.82757375       2.02971840       0.92336527       1.62182188
Al       0.80114120       2.32780800      11.35137541      -0.63222839      -0.70030732      -0.36114148
Al       8.44494611       9.51678475      22.88613473       2.24270605       0.47671367      -3.29638192
Al       0.32173397       7.47113876       9.01142552      -1.25864907       1.86587382      -0.87285693
Al       2.54221700       0.54604227       4.37716977      -1.54198370      -0.76221495       1.63034351
Si       3.18747555       5.86761434      15.25617872       3.46242548      -2.72074671       0.24680423
Si       5.02022403       7.63461598      18.82389149      -0.18074672      -4.50584921       0.50967410
Si       7.83134262       4.27835337      11.96422010      -0.54623767      -2.77855291      -1.98370337
Si       5.99805275       2.53144235       8.44064480       1.02729573       2.03930593       0.01584332
Si       1.27409795       7.28896825      12.07263894      -0.11275065       0.50869539      -4.25650540
Si       2.85705383       9.25869602      22.08222191      -1.86572468       2.49929614       0.88590369
Si       9.49898962       2.63020174      15.25394800       0.23971099      -2.41616311      -1.63039168
Si       7.88661713       0.82867585      18.95920031      -2.35842964      -2.42300280      -0.15290260
Si       1.00299907       3.13402368       5.59987770      -1.82799556       1.63756743       0.51979890
Si       7.55234891       9.49630486      14.93168433       1.12502390       0.30532252       0.27370593
Si       0.52602919       6.93562205      15.03325226      -4.41331832      -0.10124594      -0.70069861
Si       3.09036849       0.43349941      12.36819955       0.72604106       3.08439330      -1.25439169
Si       8.37340400       5.38814702      14.79143418      -0.33649786      -3.38366569      -1.91672380
Si       4.89698912       1.91219557       5.57509443       0.75299490       0.16355261       0.05700778
Si       2.59700375       4.57455680      12.40263463      -0.11924874       2.20931942      -0.33589294
Si       5.93622519       8.07748355      21.75002737      -1.26354012       0.52120168       3.06978020
O        9.25286817       5.66328409      22.12652347      -0.14822250      -0.31125285       0.82964061
O        4.38398120       1.55360502      12.68812446      -0.89428506      -1.47235418      -0.84660707
O        1.84104210       4.42504091       5.02474952       0.82875333       0.43324588       0.59822797
O        6.19035075       8.58813527      14.97451796       0.63970463       1.57334966      -0.57333955
O        1.33640914       3.58491116      12.51077621      -0.63360863      -0.84340486      -0.25937149
O        6.86692110       9.31163904      22.24685561      -1.56303951      -0.06794814      -1.50057419
O        9.87654020       6.02830116      14.90730017      -0.92687373      -0.07619766       0.02973731
O        4.12585894       0.51688864       5.17736835      -1.22341068       0.21663798       0.71982844
O        4.15024392       6.14077879      18.78808650       0.42416379       2.09479990       1.16867812
O        4.45618053       6.88829261      15.06872781      -2.00160161      -2.14793356      -0.15810586
O        6.94525593       3.91568265       8.14361183      -0.74441807      -1.55011378      -0.16384299
O        6.59272312       3.21314941      12.11594191      -0.09181022       0.03450115       0.49583511
O        1.63092468       8.16754772       8.02233151       0.65935682      -0.07299989       1.15354822
O        1.98249402       8.75453534      12.02805714       1.01162998      -0.10536785       0.42012012
O        8.92111282       1.98329960      18.93077907       3.15262260       1.84261741      -0.03033134
O        8.73828220       1.17519184      14.95732110       0.61342207       0.32836039       1.48742944
O        3.17153631       4.69313985      16.40721479       0.89932449       1.12709773       0.99048993
O        5.99037232       7.40311014      17.61963526       0.99077092       0.48026950      -1.92778465
O        7.63802546       5.22118631      10.65182924       0.43407197       0.10534284      -0.45838204
O        5.16888542       2.60515233       9.82132142      -0.54137771      -0.38929912      -0.81674985
O        0.25688356       7.27433168      10.71015919       0.57336786      -0.11198609       1.47470627
O        2.48521932       0.70864890       2.65727941       0.44912859      -2.52297635      -3.32466963
O        0.63632623       2.80339790       9.64308238       0.48709900      -0.04528839       2.61032443
O        8.21026516       9.62696158      24.50066005      -0.06026209       0.78807932       4.64435708
O        9.65510273       8.22522750      22.66541705      -0.26355444       0.30351958      -0.29783494
O        2.03744919       1.05726518      11.24317477       0.76060168      -0.52659783       1.08069362
O        1.46784908       1.82384765       4.94524932       1.60000317      -2.60730995      -1.17039643
O        8.69406163       8.77466453      15.87275604       0.12347378      -0.36726305      -0.67121432
O        3.76377863       4.07754322      11.48623113       1.38939697      -1.48532202      -0.50872152
O        6.33472901       6.80814906      22.65430164       0.74104808      -1.21189082      -0.80384798
O        7.27620315       6.04445459      15.71113963      -0.32711366       0.04772097       0.14262445
O        4.33674946       3.13790675      18.56337741      -0.14295841       0.90383685      -0.44349134
O        9.20889122       3.40840056      12.09795833      -0.38089645       0.33391096      -0.67195505
O        7.06264754       1.32877587       8.48305426       0.56162780      -2.01106644      -0.22455986
O        2.06894628       6.90818212      15.47613651      -2.48181302       1.61894995       0.21385827
O        3.98655632       8.78250469      18.72944224      -2.73101990       2.69538110       0.18565950
O        8.30816466       3.66344471      15.10702440      -1.11672864       3.62644311      -0.03360256
O        6.41055787       1.44885329      19.11020150       0.19483725       1.06919302      -0.65519713
O        2.18096967       5.98124671      11.60137567       0.45705837       0.05393838       1.52299444
O        4.26607481       8.52183633      22.05005115       2.03976526      -0.49488024      -0.17971103
O        7.80818250       5.31806832      13.13302027       0.82094696       3.36928431       4.30937453
O        4.97223224       2.46176500       7.16480907      -1.05875449      -0.80305971      -0.54011947
O        3.05153352       4.89226871      13.95705870      -0.39599955      -0.16619041      -0.50735640
O        5.92013513       7.90240202      20.16537112       0.60183339      -0.57644999      -1.53255255
O        0.92355273       2.99912408       7.25563603       0.87056630       0.23105309      -0.64709733
O        8.09284258       9.61629051      13.35471635       0.75991774      -0.80879954      -0.41849423
O        0.36202039       6.86376786      13.33065949       0.58302263       0.95801942       1.23117874
O        2.31409129       0.47639948      13.79204235       0.51274311      -1.16581817       1.77039525
80
Lattice="9.77192453 0.01751879 6.90363604 0.24348012 9.76890588 6.90363604 0.01370155 0.0133883 13.86910312" Properties=species:S:1:pos:R:3:forces:R:3 energy=-576.46739107 source_file=vasprun.xml step_index=500 time_fs=5000.0 time_ps=5.0 file_index=2 pbc="T T T"
Na       8.34316807       7.19468229      19.12600931      -1.11584200      -0.39441940      -0.33019140
Na       6.57743765       1.30458116      13.22926398       0.84531539       0.03300807       0.35481443
Na       2.92910179       2.87903369       8.91392939      -2.10650831      -0.36469604      -0.92453773
Na       8.28187120       7.56510427      11.53710586      -0.16987762      -0.01782857      -0.28423561
Na       8.68274235       3.49766537      20.79778717       0.88373279      -0.46427608      -1.11048771
Na       3.28402583       2.67197120      15.44068416      -0.11426318      -0.34576257      -0.19137503
Na       1.75660396       5.87848624       6.90985981       0.90264290      -0.07103399      -0.77656411
Na       3.68943020       8.80397935      14.18048847       0.14397482       0.14173103      -0.44258391
Al       7.64545726       5.50038277      22.62181975       0.59396144      -1.46436143       0.62755925
Al       4.86592318       3.36932156      11.36732808       2.53714365      -1.71391707       0.01351862
Al       3.27684811       4.29372470      18.20433360       0.49454867       1.94379103       3.67195060
Al       5.83388977       6.89719356      15.89194637       2.88820811      -0.44562651       2.47013627
Al       0.86885500       2.17999231      11.62886471      -0.07436250       1.17530390      -2.32128798
Al       8.11696049       9.61457026      22.71415342       0.62918405       0.34142075      -0.26582389
Al       9.95661807       8.11719485      15.77520063      -0.03569418       0.24431263      -0.74214127
Al       2.81469392       0.44112399       4.41258746       1.05172417      -0.08789537       2.07660330
Si       2.91883112       5.68260760      15.44512545      -0.89811729      -3.38494557      -0.83122175
Si       4.94724790       7.21861871      18.98736392      -3.97939195      -2.11332112       0.72179957
Si       8.07458062       4.44748414      11.85450375       0.37092118      -1.07246576      -1.77835362
Si       5.78184324       2.85105531       8.39287443       1.42775346      -1.21359960      -1.77468067
Si       1.24975594       7.82695099      11.93497349       1.40457842      -1.88165752      -0.39151272
Si       3.16417618       9.25983435      22.18586580       0.58090993       2.85975163      -0.20464081
Si       9.72149922       2.57453443      15.29173767       1.30771769      -3.17103192       0.49066485
Si       7.72636849       0.77948645      18.89137479       0.80403973       1.55291950       1.36969640
Si       0.85784799       2.68589108       5.55501340       1.32178997      -1.84686144       1.53147352
Si       7.01434334       9.45985699      14.90934709       2.87519524       2.49316579      -1.32206309
Si       9.95537663       7.28675734      21.69236990      -1.58238659      -0.73610665      -0.36945135
Si       3.54127922       0.58137102      12.40784600      -1.07761564       1.26819597       0.00323306
Si       8.65377720       5.57606345      14.56127326      -1.22240920      -1.55121586       0.81587106
Si       5.16451967       2.30006969       5.56997287      -1.53828510      -1.34939066       0.29905161
Si       2.23104358       4.84925047      12.52605020       3.55025629      -6.39309078       1.82032428
Si       5.83208873       7.72460259      21.75032259       1.08371144      -1.86468022       3.11719458
O        8.75330325       6.12311180      21.32367874       1.85993839      -0.35494447       0.37218692
O        4.78747794       1.63611355      12.16374974      -0.75475484       1.28337965      -0.80056013
O        1.94323577       3.90686334       5.56759782       0.25565350       0.10062866      -1.60395605
O        5.74747375       8.50857223      15.23419727       0.24849110       0.20087964      -0.46341009
O        1.03527494       3.71754830      12.44046938       0.66470535       0.83118174      -0.20372907
O        6.78848332       9.01325651      21.71804613       0.32358155       1.44183156      -0.86440108
O        9.83892604       6.52203952      14.97925236       1.00379668       1.52920727       0.86341238
O        4.37290280       0.87558622       5.38767533      -1.91710408      -0.68419286      -0.62691006
O        3.67941645       5.93198673      18.84222385       1.61154540       3.27927328       0.72153187
O        4.43777033       6.17098019      15.38730163      -2.11558231       0.15572234      -0.40308793
O        7.00024954       3.93334339       8.10993058      -0.97553569      -0.85561488       0.64885584
O        6.56741358       3.87911104      11.89044636      -1.13656627      -0.36948238       0.76164727
O        1.70358079       8.63295233       7.99652547      -0.88477569      -0.63095709       1.26527392
O        2.65988168       8.55253460      11.93153400       0.76242055       1.65942937      -0.03789312
O        9.15071686       1.70722921      19.13719018      -2.48438503      -2.69671772      -0.07708542
O        8.61742909       1.33766016      15.20264308      -0.83276854       0.14882890       0.08294861
O        2.71751448       4.59033680      16.67300659      -0.87423743       0.76083668      -2.58332883
O        6.02264645       6.91570407      17.90118060       1.59008669       0.46044795      -4.03119394
O        8.30029091       4.94934969      10.32838939       0.57625723       1.27292695      -0.31412629
O        4.75912849       3.09237871       9.57231957       1.34902221       0.79818892       3.00579284
O        0.29121490       7.89106848      10.62744192       0.27826478       0.05049320       0.87101650
O        3.09102257       0.50592558       2.73925618      -0.16051454      -1.01365034      -2.29676429
O        0.75362980       2.60558784       9.81130899      -0.07480017      -0.27434276       0.20411509
O        7.70071171       9.73117734      24.38910442       0.40522258       0.68667513       2.12277852
O        9.09303618       8.15818711      22.74671784       1.94219507       0.10507055       0.21933601
O        2.15859184       1.08525901      11.61406930       2.65492403      -1.60559477       0.43892643
O        1.33141331       1.29834343       4.76131266      -0.52939655       1.88092415      -0.01735003
O        8.47523302       9.03106132      15.52920877      -0.81680972      -0.15265563       0.46774159
O        3.72692944       4.49165888      11.77445669      -3.25071842       0.97110725       0.66709218
O        6.38972395       6.56915453      22.83852516      -1.52083897       2.59265743      -0.33104654
O        7.26588710       6.01602742      15.30319559       0.28694065      -0.35864791      -0.61583798
O        4.73150085       3.35886294      18.32978639      -0.75181788       0.46551794      -0.95694938
O        9.07211562       3.16527629      12.19807478       0.39600554      -0.55014882      -0.21413129
O        6.27697959       1.22825719       8.47255587       0.70010871      -0.05470490      -0.18787668
O        1.71773450       6.81565283      15.26608400      -0.19805550       0.34386102       0.19595534
O        4.43136307       8.87097332      19.00890522      -0.06812623      -1.96881558      -0.13844933
O        9.24510093       4.02298740      14.91535779      -2.17605095       3.17300613      -0.62007178
O        6.74748966       2.02322777      19.25145343      -0.21798205       1.20401270      -0.25350589
O        1.84003725       6.23397219      12.11655970      -2.45767648       4.96644062      -1.15405888
O        4.36376192       8.15255151      22.22485313      -1.81308254       0.60777699       0.08615461
O        8.69727397       5.64650653      12.86825528      -1.51087425      -0.17921619       0.36768228
O        4.73236710       2.81787657       7.10820288       0.71843005       0.34218796      -0.59798803
O        2.71449886       4.56081533      14.15470368      -0.36102152       2.09427549       0.27455813
O        5.69949172       6.85625654      20.41827921      -0.08517036       0.44539656      -1.76727809
O        1.07100009       2.14955430       7.18060756      -1.02094881       0.67902927       0.28418928
O        7.61026270       9.57937016      13.23599175      -0.61810522      -1.38876407       0.46702434
O        0.39445967       8.07080860      13.32284284      -0.38667691      -0.03237146       0.43997831
O        3.12142274       0.70066977      14.02043243       0.60122135      -1.45638802       1.02241678
80
Lattice="9.77192453 0.01751879 6.90363604 0.24348012 9.76890588 6.90363604 0.01370155 0.0133883 13.86910312" Properties=species:S:1:pos:R:3:forces:R:3 energy=-576.50282681 source_file=vasprun.xml step_index=0 time_fs=6000.0 time_ps=6.0 file_index=3 pbc="T T T"
Na       8.03670721       7.25981712      19.12715966      -0.82963698       0.01413508      -0.79090312
Na       6.91873854       0.84490139      13.32662313      -0.10374530       1.67000692      -1.26308219
Na       2.98602375       2.66367395       8.48277587       0.02889099       0.03017027       0.47935350
Na       7.99407975       7.66681808      11.27169080      -0.26958241      -0.03675966       0.41298126
Na       9.52812532       3.76681311      20.70518620      -0.78490545      -0.52618413       0.28835703
Na       3.12700569       2.61739185      15.84986175       0.03866888       0.07759135       0.01065357
Na       1.30697327       6.72179544       6.52997406       0.59930697      -0.66414774      -0.76833382
Na       4.09140443       8.20324488      13.43485306       0.18014024       0.13203287       0.31472569
Al       7.87846115       5.38311672      22.91045583      -3.38041497      -0.90444508       0.15205935
Al       5.02739812       2.93897226      11.62017019      -3.59806891      -1.29872850      -1.52689975
Al       3.04749848       4.77229324      18.26415865      -2.24957768       0.23175965       0.66479205
Al       5.96231382       7.03327737      15.98492583       0.85117794      -1.51780953       0.20037759
Al       0.77743611       2.25394543      11.29211068      -0.90933855      -1.13182837       0.12898347
Al       8.39463013       9.42756303      22.63680921      -1.53937810       4.03298987       1.57486805
Al       0.36297994       7.94302585       8.78971898      -0.75798114      -0.16595213       3.27119677
Al       2.61321893       0.55569122       4.56453425      -1.35285640       0.54039385       1.21652108
Si       3.06997374       5.72321208      15.28245151      -3.68878424      -0.96310906      -0.88493416
Si       4.73167785       7.37526322      18.90471296       1.12513878       1.73074284       0.82766992
Si       7.60885644       4.39452647      12.17320646       2.34945868       1.94963501       1.15237756
Si       6.10241733       2.66463505       8.48806543      -0.79666313       0.21598393       0.90949718
Si       1.24471181       7.52475625      11.97004481       1.65493792      -0.56126850      -2.19249954
Si       3.25557300       9.28519397      22.41424582       2.62685166       1.69046060      -1.30353267
Si       0.10638224       2.39178214       8.15397143      -3.41077680      -1.01311150       1.34001216
Si       7.47371105       1.09592809      18.73685408       2.32208085      -1.79278078      -0.01628116
Si       0.85366648       3.06495612       5.22319750      -3.57717437       3.21809729       3.56306070
Si       7.52552934       9.46786602      14.71146794      -2.45472848       1.18383685      -1.75840443
Si       0.29585990       7.00344692      14.75746778       4.32192429       4.88804241       1.95362434
Si       3.23125035       0.45328310      12.66002858       0.06843532       1.77164062      -1.86318730
Si       8.45147137       5.30376781      14.91092201      -2.23131437       2.29940991       0.75665938
Si       4.73020193       2.37168422       5.62243083       0.04368343      -0.06028546       1.24360171
Si       2.46701612       4.58977671      12.48891810       0.32263975      -0.65507425      -1.53556118
Si       5.92697604       7.91484001      21.77222885       3.67802708      -1.00673674      -0.58608153
O        9.28938349       5.76293898      22.00365834      -1.21385144      -3.87821812       0.06510265
O        4.64547674       1.25958847      12.24300707      -0.46774104       0.23071805       0.21060565
O        1.24885599       4.67229635       5.12431096       2.94470394      -0.85243303      -0.78235751
O        6.32311209       8.34607494      14.89186753       0.28485418       0.81053336      -0.14438767
O        1.13509836       3.70798982      12.13765165       0.13530977       1.79478433       0.61216856
O        7.03925531       9.18342254      21.58902514      -1.75184234      -2.10448186       0.96946942
O        9.64268214       6.38590469      15.14692302       1.67982713       0.18876506      -0.38859982
O        3.88936423       0.99592098       5.71134835      -0.57731438      -1.36674586       0.09215946
O        3.79903172       6.11042670      18.95600696      -0.24929293      -0.32439865       0.47834957
O        4.48377085       6.26087384      15.33222343       3.95863538       2.41957311      -0.48502110
O        7.39318598       3.70543271       8.19453078      -0.87611352       0.91354251       1.20394787
O        6.18548794       3.68414560      12.52532097       3.24201879       0.98830265       0.76114909
O        2.02664467       8.33096363       8.29406768      -3.10651438      -1.20983176      -0.32887526
O        2.14642033       8.82730664      12.14042497       1.83415607       1.32005375       0.19843818
O        8.88726610       1.92003442      18.91164547      -0.09896563       0.15646934      -0.50657576
O        9.14783959       0.88501676      15.00781611       0.08348238       3.30629609      -0.94656789
O        2.78443048       4.89852389      16.59694338      -0.68230225      -1.22705509       0.09874669
O        5.85947069       7.46689775      17.72579995      -0.76844673       0.00392697      -0.40454218
O        7.87983178       5.29879536      10.81838363      -0.76886118       0.04935761      -1.10214765
O        5.19701934       2.64306231       9.91617166       1.52333072       0.81626394      -2.36768258
O        0.28394375       7.81710166      10.69280010       0.32151058      -0.93407184      -1.09475413
O        3.17166956       0.38184672       2.96912710       0.03554792      -0.19119603      -0.65734438
O        0.99352718       2.37163839       9.51356809       0.00986146       0.37647065       0.98503813
O        7.39907408       0.28289100      17.32496913       0.79908235      -1.24880472      -1.01160179
O        9.50328191       8.25281984      22.56375717       1.64102940      -3.59844735       0.45823730
O        1.82075645       1.15032711      12.13556646       1.64069270      -1.50272409      -0.30742409
O        1.41852163       1.95634529       4.27354300       0.46689375      -1.45786724      -0.20417243
O        8.88821801       9.12738327      15.40222634       1.43831069      -0.25918480       0.01125428
O        3.67888440       4.11602276      11.58072669       0.74214422      -0.99539739      -0.03801085
O        6.57695462       6.67448627      22.59666522       1.49091523      -0.44976833       0.53404306
O        7.26115663       5.79463765      15.97034626       0.22351679      -0.21014455      -0.63994294
O        3.81659157       3.27383327      18.50033824       1.42702939      -0.16732195       0.69866040
O        8.91773577       3.42031884      12.21560281       0.55770542      -2.45971001      -0.65011179
O        6.74236606       1.15820432       8.53739335       0.54651796      -1.43926017      -1.91886487
O        1.97566433       7.00452864      15.17829173      -0.97641387      -1.26364971      -1.09102814
O        3.61820149       8.63106450      19.02076829       0.21607343       0.85911926       0.73887545
O        8.79637807       3.75401867      14.97759929       1.06187122      -2.46000734       1.13453003
O        6.20764678       2.08357051      18.79186664      -1.11990930       1.04891058       1.11443871
O        2.27235768       6.16627053      12.17449796      -1.50365508       2.70406300      -0.75083522
O        4.50880207       8.20937270      22.30046478      -2.67496152       1.71695106       1.44597633
O        7.99860090       5.63920007      13.34868646      -0.98339209      -1.37587757      -1.32090527
O        4.79240836       2.90758879       7.32128444       2.15403583      -0.64874390      -1.70882890
O        2.83709065       4.51878848      14.07435657      -0.22860408       0.69244139       1.73713835
O        5.73195691       7.41443718      20.25530487      -0.19062555      -0.38989916      -2.14338645
O        1.06801222       2.68956457       6.93912581       1.94146576      -0.21389614      -3.00081430
O        7.68430502       9.52728731      12.91631205      -0.40193964       1.47169247       1.48725688
O        0.23845337       7.42924547      13.19770109      -1.94640445      -0.55500038       1.13582586
O        3.14695301       0.76852506      14.28902589      -0.10553322      -2.44456268       1.83331622
80
Lattice="9.77192453 0.01751879 6.90363604 0.24348012 9.76890588 6.90363604 0.01370155 0.0133883 13.86910312" Properties=species:S:1:pos:R:3:forces:R:3 energy=-577.44722891 source_file=vasprun.xml step_index=500 time_fs=7000.0 time_ps=7.0 file_index=3 pbc="T T T"
Na       7.75130450       8.04038051      18.29269301       0.45383488       0.02393596       0.04653832
Na       6.71342232       1.61170169      13.65504087       0.40732695       0.00135780       0.05500310
Na       2.83671779       2.15646304       8.70897458      -0.32396100      -0.09106658      -0.50043412
Na       9.11594317       7.61865062      25.02339101      -0.14619195      -0.13639169       0.05961537
Na       8.63676128       4.19428317      19.93960928       0.34181713      -0.18431785       0.11388257
Na       3.06835694       2.58873461      15.32341586      -0.32856463      -0.06122455       0.27195006
Na       2.44273771       6.24744452       7.32953641      -0.10053675      -0.54775978      -0.33824704
Na       4.54148892       8.49106427      13.07702497      -0.24196878       0.13138997      -0.06679923
Al       7.54013762       5.32968022      22.78099413       1.88067678       0.27074967       1.74169136
Al       4.86594959       3.04770382      11.32934708       1.38983660       2.39717441      -2.48677813
Al       3.17049004       4.60484477      18.35707166      -1.15562980       1.82795693       4.28498826
Al       5.70649417       7.06517460      15.86400497      -1.06903351       1.19694643      -0.94485734
Al       0.96783695       2.17861905      11.45386629      -3.64125444       1.60453612      -0.53803804
Al       8.13080486       9.60390749      22.80697891       1.73641899      -0.85171273      -1.15893586
Al       0.26513709       7.84139084       9.01496507      -0.11459398       1.25294804       1.94358576
Al       2.67210284       0.59354596       4.35140233      -1.96019590       0.72927361       0.86912344
Si       2.86365813       5.49824838      15.58905569      -3.72936764      -1.46775284      -0.15029956
Si       4.74300671       7.54876892      18.85318217       1.72028798      -5.02383043       0.94101754
Si       7.81098861       4.60269976      11.83345659       1.53908530      -0.65890228      -1.68515831
Si       6.00819300       2.43844873       8.49796854       0.44755236      -0.00792870      -0.05075280
Si       1.35063467       7.63637554      12.01522906      -0.61070118      -2.27038551       1.00083121
Si       3.26606095       9.14828619      22.18687904       0.73065810      -2.44968932       1.23046686
Si       9.44633308       2.60711111      15.28464976       1.80510818      -2.41578088       1.99177309
Si       7.74961618       0.69965049      19.02852840      -0.05933746       2.14361129      -2.50697741
Si       0.71711326       3.02796986       5.48430678      -0.40551740      -0.91651684      -1.15821437
Si       7.41645778       9.34700651      14.82570080      -2.07240139       2.11221359      -0.75649435
Si       9.92386486       6.98512190      21.89436676       1.26292265       1.26439321       0.34563195
Si       3.60192992       0.72041950      12.52707349       1.30937941      -1.61204179       0.68453122
Si       8.40586446       5.42197217      14.86598352      -1.71287436       3.54250703      -1.65616920
Si       5.00167454       2.25222065       5.55428535      -1.01265103      -2.06376652      -1.16767917
Si       2.43772751       4.77866926      12.41852838      -3.37719629      -2.32198293       3.11968502
Si       5.99003787       7.78275227      21.62556255       0.91909788       1.10497934       1.44239650
O        8.91706431       5.74543332      21.74170257      -0.27684139      -1.01729291      -0.42664091
O        4.90491051       1.76384603      12.41462112      -0.80920027      -3.27354149       1.54285965
O        1.66258301       4.34812506       5.58972241       1.10220722       0.50924439      -0.74259758
O        5.86639760       8.73518207      14.92930331       0.78413982      -1.36738469       0.62510755
O        0.99812520       3.90161541      12.12422047       0.66089152       0.17403005       0.06933132
O        6.77557307       9.20993134      21.75991461       0.46523077       0.29888808      -0.16881766
O        9.66589482       6.32369203      15.38706771      -0.37598315      -1.98826173      -1.77471979
O        3.88450762       1.01572095       5.50418409       1.69019379      -0.24496802      -0.40288202
O        3.59002835       6.35239037      19.12986813       1.11612358      -0.42782564      -1.33881391
O        4.29602394       6.07022068      15.52925626       2.00739632       1.74519912       0.24184322
O        6.84869796       3.79214580       8.76123613      -0.21483097      -1.26324933      -1.25630787
O        6.41675273       3.92442572      11.58906763      -2.62298280      -0.94141904       0.70492297
O        1.94075642       8.11108599       8.46920654      -0.08064462       1.43561533      -0.98892898
O        2.27313792       8.89948477      11.99496290       1.13282011       0.75781223       0.08883912
O        9.18395864       1.41263183      19.02506216       1.89077717       1.28749170       0.66897203
O        8.39633935       1.37454909      15.19507209      -0.43719975       0.21840358      -0.55025421
O        2.63523962       4.35784253      16.82954378       0.00446391       1.23299166      -4.38780883
O        5.71476512       7.47700312      17.53833145      -0.28365982      -0.09025734       0.79560444
O        8.15213041       5.59522955      10.58638479      -0.12006511       0.07063279       0.12836985
O        4.82292140       2.35837776       9.61122607       0.01582426       0.17361122       1.67792448
O        9.96548800       7.68316083      17.73739668       1.12720717      -0.16786133       0.23462974
O        3.15397747       0.21160022       2.73901851       0.09469747       1.45796399       0.66561788
O        0.72920580       2.22348445       9.66864228      -0.36007070       0.70589920      -0.16238513
O        7.68645491       0.05727985      17.53955499      -1.07083402      -0.83680143       1.90476952
O        9.43128045       8.23292751      22.88189276      -0.93985960       0.09371281      -1.38424901
O        2.39824791       1.51461755      11.98186077      -0.48039771      -0.42175904      -1.31497558
O        1.40851531       1.85849546       4.47171239      -0.69653960       0.96956504       1.07383590
O        8.56730973       8.85831615      15.77241633       1.64755145      -1.34193353       0.39029311
O        3.51523111       4.11101559      11.54486891       2.56374629      -1.66673841      -1.12703994
O        6.54599516       6.61726031      22.49367631      -0.79084261       0.43693917       0.42467236
O        6.97703188       6.21959216      15.20840336       2.83606429      -2.02898810      -0.03059551
O        4.37191615       3.44877572      18.59890620       1.39493855       0.33270719      -0.10027042
O        8.86249463       3.34960310      11.89652706       2.94509174      -2.19016550       0.28889147
O        7.08322041       1.17711923       8.47481193      -0.73967098      -0.10913483      -0.80774452
O        1.58913958       6.52365144      15.67894994       0.26623418       0.46543941       0.47779022
O        3.95730395       8.87375428      18.85456685      -1.32506549       5.45278118       0.79134160
O        8.64024656       3.99132524      15.46425102      -0.32754455      -1.70838302       0.97259701
O        6.56625310       1.91442139      19.07024631       1.20811966      -0.96200339      -0.67160978
O        2.53106146       6.29674258      12.08137349      -2.13721000       4.57544862      -1.05376182
O        4.52072926       8.00589030      22.17473398      -3.77636922       1.43560206      -0.16491198
O        8.27153248       5.25358865      13.20708030       0.10013791       2.06025371       2.59015498
O        5.13794331       2.42662846       7.09572197      -0.06458998       1.35219118       3.68936816
O        2.53888512       4.71608486      14.17206455       0.64024624      -1.37314140      -1.76258136
O        5.95437718       7.37024284      20.10326473      -1.14228761       0.07367927      -4.13657517
O        0.72312052       2.55361815       7.13004522      -0.32699721       0.15408597      -1.10312230
O        7.82149265       9.28254336      13.15813721      -0.42266963      -0.45517661       1.74074022
O        0.50346295       7.45538921      13.44993074       0.00703700       0.39312591      -0.83942858
O        3.19717190       0.53807316      14.12614693       0.21018621      -0.51415484      -0.04834994
80
Lattice="9.77192453 0.01751879 6.90363604 0.24348012 9.76890588 6.90363604 0.01370155 0.0133883 13.86910312" Properties=species:S:1:pos:R:3:forces:R:3 energy=-575.79324272 source_file=vasprun.xml step_index=0 time_fs=8000.0 time_ps=8.0 file_index=4 pbc="T T T"
Na       8.19285051       8.03699975      18.14077305      -0.75721634       0.15473186       0.14547275
Na       5.87993299       1.72561520      14.31530088       0.44262039       0.05399156      -0.21135074
Na       3.14218752       2.03446571       9.45597026      -0.07733720      -0.03932746      -0.70179386
Na       8.59944634       7.24474394      11.33156075      -0.24835515       0.18542819       0.01313122
Na       8.45709059       3.81774612      20.12551250      -0.07120758       0.52474863       0.01756099
Na       1.00007951       1.83393658      15.28602034       0.20008809       0.13421249       0.38528802
Na       1.94897772       6.99750899       6.31900237       0.36988103      -0.53720760       0.05576086
Na       4.12589684       8.17974539      13.43167841       0.45781592       0.27722524       0.11984041
Al       7.56057833       5.35052406      22.78827448      -0.35021874      -0.95770435      -1.02654453
Al       5.04890278       3.03983564      11.41646327       1.02170819      -0.39530217       2.01451499
Al       3.28896931       4.53863622      18.36477815       2.73753973      -0.48427488       0.56623443
Al       5.85909623       7.05742402      15.85334913       0.13739069       1.93956564      -0.63974089
Al       0.99371454       2.45877280      11.32269433      -0.59300421       0.90453471       0.29264216
Al       8.31238782       9.58249033      22.90394217       0.36949730       0.33787167       0.08576230
Al       0.35180812       7.58344554       9.03415947      -2.10499961       0.08882473      -0.25742987
Al       2.48653648       0.58191776       4.53330338       0.44018216       2.78496725      -1.04981893
Si       3.07551718       5.77944413      15.37530200      -0.97425007       1.06488995       2.82070008
Si       4.76776981       7.54674763      18.75672910       2.15479701      -1.67825881      -3.51783388
Si       7.66549208       4.44808268      11.97988930      -1.25003603      -2.32481606      -0.99517190
Si       6.15050152       2.46806912       8.48963282      -0.30033621      -1.24233577       0.44788744
Si       1.41871132       7.49235367      12.06899084       0.57355334       1.45992307      -1.35029140
Si       3.22162202       9.40190025      22.34745560      -1.28239162      -3.04118455      -0.77391254
Si       9.55633256       2.51138970      15.09037892      -0.32160704      -0.33201301       2.52029484
Si       8.01001850       0.80578808      19.12874082       0.12683014       1.43180784      -1.39148080
Si       0.83569103       3.25751523       5.47220725       0.86103449       0.65159526      -4.44775888
Si       7.56671178       9.41825348      14.92771109       0.03904198      -0.15720793       1.07018474
Si       0.20673503       7.06535827      14.94657177       1.09087346      -3.20572117       0.11992257
Si       3.38731425       0.60836966      12.42125233       3.17877535      -2.23606570      -0.09148198
Si       8.18902052       5.37509376      14.77516316      -0.30814232      -2.13915089      -0.10160364
Si       4.96058242       1.85337931       5.64925157      -0.74894436       1.06733824       1.09341584
Si       2.72234815       4.90339747      12.31689128       1.16292067      -0.25548393       1.74314675
Si       5.97039682       7.96167996      21.61944883      -2.26185581       0.72663662       0.93466114
O        9.27727868       5.56847146      22.17512262      -2.40921167       1.06573477      -0.62973384
O        4.89460524       1.30706285      12.00463713      -2.92457191      -0.08635913       1.72029249
O        1.93451506       4.55386832       5.53764196      -3.15356919      -0.79037800       0.68810987
O        6.26717167       8.52056674      14.85242671      -1.63035404      -0.34619516      -1.42695691
O        1.42572431       4.00647723      12.10379037      -1.61956466      -0.19632640       0.18716957
O        6.85867943       9.30256837      22.02640355      -1.90691554      -1.40226456      -0.70835677
O        9.56446024       6.07810041      15.13543112       1.70963076       2.35509442       0.31049002
O        3.97551384       0.51643798       5.52204301       0.51588773       0.87503840      -0.26584672
O        4.06866416       6.08188034      18.84786520       0.11107387       1.60081662       1.01654393
O        4.28362778       6.86931958      15.25858497      -1.88183898      -0.47418772      -0.30176967
O        7.06133334       3.69346393       8.07988685       1.72469916       2.60571050       0.31978438
O        6.39382516       3.53102941      12.44496379       0.32584372       0.27946177      -0.26796675
O        1.62429844       8.51119569       8.21976582       1.86649091       1.11169430       0.54180636
O        1.78394035       9.09348225      12.05313490       0.12989469      -1.51934127       0.28630217
O        9.33360112       2.06805300      19.12700642      -3.18725617      -2.99560738       0.49531801
O        8.58477703       1.14472717      15.03336899       1.59933457       2.32380253       0.30023883
O        3.27076216       4.81432575      16.72008852      -0.97529083       0.69810670      -3.91988722
O        5.97744440       7.56239888      17.46282802      -1.81412556       0.18433837       3.27108227
O        7.39227421       5.32376904      10.66375605       0.20506863       0.19618548      -1.04564877
O        5.28351247       2.73474747       9.80813075       0.26013287      -0.09978644      -1.77579943
O        0.51840541       7.22888892      10.75221559       0.03375599      -0.29941197      -0.41044848
O        3.10423754       0.58155883       2.81542014      -1.09558953      -0.23954189       1.19121607
O        0.76970461       2.64442218       9.62240589      -0.36954343      -1.05130307      -2.29100225
O        8.11865734       9.57014653      24.67779867       0.82713367       1.16229942       1.40808761
O        9.43296065       8.31162318      22.63268346      -1.04739120       0.49097728       0.79637614
O        2.16277585       1.20670439      11.66484477      -0.98533812       1.12808535      -0.75488122
O        1.54738413       2.20913639       4.31935400      -0.50347374      -0.32197999       1.47046822
O        8.43106719       8.50342432      15.91714110       3.61823661      -0.55525365       0.91468167
O        3.77970841       4.19577656      11.34229433       0.35735733       0.02643588       0.47424939
O        6.35657520       6.59503127      22.39096783       0.98961378       0.25143425      -0.96290925
O        6.77970188       5.69269105      15.51324512       2.09588960      -1.10589926      -1.13606894
O        4.39913930       3.13748945      18.67098035       0.09352372      -0.53374453       0.91397138
O        9.01773295       3.59058048      11.87177292       2.75161997      -1.57473842      -0.40741626
O        7.05430410       1.10888132       8.74766446       0.78772247      -0.01768795      -0.65020644
O        1.61027944       6.73930275      15.62596174       4.09401022      -1.28748759      -0.00958985
O        3.69125598       8.76176966      18.52994605      -0.64627205       1.86859686       2.14400124
O        8.54571338       3.78166687      15.29281995      -0.64268967       0.56910825      -1.49662749
O        6.58316120       1.72426488      19.15473107       1.73610949      -1.11086224      -0.06725003
O        2.80552340       6.53684763      12.09898234      -1.69224715       1.36580487      -0.75649364
O        4.31663438       8.22116613      22.19567677       1.60863366      -0.33099787      -0.56515008
O        8.13530750       5.48105037      13.03974712       0.15733962       3.16690697       4.59972067
O        5.08041872       2.07606892       7.35514721      -1.43757304      -0.14310305      -2.05466626
O        3.08976142       5.00571711      13.96821681      -0.58768085      -1.79160372      -1.20741918
O        5.77666475       7.93909145      19.95426135       1.15503502       0.09217940       2.60446902
O        0.77358473       2.55301995       6.86434232      -0.49927361      -1.12645933       3.20983809
O        8.43384841       9.56602147      13.48955597      -0.31095994       1.00397743      -0.82063929
O        0.46844429       7.31788468      13.34517937      -1.26753356      -0.55986712       0.52616888
O        3.12253042       0.63931069      14.16912003       0.14080417       0.78050590      -3.33829981
80
Lattice="9.77192453 0.01751879 6.90363604 0.24348012 9.76890588 6.90363604 0.01370155 0.0133883 13.86910312" Properties=species:S:1:pos:R:3:forces:R:3 energy=-575.90106994 source_file=vasprun.xml step_index=500 time_fs=9000.0 time_ps=9.0 file_index=4 pbc="T T T"
Na       6.25996179       4.36305272      17.10755299      -0.40841497      -0.44369524       0.58312589
Na       7.97793955       0.35015603      12.68165010       0.02684879       0.27033567       0.17625425
Na       2.72143296       3.16003669       9.05983343       0.52453092      -0.15447903       0.01707120
Na       7.48859965       7.71477980      11.47652421       0.29523161       0.21350310       0.30868918
Na       8.86341919       3.85719419      20.58630147       0.30792634      -0.11815394       0.17404006
Na       4.58944894       1.92203964      15.09342661      -0.25214202      -0.12125534      -0.17207556
Na       1.72126159       6.64523329       7.02032719       0.19258551      -0.50940409      -0.80195570
Na       4.02671291       8.88090243      13.61516965       0.26127477      -0.75744766       1.01008815
Al       7.50412629       5.64642334      22.74121657       0.89431748      -0.86428420       2.04720052
Al       4.99717448       2.86145383      11.55860554       0.03494104       0.00673414      -0.75079929
Al       3.39304078       4.68150765      18.32964141       4.79528180      -0.10871808      -2.98273695
Al       5.77862111       7.31687300      15.88669368      -0.18724642      -0.60194140      -2.23231745
Al       0.81029638       2.31256011      11.42477261      -0.10729685       1.02535072       0.55201551
Al       8.30275032       9.66528429      22.72489976       2.22346560       1.23401099       1.86909163
Al       9.84680200       7.77298275      16.16820605      -0.59836590      -0.82355542      -0.49512376
Al       2.63630789       0.41564996       4.50043527      -0.15978705       3.87039643       0.46130388
Si       3.27994002       5.83756713      15.12424441      -0.01890211      -3.55588634       1.69427071
Si       4.81052541       7.42205494      18.97642263      -0.99798633       1.33135114      -1.22206586
Si       7.77132275       4.46980296      11.96781733       0.16948465      -2.42733304      -2.18435038
Si       6.18208551       2.65880197       8.54099002       1.78019215       0.33363685      -3.74100684
Si       1.16193479       7.58928333      12.14191709       1.41478491      -6.55138772      -1.72238249
Si       2.91002010       9.20120052       8.50332032      -0.15486596       0.26518819      -3.19790249
Si       9.56959582       2.65836386      15.26436786      -2.01659300      -2.21081316      -3.25775849
Si       8.00443228       0.94106097      19.08636287      -2.28303288      -3.77118773       1.43703409
Si       0.99283715       3.21777927       5.46050125       0.46900319      -1.72148351       2.04830409
Si       7.45159006       9.58585848      15.05649630       1.47478540       0.10336363      -1.66795817
Si       0.32202799       7.05668035      14.84432783      -0.80845179       4.53236586       2.78642556
Si       3.06309988       0.50491757      12.49683557      -1.28303744      -0.63651727      -1.30143248
Si       8.11666425       5.40606105      14.80222491       0.08504236       2.68517450      -0.08439542
Si       5.08788163       2.15072312       5.62672325       0.11738084       0.06572414      -0.56541476
Si       2.60881027       4.57392669      12.54415691      -1.00812510       1.21252813      -4.32363297
Si       5.80873440       8.21611010      21.68926193       1.76623785       0.50647661       0.54251049
O        9.03217315       5.92192422      21.88427156      -0.94065844      -1.45654575      -0.42079415
O        4.35659232       1.47704946      12.50540010       0.91347556       0.96710748      -0.11449044
O        2.05400083       4.42749299       5.32419477      -4.23267522       0.30881360       2.25703564
O        6.03787692       8.83696113      15.03847748      -0.43431828      -0.14435893       0.62876010
O        1.18937107       3.83030229      12.30303911      -0.20051775      -0.92921977       0.53216210
O        6.65925678       9.66008679      22.13867434      -1.47342804      -2.20932996      -0.93872594
O        9.38527223       6.52629049      14.92090596      -0.59952782      -1.78287467       0.17093624
O        4.06938946       0.84863123       5.58274814      -0.22326136      -0.11262965      -1.32514436
O        4.07311000       6.00295711      19.23689822       0.42746259       1.71883613       0.81596228
O        4.31457011       6.98954772      14.82049535       1.10586349       0.39479270       0.58420044
O        7.13517340       3.97971944       8.52864415      -0.04292039      -0.03924717      -1.17499902
O        6.61484813       3.25824379      12.14439382       0.90616591       1.20978524      -0.03747412
O        1.65643732       8.18680175       8.57686592       0.07234023       0.63897225       0.19975693
O        1.92669602       8.86743064      11.89907992       3.46904743       3.51737502      -0.46142270
O        9.17317227       1.93513883      19.21905430       0.97108212       1.75704858       1.29005389
O        8.69419809       1.29857354      14.78202631      -0.15242397      -0.01251939       1.72692766
O        3.70470519       4.79515269      16.51288109      -1.17325459       2.00809929      -1.22437094
O        5.43316989       7.37836420      17.49050679       0.05343376       0.14185459       2.21848944
O        7.69415199       5.60247709      10.77178719      -0.08658656      -0.82267398      -1.49589820
O        5.38512694       2.62665808       9.82798605      -2.94943242      -0.78157243       3.16533797
O        0.32339645       7.15019404      10.87491402      -1.29748336       0.07771353      -1.08961113
O        3.05034569       0.34987037       2.80454401      -0.00883383       1.33516533       1.61604275
O        0.51994619       2.62269759       9.74044830       0.73103337       0.54961150       0.98881628
O        8.11198111       0.07583920      17.75595495      -0.32008964      -1.04412850      -2.26115353
O        9.56726268       8.45375653      22.77016529       0.36434235      -2.94374285      -1.78465159
O        1.86981072       1.00726031      11.39429001       2.88172167      -1.39824171       1.72395372
O        1.73406273       1.97587545       4.84753949       0.39469879      -2.34004408      -1.61621883
O        8.47690558       8.82523835      16.04507221       0.02668946       0.62965205       0.44778010
O        3.63323863       3.99272375      11.36905099       0.03701727      -0.16378095       0.53944558
O        6.42275126       6.88782582      22.37209960      -0.38284547       0.97591296       0.21986872
O        6.88278079       5.87520245      15.80260319       0.60564629       0.67763934      -1.33662224
O        4.72423990       3.43935906      18.53356381      -0.39094771      -0.71242942       0.20343171
O        9.28580289       3.50002661      11.78203483      -2.45526980       1.82162050       0.65735346
O        7.26341550       1.42201661       8.31466623      -0.99084760       1.44569479       1.37650620
O        1.78497002       6.49064671      15.29206221      -0.05562600      -0.04055904      -0.25217868
O        3.78753919       8.74483334      18.99645551      -1.04205621      -0.11673934       0.18204235
O        8.41576473       3.86064823      15.19065637       0.54437075       0.01557061       0.23969173
O        6.61538857       1.71292707      18.96170918      -2.40987279       1.87385701       0.34805463
O        2.28505625       6.16298238      12.29600629      -1.67257253       3.33693351       0.04528594
O        4.28793613       8.31370259      22.17401672      -1.18401542      -0.06049179      -0.37678050
O        7.59994669       5.48809017      13.19337793       0.94847030       0.43561150       2.66075100
O        5.10041829       2.66364639       7.18546659       0.96599989      -0.03279768       1.58638396
O        3.40015308       4.67157901      13.87957610       1.01195846      -0.22060177       4.07600267
O        5.89579233       8.00194852      20.06576262       0.86200973      -0.32382190       0.27659780
O        0.93084598       2.66044978       7.15912184       0.16069980       2.34677036      -0.83264570
O        7.89981470       9.60489744      13.47026594       1.45181998      -0.04889405      -2.71738896
O        0.30816536       7.92482713      13.41750377      -1.21020292      -1.21723119       2.11378498
O        2.49011818       0.53739958      14.06904290       0.46329370      -1.53617539       1.55751838
80
Lattice="9.77192453 0.01751879 6.90363604 0.24348012 9.76890588 6.90363604 0.01370155 0.0133883 13.86910312" Properties=species:S:1:pos:R:3:forces:R:3 energy=-574.24675607 source_file=vasprun.xml step_index=0 time_fs=10000.0 time_ps=10.0 file_index=5 pbc="T T T"
Na       6.42346037       2.97544531      16.39013773       0.00383357       0.32542016       0.13250852
Na       6.73590407       9.64135458      18.55209719       0.47465740       0.26474198      -0.38362255
Na       2.88024250       2.20750517       8.24874060       0.19580920       0.33469725       0.46969924
Na       9.00133240       7.50427360      25.28782384      -0.19525268      -0.10667805      -0.05911610
Na       9.24481738       5.30601634      19.11332645      -0.27898371      -0.05944719       0.30753344
Na       2.16159869       2.71131159      16.01995748       0.15817598       0.27252980       0.06616010
Na       2.78787565       6.33823944       6.94505451      -0.24177487       0.26937716       0.78193037
Na       4.22068365       8.35497918      13.42904441       0.16013441       0.06499494      -0.03417328
Al       7.61164545       5.49822440      22.83595226      -1.10071317      -1.04888153      -1.32244138
Al       5.09155547       2.86323962      11.28997249      -1.21997624       1.31901794       1.20966354
Al       3.48278798       4.61929534      18.66364095      -1.21829380       1.94458113      -1.78810816
Al       5.80586905       7.05176441      15.86529693       1.66773010      -0.04624227       2.18657851
Al       0.90906417       2.36233353      11.58154857      -3.31787816       3.03122306      -0.19332802
Al       8.20319765       9.71726435      23.12674531       1.36189346       0.08499481       0.41937483
Al       9.66968337       8.03910167      15.99523166       3.23563506      -0.77388463       0.28389384
Al       2.56201683       0.53110893       4.38192666       0.93273163       0.99586359       1.07110663
Si       2.96261300       5.89766215      15.40813979      -0.98531965       1.25727897       5.99853283
Si       4.99938763       7.61844407      19.02901005       3.15036261      -7.78924223      -0.01926537
Si       7.92752656       4.28899479      11.88430614       0.83839772      -0.56625472       1.93094454
Si       5.86644059       2.61785048       8.45101497      -1.48730986      -1.62544767      -0.42769741
Si       1.28550396       7.71504820      11.96740328      -2.97714030      -5.36514061       0.90022862
Si       3.08688332       9.29758199      22.21424554       1.50946653      -0.96350962      -1.40297609
Si       9.63798032       2.53205535      15.50806127       2.33906353       3.81874602       0.88803175
Si       7.82416841       1.15830214      19.18315858       4.13341886      -0.22153121       1.30817308
Si       1.00901798       3.11443350       5.76906262       1.94450062      -1.00662368      -0.14531498
Si       7.38999606       9.63645322      15.12655965       0.50468392       3.76451082      -0.74598284
Si       9.93282133       7.22745907      21.88682563      -2.85284878      -0.15614702      -4.02206145
Si       3.13006737       0.42103804      12.28334341      -2.71404202      -3.22445394       4.21829301
Si       8.29288798       5.35875267      14.88267546      -2.47541365       0.80102519      -1.56152744
Si       4.97873545       1.97693030       5.41184239      -1.16467590       0.21974196       1.21785916
Si       2.71587732       4.91795346      12.61551927       0.13062534      -3.47261189      -3.24653696
Si       5.96907351       8.22270498      21.85510162       1.33888372      -2.76887640      -0.20102267
O        8.81486316       6.05767982      21.66266425       0.06850634      -0.94525790       1.10905951
O        4.31841912       1.22545866      11.85689888       5.60728547       4.13303835      -2.03709582
O        2.14692090       4.27808791       6.01551423       0.25331819       0.76350765      -0.56248466
O        6.44082991       8.42943754      14.87622286      -1.75509805      -2.50737219      -0.38358314
O        1.32688339       3.91891898      12.26103203       2.48956477       2.20081645       1.08047170
O        6.58029421       9.66114838      22.32747038       0.97331852      -0.67300790       0.41175921
O        9.26100612       6.59981884      15.14794627      -0.20419098       0.82949879      -0.82967299
O        4.18085029       0.52243375       5.29865676      -0.54873657       0.94165860      -1.01525515
O        4.35401422       6.02610796      19.19130630      -0.14629154       1.57635802       0.80604409
O        4.15278937       7.04906812      15.38831825      -1.25974581      -1.10252260      -0.98346010
O        6.88773497       3.77781496       8.23780524       1.99360809       2.55837274       0.34298115
O        6.80076674       3.16267114      11.87433238      -1.72475367      -1.12343102      -0.65693732
O        1.69765377       8.50406852       8.42419607      -2.06149099      -1.06847309       0.40050788
O        1.89520797       9.07673323      12.18940418       3.11669669       4.54791591      -1.01966797
O        8.99387916       2.23438231      19.05913887       1.38405401       0.76488174       0.00180492
O        8.43546748       1.59365896      15.58997735      -2.90020904      -3.11665751       0.64666841
O        2.98623552       4.95518120      16.85223906       0.22932956       0.45212364      -0.89621796
O        5.87864175       7.50786232      17.69325384       0.99866748       0.41953409      -2.68684817
O        8.06209174       5.27691154      10.67671620      -0.20804504       1.47579384      -2.89223431
O        4.76210497       3.10423779       9.56943415       0.00888277      -1.04830244       0.01095717
O        0.38623474       7.34509056      10.64219676       0.48948393       0.56674897       1.63529297
O        3.19572460       0.41804641       2.72831909      -0.79675407       0.19820764       0.89858035
O        0.80563158       2.73599098       9.89096954       0.68030854      -1.20357493      -0.90023814
O        8.17563086       0.02673472      18.11774065      -1.01990256      -2.14737151      -2.75674965
O        9.52495331       8.46463553      22.76676100      -2.33570231       2.48377538       1.62532254
O        1.73074389       1.00083821      11.83667710       1.56882630      -3.48064184      -0.23610198
O        1.78053760       2.14726147       4.62250555      -0.50455764      -0.91779620       0.44138254
O        8.56402339       9.32496286      16.14534639       1.29201799      -0.59938129       0.46920316
O        4.12873878       4.23891861      11.99128162      -1.49789852       0.29839597       0.66604762
O        6.59067303       6.94891110      22.76873985      -0.98979416       1.49987239      -0.55563259
O        6.79126977       5.48902284      15.71955257       0.93513308       0.58608801      -0.93458193
O        4.47372009       3.30090582      18.45438091       1.28590023      -2.76464264      -0.29744059
O        9.41625676       3.59159984      12.03197063      -0.55277624      -0.39539981      -0.23662955
O        6.43735185       1.10903609       9.05527348      -1.24182552       1.62382110      -0.31240145
O        1.49186787       6.69006811      15.51452504       4.69943689      -1.64845518       1.45938761
O        3.85515740       8.55970915      18.80919102      -5.65726244       5.60880642       0.28592997
O        9.13047881       4.08496860      15.31472336      -1.21972955      -0.33271316       0.08076983
O        6.56635743       2.01197106      18.98060380      -3.29171084       1.54656755      -2.53189393
O        2.45282399       6.45668314      12.11497504      -0.22908655       0.92612204       0.04895478
O        4.37738372       8.19343685      21.68758866      -3.64697473       0.90050675       2.44583215
O        7.91513804       5.30266590      13.16829743       0.02188821       0.60948099       2.65969923
O        4.86840561       2.21855148       7.03173394       0.86085161       0.82024966       2.52020226
O        2.87763485       4.89782124      14.22232884       0.23565497      -1.52535686      -0.88999943
O        6.13169785       7.82090404      20.19270274       1.27566946       1.36516672       0.60436454
O        0.84469295       2.44151061       7.31537983       0.82815081      -1.06127972      -2.35720125
O        7.62937258       0.67710497       6.84834035       0.14254237      -2.13079577       1.26231686
O        0.36135337       7.60370803      13.37715873       0.27099518      -0.15351362      -1.31490967
O        2.92365363       0.52643340      14.04735950       0.24524527       0.69037964      -2.49822334
80
Lattice="9.77192453 0.01751879 6.90363604 0.24348012 9.76890588 6.90363604 0.01370155 0.0133883 13.86910312" Properties=species:S:1:pos:R:3:forces:R:3 energy=-574.59788526 source_file=vasprun.xml step_index=500 time_fs=11000.0 time_ps=11.0 file_index=5 pbc="T T T"
Na       6.44267738       3.64841590      16.71715831      -0.20288353       0.30172945      -0.08015832
Na       6.73747845       0.83885462      13.29988395       0.27976104      -0.16197296      -0.00956190
Na       2.90698413       3.57837227       9.12186962      -0.32164635      -0.20533214      -0.03300412
Na       6.98787028       7.42802064      11.37700212       0.15440455       0.34605335       0.02615796
Na       8.80302603       3.71297862      20.21693669       0.33166715       0.15292128      -0.02417055
Na       2.21106115       2.31120743      15.96617462       0.08297968       1.02329732      -0.07964777
Na       1.57576957       6.84164221       6.41614825       0.19695420       0.05022440      -0.12242648
Na       3.24606772       8.89937223      14.23286792       0.69600309      -0.09440019       0.36098766
Al       7.91745727       5.14316697      22.88825571      -1.39355029       2.97315796       0.47906267
Al       5.15238908       3.20434220      11.51184014      -3.07201498      -0.62392817      -1.43240828
Al       3.24520070       4.68343469      18.44116995       0.88462236       0.21493125      -1.39200175
Al       6.12836863       7.09469171      16.09395542      -2.13509225       1.10822601      -2.62098636
Al       0.98178054       2.18815839      11.41535488      -0.88871079      -0.28563068      -0.35376599
Al       8.41008978       9.55010058      22.80295858       1.52362195       0.06740756       0.26482788
Al       0.49256606       7.97782454       9.10236823      -0.23985760       1.59558162      -1.81170680
Al       2.28106574       0.47033654       4.42559441       1.79426238       3.49437142       1.73153024
Si       3.07076785       5.79746274      15.34083996       3.82633612       0.71004429      -1.86241216
Si       5.01969418       7.34669536      19.04890662       0.84411979       0.75266651       1.69403411
Si       7.86339004       4.47216913      12.02383504       3.16678849       4.32582810       1.78984058
Si       5.91366882       2.76254025       8.41860923       4.02657065      -2.76112915      -3.68035790
Si       1.19483315       7.66994172      12.10707571       0.08413466      -2.83392193      -1.11030224
Si       3.29747381       9.42546462      22.20456231       0.30834067       0.02177084      -1.33841290
Si       9.57425503       2.52978946      15.20699491       3.45851841      -1.92505424       2.04603120
Si       7.75712882       0.76695951      18.86899980      -3.63805245      -3.42725585      -0.12540525
Si       0.69962041       3.06998482       5.63952328       5.07436532      -2.05336131      -0.88778354
Si       7.62829978       9.56652989      14.88320014      -0.50967482      -0.06898712      -2.31817436
Si       0.28531625       7.01474785      14.91750859       1.19727396       3.56690064      -0.84667979
Si       3.62481837       0.57320228      12.30807898      -2.45355220      -0.66334734       0.21022975
Si       8.66310933       5.53020231      14.84173418      -4.36032805      -1.30861095       0.93103053
Si       4.87293871       2.26909655       5.59454378      -2.84571976      -3.50152801      -4.16516614
Si       2.52397432       4.72810080      12.57154888       0.02443860       1.13612797      -0.18673853
Si       6.06926430       7.86463139      21.90055756      -0.71926759       3.15831770      -0.42601592
O        9.44634633       5.61616301      22.18805990      -1.16035107      -1.02818350       0.21890305
O        4.90201704       1.48573706      12.01302992       1.50849213       1.44163230       0.02624396
O        1.67242119       4.28304012       5.27954105       1.39809173       2.42921828      -0.19579666
O        6.45252808       8.54095302      15.07706986      -0.86212209      -2.48948412       1.43823589
O        1.33949766       3.72032990      12.23010335      -1.91440516      -2.03909134       0.05585738
O        6.94510900       9.30716296      22.04352400      -2.39078371      -1.55673258      -1.55826138
O        9.83380028       6.53494808      15.12456363       1.87511136      -0.41305139       0.62615296
O        3.60647254       1.20180570       5.45148662       0.74585070      -0.32784010       0.75195260
O        3.92872477       6.19071133      19.11716864      -1.16118927      -1.39642046       0.92150993
O        4.47816674       6.72018022      15.14189428      -0.33488843      -0.55227832       0.57174348
O        7.34808355       3.73696167       8.16544112      -1.65412533      -1.13153914      -0.16076746
O        6.47095479       3.88696795      12.20744273      -0.36419919      -1.09582967       1.70608867
O        1.99522499       8.52383316       8.20138317      -2.99479309      -1.80180794       0.31198598
O        2.25231617       8.87006804      12.25679419      -0.36471627      -1.59257758       1.37586484
O        8.95802894       1.71374633      18.88220087       4.27600804       3.37524438       0.10969375
O        8.73101571       1.16242093      14.95405841       0.17030494       1.90538025      -0.12410178
O        3.29152262       5.07301515      16.70556377      -1.51566239      -1.37408588       1.75532879
O        5.90325595       7.37813912      17.77272701       1.29031912      -0.61898284      -1.71462894
O        7.98072949       5.41933404      10.74734170       0.10905206      -0.63973089      -0.94363915
O        5.22101905       3.33519622       9.66249642      -1.58843687       0.21695225       3.15300430
O        0.35781986       8.06398212      10.78119408       0.37211983      -0.54304895       0.57869173
O        3.04485079       0.37076127       2.86775114      -0.64848889       1.11401403      -0.56524395
O        0.65407384       2.56847773       9.75665273      -0.38691721      -0.15070477      -1.54705046
O        7.96726616       9.53826899      24.46012043       0.29246131       0.67287486       1.37667986
O        9.77516871       8.52877992      22.54249184       0.15470798      -3.23338449      -0.60242326
O        2.40643937       1.14542565      11.30289499       0.46037616      -0.63240612       1.34290416
O        1.17475933       1.87246655       4.65547932      -0.26411106      -1.53410320      -1.01918896
O        9.05660521       9.14038124      15.43011579       0.26330919       0.81464208       0.84429064
O        3.89102019       4.35032233      11.87930851       1.09282361      -1.05387563      -1.69232447
O        6.71020370       6.76999534      22.82313042       0.97033032      -2.33742116       0.79274420
O        7.25678443       5.84918002      15.71322143       1.63511013      -0.98273521      -0.12225909
O        4.41039660       3.31703488      18.17305693       1.45244659       0.64255222       2.39154444
O        9.03787287       3.40169772      12.07534233      -2.94860474      -0.52854943      -0.03173208
O        6.46027069       1.13929973       8.30290708       0.38124362       3.28708075       1.10422672
O        1.92076193       6.88548465      15.07111520      -0.59417867       0.48631874       0.38044323
O        4.24481082       8.75634869      19.13378579      -1.28260121       1.69384667      -0.44926834
O        8.65582921       3.80847283      15.25735503      -1.20897400       3.49331203      -0.94439329
O        6.21615126       1.41573394      18.91205198       0.10213692       2.53239789       0.10266408
O        2.00869214       6.15426070      11.93726408       0.07132267       1.62655005       0.25421712
O        4.49702566       8.40463526      22.19199232       2.77209511      -1.86420802       0.01741276
O        8.35003595       5.72663953      13.24358530      -0.64886324      -2.26809065      -1.44897842
O        4.81229161       2.71641131       7.14126574       1.09390651       1.83907005       1.54279599
O        2.90240716       4.56310115      14.15500067      -0.59461284       1.25404946       1.83474345
O        6.10408996       7.47105659      20.33902177      -0.63428111      -1.09978113      -1.35561934
O        1.10566308       2.78000010       7.21946827      -2.27716732      -0.39971677       0.60824125
O        7.86334247       9.55860723      13.19412667       0.61241142      -0.26820338       0.97584640
O        9.91550964       7.25876227      20.16134441      -0.81189303       0.50393866       1.29438779
O        3.06248220       0.65365846      13.89980593       0.33298876       0.48490161       1.40951428
80
Lattice="9.77192453 0.01751879 6.90363604 0.24348012 9.76890588 6.90363604 0.01370155 0.0133883 13.86910312" Properties=species:S:1:pos:R:3:forces:R:3 energy=-575.51319367 source_file=vasprun.xml step_index=0 time_fs=12000.0 time_ps=12.0 file_index=6 pbc="T T T"
Na       6.33044673       5.14241410      17.88842908       0.32653461      -0.44944115      -0.45929426
Na       6.61181556       0.96956520      13.35295392       0.40200379       0.21369699       0.24945863
Na       2.69555317       2.31399833       8.93629326       0.13337767      -0.25082547       0.24595726
Na       9.01646589       7.24261228      12.40229866      -0.05591722       0.08892536       0.17064768
Na       9.47306413       4.63806526      20.11743985      -0.74253011       0.12234843       0.53660192
Na       3.37831932       2.54863716      15.91245774       0.20271664       0.83338223      -0.44727941
Na       3.96597409       5.61810624       7.82200248       0.11242918       0.44107048      -0.18255357
Na       4.67744943       8.30693764      13.01252580      -0.21495083      -0.05611591       0.09928358
Al       7.27914707       5.54172482      22.64903652       0.84579418       2.05576778       0.54293287
Al       5.17223296       2.77472095      11.41861207      -2.40010953       1.21171384       0.06928875
Al       3.42947324       4.78643551      18.54131224       3.04817030       1.87416532      -3.48462846
Al       5.72777723       7.51727012      16.02164202       0.74458276      -3.15006219      -0.06164330
Al       0.67740701       2.40575887      11.49989134       3.23986295      -0.69194245      -1.03618768
Al       8.39671287       9.56019745      22.77307700      -0.43583857       0.96893832      -0.01447425
Al       9.92304270       7.66107227      15.78465879       0.70628157      -0.42091673      -0.53650780
Al       2.43236519       0.57648859       4.40517070      -0.76539634       0.37237814      -0.55162045
Si       3.26937541       5.81725977      15.27228375      -2.11210075      -2.17869012       2.03275017
Si       4.64902455       7.62375832      18.91508579       0.88109335      -1.82254428       1.35291006
Si       7.71920579       4.30902657      11.75816218      -0.28488538      -0.13250062       4.67127706
Si       5.92217031       2.78014086       8.20678720       2.98178738      -2.58002919       3.10861850
Si       1.40913170       7.40164138      11.82563057      -0.60970103       0.07309914       0.45695951
Si       2.74339321       9.25412635       8.31999785       3.75075013       2.13798891      -1.13618613
Si       9.37007938       2.65887490      15.29816819      -0.54533795      -0.97067309      -1.12456946
Si       7.74665378       0.87492619      18.95030129       3.83628165      -0.74722041       1.13212319
Si       0.84871449       3.12891482       5.61774529       3.34491740       1.64848131      -0.25817411
Si       7.61286777       9.61801229      14.94722583       0.46242358       4.15456608      -1.06056410
Si       0.25856863       7.07171172      14.77399393       2.65442819       3.64008096       0.51737407
Si       3.11474511       0.60831669      12.43330804       1.21082927      -0.69644664      -2.83262749
Si       8.06249001       5.37458021      14.87984947      -1.21484820       0.89795105      -1.17894291
Si       5.02263548       2.10242061       5.39360626      -0.83325222       1.90279923       0.79352273
Si       2.79055525       4.62305280      12.51356387       2.81045264       0.93372393       0.52838497
Si       5.63203345       8.23741187      21.83551641       2.37477571      -0.19399694       0.08277489
O        8.96136974       5.98275546      21.93000799      -2.79157614      -2.80823159       0.60478054
O        4.48635484       1.44773913      12.47821478       2.06355699       1.08660716      -0.26364954
O        2.09631390       4.34564829       5.44016209      -5.46285898      -3.69771279       1.79119597
O        6.23189662       8.93033640      15.25631566      -1.58304282       0.15666494       0.29502079
O        1.43736496       3.87339297      12.30694246      -2.54125583      -2.83675013      -0.75326444
O        6.69290945       9.42844033      22.31189931      -0.62253120      -0.96913131      -1.83569635
O        9.46672826       6.26067223      14.74348796      -0.68719246      -0.05362904      -0.13183426
O        4.08720508       0.75869607       5.16007773       0.03474364       1.73818538      -0.30597660
O        3.79478625       6.31266193      19.31385798      -0.25035146      -0.84436492       0.11940589
O        4.35710363       6.89244040      15.04436225       2.83240664       2.75741188      -0.29686541
O        6.59591783       4.22075733       7.94046219      -0.30850424      -1.05039817      -0.64424770
O        6.77063195       3.03711297      11.99149251      -0.23380033      -1.20895519      -0.40503729
O        1.73711058       8.13837411       8.16797653      -3.50794886      -2.53772563       0.18747598
O        2.37501027       8.73598636      11.83013606      -0.72728506      -1.06262871       0.30070774
O        9.23000439       1.85537832      19.42256171      -3.63761670      -1.59241725      -0.60979219
O        8.62648641       1.20591826      14.91521225       0.66073132       1.84190259       0.18677153
O        3.60997399       4.98300769      16.71590963      -1.24577083       0.49142664      -0.72629859
O        5.68676255       7.19034259      17.75220489      -0.70636505       1.64146873      -0.72849491
O        7.25403254       5.23468339      10.54988283       1.35546699       0.29314665      -0.49984171
O        5.08961589       2.64949005       9.66535896       0.49575651      -0.13423798      -1.76579123
O        0.58839794       7.10551594      10.45384191       0.23540865       0.18698777       1.19972756
O        2.76579786       0.51056893       2.60976005      -2.12435392       2.37026617       2.38432967
O        0.52170332       2.55106793       9.71497094      -0.39591776       0.44639599       1.02701102
O        7.94186325       0.06192541      17.56517409       0.30225374       0.45320975       2.17426507
O        9.63153592       8.39695597      22.66630844       0.78286418      -2.11200573      -1.64429810
O        2.17690795       1.32769655      11.39347794      -2.03830382       1.12068102      -0.86598971
O        1.03378735       1.76707807       4.79893182       2.51361555      -1.46744681      -0.48471636
O        8.85324917       9.05362970      15.76481992       0.30287752      -0.39032177      -0.35869878
O        4.03278494       4.26142302      11.55036448       0.56815471      -1.51582651       0.33003719
O        6.09115348       6.80576173      22.37498990       0.78854003      -1.52429137       1.46321546
O        7.07757232       6.24352283      15.86765367      -0.11088650      -0.35295462      -0.45466221
O        4.77034384       3.62765670      18.56202744      -0.26426966      -2.18340046       0.80099780
O        9.24622253       3.74276116      12.09617362      -3.13997152       2.23294787      -2.07360539
O        7.27777749       1.59403665       8.20062936      -2.01614976      -0.10801165       0.11691300
O        1.84460919       6.67386623      15.22642237      -1.19804628      -0.65665674      -0.20904313
O        3.69919787       8.85412383      18.75282891      -0.81435210       1.60736064      -0.88503594
O        8.14575723       3.81198115      15.41272262       1.66597573      -0.57508364       0.51705472
O        6.58754350       1.95217514      18.77607991      -1.16033195       0.44783490       0.52542403
O        2.34896596       6.13497553      12.21471048       0.64006349       1.61625404      -0.29375664
O        4.25087065       8.60018230      22.50923146      -1.01203888      -0.86085446      -1.18324747
O        7.31533318       5.10826058      13.38562372       1.52635332       0.88112370      -2.00544694
O        4.83898499       2.45717186       7.08593503      -0.90871958      -0.89502291      -2.39013970
O        3.30191550       4.60128030      14.15038758      -0.71745901      -0.36712373      -0.82993750
O        5.58916120       7.75209104      20.24750779       0.53807429       2.17335998       0.29431580
O        0.81204902       3.03545257       7.22752785      -1.03330152      -0.94848209       2.37554647
O        7.62672683       9.50828360      13.25130700       1.07898717       0.43378565      -1.42613735
O        0.29886284       7.39516545      13.09953878      -0.00383355      -0.08935175       0.87182491
O        2.49972818       0.36631510      13.82850186      -1.03255606      -0.35229059       4.25721266
80
Lattice="9.77192453 0.01751879 6.90363604 0.24348012 9.76890588 6.90363604 0.01370155 0.0133883 13.86910312" Properties=species:S:1:pos:R:3:forces:R:3 energy=-573.79036693 source_file=vasprun.xml step_index=500 time_fs=13000.0 time_ps=13.0 file_index=6 pbc="T T T"
Na       8.91290803       5.93887825      17.55472384      -0.40422219      -0.21357399       0.17399397
Na       8.44595631       0.88925092      12.83702412      -0.09243524       0.34315886       0.04868780
Na       1.75876199       8.83212922      16.87602983      -0.10770557       0.07396915       0.48469576
Na       8.24354859       8.00642902      12.83023927       0.47766889      -1.47189484      -1.04294996
Na       9.24640092       2.40205398      21.46318894      -0.24544596       0.42620417       0.11609723
Na       4.03957120       2.53579178      16.06166505       0.16786448       0.06984173      -0.44207390
Na       3.66820655       5.14351467       8.15767187       0.14265056       0.13825628      -0.05997595
Na       3.80307216       9.20252219      13.83517124       0.60180701      -0.53094180       0.60474728
Al       7.35186747       5.46951772      22.73134303       1.70494909       0.69225765       0.49526895
Al       4.95674956       3.29700582      11.20858402       3.01019155      -0.41309503       0.23417838
Al       3.20840497       4.75806117      18.30708886      -0.65725062       0.48225905      -0.20582636
Al       5.76686427       7.14977902      15.80036680      -0.54368882      -0.47676710       0.98351457
Al       0.83592076       2.26091410      11.35922016      -1.13965915       2.42012499       0.11259109
Al       8.34214549       9.53162151      22.82182269      -0.76540584       3.17429076       3.04238235
Al       0.30828124       8.13688313       8.62519642      -1.14369881       0.46034545       4.48305430
Al       2.49026439       0.44324452       4.53250594      -1.90624206       1.47965279      -0.74879484
Si       2.77816209       5.86282387      15.29617046       2.19448559       0.82039351      -1.73566435
Si       4.88616191       7.46095779      18.88103424      -4.51885346      -0.12639977      -0.23367735
Si       7.76459474       4.43098704      11.92642277       1.73519968      -0.77105998      -0.57009485
Si       5.98979880       2.88686151       8.19247372      -0.32827174       4.36748984      -0.08933300
Si       1.20769825       7.55321267      12.01105169      -1.97528183       2.22579505      -1.47998676
Si       3.19655630       9.52392393      22.21600964      -1.32123293      -4.27414215       0.98541476
Si       9.33650481       2.59951154      15.35125781       2.36622744      -1.95272862      -1.63030634
Si       7.82484578       1.14634213      18.88582165      -1.09437502      -0.32347778      -0.78068247
Si       0.79817380       2.88311169       5.50225590      -0.74308962       5.86968670       5.24967586
Si       7.29316321       9.70489731      14.94907662      -0.52369811       2.15697515      -0.79377659
Si       9.86837217       7.28794120      21.48836761      -1.47801948       1.78731784       3.96931693
Si       3.21317947       0.71553956      12.30194678       3.29412092      -2.13762380       1.03252857
Si       8.32668189       5.54331883      14.70841093      -1.15696906       0.61993586       0.22066878
Si       4.96854437       2.22072564       5.29114964      -1.51828866       1.75046146      -3.81565618
Si       2.69063299       4.78089044      12.50566033      -0.38379625       0.61388316      -2.86090579
Si       5.76999808       7.82241342      21.74819748      -0.28013265       0.11017773       1.75344490
O        9.05581017       6.21516556      22.33123711      -2.60731739      -0.38960532      -0.40143026
O        4.27781063       1.84081491      11.73583865      -1.57565685      -2.85198060       1.09128538
O        1.82628705       4.19436461       5.35492664      -1.01432090      -1.63205976       0.53867906
O        5.94714595       8.75194927      15.04014601       1.57424086       0.69965470      -0.44177536
O        1.66920763       3.74409728      11.83077604      -1.27108667      -1.05699883       0.49536063
O        6.82887650       8.93278159      22.47605030      -2.39181611      -2.71462167      -1.69969848
O        9.43257822       6.81690416      14.82603817      -2.05764943      -4.29964259      -0.87586089
O        3.95767979       0.97386239       5.27852286      -0.35759505      -0.89844913       1.41611127
O        3.84936489       6.14342464      19.13661368       1.86202882       1.48026820       0.49093215
O        4.24063972       6.65608425      15.19775039      -1.95591796      -0.22694959      -0.79589860
O        7.29235183       3.94395859       8.02825130      -0.55783891      -2.21669534      -0.47629967
O        6.63152309       3.36915168      12.16688016      -3.81320592      -0.64544597      -1.30507860
O        1.73802622       8.53395855       7.98760394       4.71226218       3.35901472      -0.43169699
O        2.32688684       8.71655235      12.29202971      -0.53034032       1.44871877      -0.12355034
O        8.99178455       2.27138873      19.15492568      -0.13000534      -0.53307205       0.05430264
O        8.29365212       1.38527328      15.17471553      -1.39654071       0.22036753       0.05048842
O        2.54094595       5.41229707      16.75276122       0.01674670      -1.67576102       2.12473658
O        5.70379461       7.25485065      17.54946140       0.77709549       0.55394945      -0.52052494
O        7.79383649       5.33128483      10.58762198      -0.86780352      -0.35848659      -0.48132546
O        5.08157619       3.48225731       9.44643603       0.17354158      -0.69648042      -1.52596544
O        0.44178026       7.79310594      10.57969460       0.21953080      -0.05177082      -1.09534029
O        2.85284678       0.66016574       2.83333488      -0.07272478      -1.36240533      -1.83657539
O        0.51373658       2.30309641       9.69166844       0.09617468       0.04283767       0.82763283
O        8.48838942       9.70578202      24.80913539       0.19721270      -0.27041605      -2.23859770
O        9.73030151       8.91567484      22.21343234       3.00398906      -4.31959341      -1.80826940
O        1.76479074       0.90006449      11.70617512      -0.57779004      -0.98462828       0.38009176
O        0.99379439       1.72541799       4.56576063       2.46905559      -5.71819461      -2.52606284
O        8.69691919       9.20792098      15.52173555      -0.82343620       0.93735882       0.68346349
O        4.04359712       4.61577032      11.62079169      -1.14355073       2.10951596       1.74067775
O        5.80087362       6.16362019      22.09098584       1.80280779       1.96060228       0.43527694
O        6.92614640       5.88964784      15.59144145       2.56415880      -0.08282967      -1.24569355
O        4.27317215       3.36238175      18.08628743       0.70374872      -0.49954190       0.92694467
O        8.99315107       3.36420726      12.31816380       0.53808623       0.24485989      -1.29428205
O        6.56803647       1.50469388       8.62471791       1.61379152      -4.70125511      -0.39539623
O        1.60217881       6.82855292      14.76859547       1.69376303       1.46422666       0.33742794
O        3.68232246       8.78202213      18.80759553       1.08671997       1.22863015      -0.17663152
O        8.72855515       4.07821978      15.40309577      -0.50593009       2.64061790      -0.37588510
O        6.31051523       1.78808590      18.33040805       2.55133175      -0.57581436       1.36299945
O        2.08045766       6.28822700      12.07517321       1.39906572      -3.22693678       0.39587947
O        4.29200997       8.17463482      22.41979803      -1.05662186       2.13770343      -0.65927109
O        8.03590299       5.54766040      13.07856136      -0.21531934       1.28028061       2.02639208
O        5.14025144       2.92586664       6.69747411       0.99325032       0.08322188       3.26611128
O        2.67435794       4.69377915      14.11350973       0.84932970      -0.70612678       1.21934650
O        5.78511738       7.95502414      20.10869292       1.21061260       0.21079977       1.25047933
O        0.69474706       2.42279912       7.20949996       0.29204690       0.30876147      -1.87902832
O        7.59309386       0.20432209       6.41452399      -1.52342096       1.43342428       1.49317119
O        9.57833661       7.46285739      19.94853710       1.00798793       0.52772359      -2.96684182
O        3.37056521       0.73842028      14.11526139      -0.29523219       0.91250632      -2.54537402
80
Lattice="9.77192453 0.01751879 6.90363604 0.24348012 9.76890588 6.90363604 0.01370155 0.0133883 13.86910312" Properties=species:S:1:pos:R:3:forces:R:3 energy=-576.25425178 source_file=vasprun.xml step_index=0 time_fs=14000.0 time_ps=14.0 file_index=7 pbc="T T T"
Na       5.98031610       4.96506900      20.14321885      -0.19263900       0.56103007      -0.06029936
Na       9.25670403       1.04094788      10.32751463       0.11299730      -0.24583641       0.25490257
Na       1.88068416       8.70537335      17.09772695       0.11380218       0.19648794      -0.08429049
Na       7.47964465       7.44685964      11.53197894       0.12168266       0.33926384       0.21259586
Na       9.15510152       3.41448160      20.93318949       0.64150165       0.21545023      -0.21274279
Na       6.57675750       1.25842752      13.49420948       0.11655355       0.29374188       0.29244979
Na       1.72464786       7.00394484       6.69805433       0.41420409      -0.52728771      -0.02327365
Na       4.31653029       8.65515109      13.57049145      -0.35321489       0.28093215       0.04338295
Al       7.58431712       5.34870155      22.80904827       0.08299035       1.87688854       1.37872375
Al       5.02440984       3.04558809      11.37586280      -0.02137973       0.45413576      -0.16717598
Al       3.26855182       4.84465006      18.44371134      -0.20440240      -0.40310928      -0.97596159
Al       5.82708747       7.25850542      15.89355724      -2.64222172       0.41863184       1.45213299
Al       0.67119278       2.33650500      11.37397211       1.46751602       1.04187849       2.26533570
Al       8.15112473       9.67313981      22.90218257       1.67749702       1.53716279      -3.93656861
Al       9.91683678       7.93714476      15.97266185       1.83455815      -0.01319678      -2.73580229
Al       2.63079052       0.54688741       4.47029832      -2.75864254       0.96163008      -0.24229504
Si       3.22367573       5.79686843      15.19716614      -1.75564719       0.72989504       0.74379540
Si       4.61948970       7.68003841      18.89743877      -2.48432188       0.26027381       3.51760826
Si       7.68775393       4.51839998      12.17787732      -0.82320813      -2.91537259      -1.77448821
Si       6.22046381       2.57124506       8.33540792      -1.40023345       2.72254158       0.56303402
Si       1.29801118       7.60672882      12.07337979      -3.29172339       4.23335686      -1.03852554
Si       3.12166523       9.49173082      22.16885260      -1.80145368      -1.58950512       0.45320007
Si       9.43793757       2.82005659      15.41604427      -1.00418534       0.25210275      -1.27386950
Si       7.80503070       0.83957558      18.98055172      -2.35379867       2.15585254      -0.74677193
Si       0.72262167       3.08871987       5.58461420       1.50646349       0.02087743       1.58758888
Si       7.48730758       9.55508389      14.76824919      -0.05722933      -2.19047768       2.94813701
Si       0.34502020       7.18193646      14.94970570      -0.28980953      -1.57905506       0.98760255
Si       3.39582321       0.72993200      12.33525018      -0.63194730      -0.78713059       2.32162990
Si       8.37873032       5.59136508      14.81609750       0.40899421       2.11422073       1.88937004
Si       4.94240529       2.22126392       5.61306036      -1.67060765       2.26123079       0.61622692
Si       2.20599702       4.69561550      12.44651689       2.11916058       0.22323765      -3.79876653
Si       5.74242321       7.96728799      21.81772855      -1.45526054       0.41343506      -2.88217578
O        9.28738673       5.88382397      22.49977827      -1.22147824       0.22600053      -0.73238782
O        4.84330302       1.33055360      11.97945490      -0.06680057       0.73654665      -0.34397811
O        1.82168128       4.28380513       5.53336119       0.23220488       1.23048392      -1.97926803
O        6.08859161       8.85696359      15.30516336       0.90033797       1.22080380      -2.04869600
O        0.76850528       3.92846600      12.31631228       1.24430059      -0.48390999      -0.32503975
O        6.69585850       9.22049927      22.02351714       1.05215147       1.46119874       1.15326658
O        9.80392120       6.41378394      15.04701683      -0.80755690       0.60633438       0.04189311
O        3.95775876       0.97319384       5.47894678      -0.08219546      -0.45585363      -0.25986527
O        3.67213675       6.39104469      19.12127998      -0.58037922      -0.43281714       1.01080640
O        4.47021826       6.71653381      14.68421496       0.30421686       0.05244617       1.00328994
O        7.24230750       3.84212319       8.07813692       0.66311388       0.76272646      -1.19935622
O        6.30226510       3.66586486      12.49824512       1.04631667       0.30167304      -0.20092863
O        1.62979938       8.69916857       8.19604199       0.46776908       0.07846483      -0.28017699
O        2.23893872       8.93784212      12.34104007       0.57819558      -0.68014438      -0.03933449
O        8.97122667       1.92383894      19.16736052       0.02211683      -1.07768307       0.16460292
O        8.24469685       1.65776983      15.21272158       0.67137306      -1.46540209       1.27025756
O        3.50856519       5.24612748      16.68562526      -0.26788921      -1.13890363      -0.02212799
O        5.47858560       7.60869964      17.68010876       2.78789400      -0.71940143      -6.33879855
O        7.37691736       5.39271542      10.79106861       1.01256450      -0.93604554      -0.84491339
O        5.62421762       2.99067627       9.69873202      -1.25808892      -0.06803173       3.40512813
O        0.48649227       8.09164339      10.65738171       0.78528554      -0.82714111       4.41827661
O        2.86196559       0.66119041       2.68508668       0.12870807      -0.06234475       2.37748760
O        0.65152127       2.78527736       9.78424308      -0.72586180      -0.62181842      -1.68767327
O        8.20489841       9.68430708      24.57541458      -0.23555169      -0.48005067       1.33239755
O        9.57922102       8.63820461      22.39251155      -0.31798586       0.30244068       1.24192775
O        2.08781502       1.26529034      11.62432502      -1.85905168       0.98998568      -0.76000349
O        1.16058761       1.75924356       4.86806732       1.89939442      -2.30467839      -2.18350581
O        8.76176348       9.19219839      15.73091296      -1.25346030      -0.06449037      -1.19561283
O        3.54803896       3.95345598      11.58074579      -2.43295894       1.14144113       1.50341473
O        6.40362585       6.62742198      22.25145739       1.51661453      -3.11102813       1.43688109
O        7.12392686       6.33671577      15.52701540       2.13580420      -1.17303617      -0.66572817
O        4.57160957       3.70640869      18.74249594       0.55234916      -1.88666861       1.41712110
O        8.90803196       3.15364878      12.17794505      -3.52195704       3.48194736      -1.76336329
O        7.10045848       1.30198603       8.27611949       1.72636207       0.31087938      -0.13226820
O        1.88014385       6.82633607      15.60705634      -0.35392380       1.23876268      -1.24184940
O        3.45605125       8.88987155      18.92908518       0.75195874      -0.92305848      -0.82047422
O        8.46756440       4.22614359      15.62829225       0.95972872      -2.22471917      -0.98753851
O        6.35489093       1.82599656      18.87133008       3.88423964      -1.83201850      -0.16062509
O        2.11076182       6.33692824      11.87186581       2.48379918      -5.22210091      -0.31874167
O        4.19444281       8.17377351      22.31054973       0.01949259       0.96187502       0.10900212
O        8.15751865       5.73294795      13.16800465      -0.03397227      -0.82512140       0.22080984
O        4.99952304       2.47086261       7.30276200      -0.18234392       0.23430577      -2.55637724
O        2.54490396       4.87155120      13.97611301       1.29705327       0.29041370       3.16332336
O        5.67040658       7.82877556      20.12578470       0.05631243       0.18281101       1.27845379
O        0.65493928       2.87526014       7.17586987      -0.80961209      -0.24679083       3.01883116
O        7.82613504       9.45835250      13.17385820      -0.22446477      -0.56920781      -0.11270139
O        0.19898055       7.24354013      13.32419409       1.02195551       0.38169520      -0.81322983
O        3.18951741       0.71616009      14.02060866       0.59080520       0.32503102      -1.15528792
80
Lattice="9.77192453 0.01751879 6.90363604 0.24348012 9.76890588 6.90363604 0.01370155 0.0133883 13.86910312" Properties=species:S:1:pos:R:3:forces:R:3 energy=-574.64602675 source_file=vasprun.xml step_index=500 time_fs=15000.0 time_ps=15.0 file_index=7 pbc="T T T"
Na       7.40768619       6.84898648      18.46689463       1.08455133      -0.10555122       0.37019567
Na       0.18160504       1.37831902      14.52803826       0.28277011       0.04584415       0.39186382
Na       1.61176816       9.18554295      16.60421565       0.12676815       0.42674492       0.40104267
Na       7.92668003       7.43877164      11.41977371      -0.02804759      -1.07245965       0.12171423
Na       4.64895365       2.89898855      15.55448344      -0.28491529      -0.00669243       0.40540846
Na       7.06537627       1.15428794      13.34849219      -0.32426813       0.36267604      -0.51065258
Na       3.32604114       5.08336114       8.06795805       0.03935274       0.26886276      -0.11436584
Na       4.24575012       8.65614183      13.30614388      -0.13972951      -0.09293717      -0.09971750
Al       7.57218610       5.49853088      22.71464394      -0.63881421       0.48643924      -0.97845509
Al       4.61496467       3.17285836      11.42259303       2.21980736      -0.66270741       1.57714114
Al       3.16685675       4.75626153      18.64187205       0.59857838       0.90517480       0.22856154
Al       5.55787218       7.17534166      15.98847126       1.39037735      -2.61800505      -0.83754682
Al       0.44134520       2.49043069      11.77650822       0.89125590      -2.24116605      -3.17205903
Al       8.02797369       9.78059535      22.89772868      -0.57973018      -0.81626854       3.34086563
Al       9.85876244       8.15096703      15.87964219       1.58920603      -1.44416853      -1.89690314
Al       2.27188402       0.69102743       4.38950036       1.76604320      -2.68261827      -1.57014306
Si       2.74675423       6.13734877      15.68014614       1.64715372      -2.23926170      -2.10939886
Si       4.57119439       7.44107340      19.02491514      -0.40607267      -0.51199402       3.27837218
Si       7.79974587       4.25091979      11.86469761      -2.85875971       1.19287171       0.85246500
Si       5.76907473       2.87614713       8.29655522       0.26054191       2.30783991       5.13316034
Si       1.07483156       7.43394755      11.95808492      -0.46885027       6.47537281      -4.11528107
Si       3.09733578       9.36852629      22.28582628       0.41949630       1.07522132       1.11388219
Si       9.31256358       2.64215640      15.42091840      -0.29489120      -0.44435367      -0.40961713
Si       7.37597891       0.94388005      19.14933868       0.99234191      -2.13747099      -4.39975164
Si       0.63555991       2.73479396       5.70288704       1.98752460       0.52829632      -0.19894346
Si       7.02590625       0.06684947       8.17528822      -1.13343100      -0.09977289       2.13025116
Si       9.74800381       7.48865870      21.53074019       1.66208418       2.68148864       1.63051717
Si       3.24253102       0.59665017      12.33522155       1.89823035      -0.36348600       0.78376479
Si       8.29572426       5.58662394      14.60427920      -0.26533412       1.89317669       3.08104210
Si       4.87717862       2.21674743       5.40030840      -2.60207442      -0.74110032      -2.64736459
Si       2.27323620       4.71048033      13.08110409      -0.06402922      -2.13872624      -1.26913602
Si       5.79757147       8.10634493      21.95420471       1.40917989      -2.92454271      -1.11245503
O        8.88205156       6.20818845      21.52902152      -1.79983303      -2.56951544       0.98800731
O        4.63492533       1.52167129      12.31019615      -1.49951177       0.31890807      -0.66631707
O        1.92709821       3.86032611       5.62292623      -2.32758112      -1.14537913       0.60153321
O        6.15106535       8.68715931      15.43499191      -0.30324492       1.34758027       0.15533037
O        1.05181592       3.57598634      12.90523016       0.60794963       1.01952833       0.33841055
O        6.65691398       9.45224445      21.93529281      -0.75337870       0.79316871      -0.62850585
O        9.48498319       6.80144076      14.83595209      -2.12594543      -2.26640683      -0.67687204
O        3.72416333       0.99403517       5.34133173       1.32986090       0.55635086       0.48560345
O        3.56554021       6.29641262      19.62032916      -0.27563862      -1.23821398      -0.11883356
O        4.13089979       6.75078488      15.01939199      -0.24844373       0.94276502       0.62769942
O        6.48991649       4.29694133       8.06514218       0.86517137       0.37808507      -0.06388242
O        6.33247125       3.52987224      11.93124974       0.96904562       0.23932524       0.86567703
O        1.74815680       8.52396519       8.50093180      -1.74270465       0.20128878       0.07910587
O        2.23600475       8.65290369      11.63519565       0.06011015      -0.90898549       0.88557515
O        8.72729979       1.74230125      19.47190638       2.13551174       0.67470894      -0.18303578
O        8.04649056       1.59958929      15.54505914       0.55148657       1.71291936      -0.65059377
O        3.07033647       5.70385118      17.16635580      -1.36040472      -0.61336329      -0.25678593
O        5.39036538       6.92156587      17.77855686       1.37997593       0.16572156      -2.35671030
O        7.96471213       4.96426811      10.47030600       0.49458029       1.86862896      -2.27707780
O        4.73926757       3.20912200       9.72792537       0.45676679      -0.86619944      -4.13347391
O        9.89367710       7.61271752      17.43637782       0.54180242      -2.37133598       5.16236699
O        2.98394643       0.88824096      16.46668949      -0.77420850      -1.15372586       0.23070584
O        0.45336695       2.64219148       9.81204490       0.43444486      -0.26267126       3.50901971
O        7.84058708       9.47226321      24.79571126      -0.04473915       2.82105100       0.58599267
O        9.30993300       8.70420322      22.63512496       1.64016242      -1.94589616      -1.50841890
O        1.96048501       1.22277651      11.64929208      -2.11944798       0.71890045      -0.75607896
O        0.82339088       1.44335700       4.77005352       0.18140085       0.39503315      -0.48319920
O        8.62408376       9.30889641      15.78718300      -0.52272086       2.32182183      -1.35406272
O        3.60859483       4.37225583      12.17369911      -1.35281259       0.05734962       0.94260930
O        6.62643490       6.99391856      22.84885462      -0.50959707       0.49847435       0.11384365
O        6.80273755       5.80646065      15.35050627       0.08914335       1.82499310       0.55927844
O        4.34663163       3.44181588      18.35720233      -0.45846906       1.49649557       0.03931617
O        9.01000642       3.28053177      12.02639111       0.81005227      -1.17778302       0.65427608
O        6.81817083       1.69191304       8.66512536       0.58789414      -2.31793172       0.10472406
O        1.57250599       7.15832727      15.32071957      -2.16190760       1.33223765      -0.43450974
O        3.87055175       8.85721118      18.57374295      -0.42195634       0.54037966       0.16284158
O        8.66062729       4.08876977      15.19076140       0.42679708       0.76948044      -0.57773501
O        6.30274364       1.96328451      18.46723190      -0.11790509      -0.53064496       0.90645836
O        1.66244244       6.07782376      12.43657300       0.40122731      -1.04946948       0.52753088
O        4.29887322       8.22760831      22.47183934      -1.24327478       0.86275452       0.44324568
O        8.10380908       5.45770407      13.03127026      -0.78187825      -0.28235232      -2.69582842
O        5.11913092       2.46457329       6.94450580      -1.59679762      -0.10531834      -0.38211730
O        2.46906103       4.71175386      14.70338796       0.52038129       1.31256438       0.84090376
O        5.71014172       7.51616948      20.36608941      -0.46747231       0.98322744      -1.34571583
O        0.43390546       2.07879572       7.19952552      -0.25237649       1.06189618       0.86376692
O        6.79411321       0.14577862       6.56148226       0.34519489      -0.48246538      -0.22559802
O        9.87327853       8.18460019      20.01602061       0.00681656      -1.42707840       1.25199538
O        2.87039040       0.30076383      13.89862843       0.22382610       0.18535497       0.41229300
80
Lattice="9.77192453 0.01751879 6.90363604 0.24348012 9.76890588 6.90363604 0.01370155 0.0133883 13.86910312" Properties=species:S:1:pos:R:3:forces:R:3 energy=-575.14931302 source_file=vasprun.xml step_index=0 time_fs=16000.0 time_ps=16.0 file_index=8 pbc="T T T"
Na       7.63848430       6.55913665      18.12004474       0.56771424       0.06811845       0.05079625
Na       8.91526125       3.57321242      20.61375217      -0.35819872       0.49050188       0.58049885
Na       2.78258415       9.41374976      16.37977390      -0.50790671       0.05616771      -0.16680576
Na       8.77291583       7.51648125      11.93740444      -0.16937368      -0.27449740       0.00840623
Na       2.91750238       2.99249592      16.01032152      -0.05234056      -0.30138269       0.24497548
Na       6.01347766       1.69268494      13.97620369       0.26135942       0.13947930      -0.48845579
Na       3.12938433       5.18165106       9.54677626       0.05659162      -0.36268094      -0.10487433
Na       4.53329849       8.23135006      13.38483599      -0.45808061       0.58887454      -1.04244005
Al       7.52959224       5.59868377      22.78922740      -0.01365899       2.21413296       1.65067797
Al       4.78442617       2.95321689      11.35442274       1.49188161       0.29902687      -1.52941730
Al       3.06066763       4.84730995      18.43020400       1.24745476      -2.16477227      -0.12828485
Al       5.66364529       7.10961661      15.85469824      -0.02595111      -0.89727099       1.68699659
Al       0.58893661       2.29415038      11.48678379      -0.09287015       1.00228047       0.77281455
Al       8.24545817       9.78301549      23.00636809       2.24932831      -0.04096085       1.15434461
Al       9.68276924       7.88651735      15.95645422       1.19024280      -1.11301799      -1.38477516
Al       2.32886399       0.46576172       4.39634645       0.24712478       2.46367356       0.14414942
Si       2.95935879       5.96613310      15.41315040      -2.01195571       1.06053229      -8.88347045
Si       4.62152836       7.42306710      18.95055611      -0.68420699       1.81854454       0.41358144
Si       7.69757848       4.41387713      12.00985847      -2.76099094      -0.51397216      -0.55837259
Si       6.02080894       2.93382352       8.38194098      -2.25378131      -2.28267562      -2.86330951
Si       1.22031740       7.44468175      11.80295305      -1.98332012       0.13823211       1.39132699
Si       2.77730822       9.35339829       8.43745486       1.37412550      -2.85406863      -5.12148799
Si       9.64857482       2.82679139      15.46905874       3.12281726       0.32779279       0.20472117
Si       7.52824956       0.73473990      19.18215515       3.67175489      -1.20522263      -2.39144162
Si       0.76204819       2.97283357       5.68404533      -0.11632563       0.47923604       0.18317726
Si       7.19557102       9.59813633      15.10969056       2.73743879      -0.30362954      -1.26944892
Si       9.89686335       7.35795067      21.72925604       1.58205412      -1.99864672      -3.33906601
Si       3.09303379       0.45280798      12.24035795       2.91980972      -1.15655031       3.12180618
Si       8.01755604       5.58091101      14.74359813       2.58189689      -2.57072402       0.43932409
Si       4.75421752       2.00945952       5.65877686      -7.45510126       2.34769768      -0.99589278
Si       2.34387951       4.67800289      12.56248936       0.68885994      -2.39852481       3.82020009
Si       5.70039321       8.19654064      21.84219115       2.14605096       0.99628323       0.87230315
O        8.97272076       6.03278259      21.85913333      -0.47217853      -0.93824746      -0.12123127
O        4.39540479       1.43708235      12.03836928      -0.02352247      -1.47023312       0.55681001
O        1.65857086       4.29768244       5.30972554      -2.41735279      -0.61838274       0.98570242
O        5.97670111       8.57404898      15.06424059      -1.14182175       1.34990131       0.09789129
O        0.92061857       3.89324662      12.54073767       0.22842734      -1.44754062      -0.46691400
O        6.81565397       9.66872212      22.11397074      -3.61618967      -2.31522149      -1.35178537
O        9.34919786       6.48144650      14.80780291      -0.09930290       2.19990320       0.97182897
O        3.52440757       0.79913221       5.63368867       3.12145959       0.35698144       0.42786634
O        3.67336538       6.13430131      19.39531412       2.08915330       2.27044423      -0.55793250
O        4.24756154       6.71992826      14.93270829       1.68465457       1.28262521       0.64542559
O        6.91441296       4.20614789       8.04806241       1.21338679      -0.33273948      -0.37909090
O        6.20723883       3.53079943      12.12460639       2.83029763       0.90521984       0.20840732
O        1.31297235       8.77723856       8.48659745      -1.22826899      -1.73857818       0.18788902
O        2.27783546       8.60817315      11.56248585      -0.42119884      -1.25433886      -0.23201864
O        8.68553270       1.95974026      19.03725888       0.21933313      -0.57122867       0.93569997
O        8.83317803       1.54752901      15.79693304      -2.29064807      -2.77241820       0.47424111
O        2.79511668       5.31911412      16.69606177       0.04475249      -3.80127138       9.06465403
O        5.60226699       7.35412229      17.63463606      -0.59700659      -0.86074426       0.12139722
O        7.89858095       5.43096453      10.75007865      -0.41823168      -0.64166964      -2.20566107
O        5.05158942       3.21582865       9.56436603      -1.20864310      -0.11417100       3.06842212
O        0.20489454       6.98955256      10.57626497       0.43462375       0.84903551       0.61228638
O        2.63171067       0.62741063       2.62582343       1.29600593       3.65868067       3.26885846
O        0.89879083       2.98368204       9.94675737      -1.28084349       0.71943562      -2.50501619
O        8.20086717       9.53899947      24.77456780      -1.20494699       0.59781323       1.21616041
O        9.37704826       8.41549255      22.70996613      -0.70370514       2.66299322       1.22780090
O        1.85361862       1.07207383      11.62641487      -3.92779540       1.57520810      -2.23276212
O        1.24368852       1.75641847       4.76642775      -1.21533955      -0.16811985      -0.83287056
O        8.33217993       8.93244853      16.06443337      -1.05000764       0.84041883       0.04893441
O        3.49763141       3.95765565      11.70979565      -1.80414562       1.82951798      -0.15395744
O        6.32212268       7.01034776      22.79600351       0.56818859      -0.61381193      -1.27054043
O        6.83723708       5.82616324      15.83303443       0.44920184       0.24929249      -0.49476914
O        4.01027505       3.20735855      18.47150277       1.53088769      -0.06538895       0.21486813
O        8.89343322       3.44336956      12.35220752       2.17060340      -1.66562109      -0.16784046
O        6.83285060       1.44008975       8.41202865      -0.44105541       1.05462355       0.40081898
O        1.72143373       6.98587743      15.07806675       0.16648154       0.62316698       0.89399019
O        3.60926515       8.75796965      18.45157415       0.62916564      -1.46076543      -0.09643611
O        8.66688058       4.02497237      15.05827264      -1.15856736       1.43603779       0.30097693
O        6.12348387       1.43185548      19.10434991       1.19920810      -0.17050287      -1.33033535
O        2.17074824       6.19219204      12.18862059       0.75174907       0.71101417      -0.87357312
O        4.15583713       8.30795508      22.30255492      -1.59647938       0.74705451       1.02101989
O        7.61993947       5.54760256      13.16916907      -0.97914099       1.09621145       1.06404548
O        4.83108978       2.69858509       7.12256759       1.85938124       0.20362478       1.24274453
O        2.93696378       4.66951122      14.31380801      -1.27355079      -0.20237911      -2.22477288
O        5.63715047       8.08025865      20.16976646      -0.42742441      -1.18349400      -0.34662772
O        0.90209085       2.39991518       7.26093342      -0.90514189       1.55233967       0.15938438
O        7.67182578       9.39833930      13.46141338       0.58597832       1.00282879       0.45246040
O        0.29612160       7.75403154      13.16895692      -0.65125598      -0.12324443       0.13377045
O        2.75496330       0.13648528      13.80615858       0.29850143       0.73578873       1.35776451
80
Lattice="9.77192453 0.01751879 6.90363604 0.24348012 9.76890588 6.90363604 0.01370155 0.0133883 13.86910312" Properties=species:S:1:pos:R:3:forces:R:3 energy=-574.85801087 source_file=vasprun.xml step_index=500 time_fs=17000.0 time_ps=17.0 file_index=8 pbc="T T T"
Na       7.78620131       8.33450859      18.43263655       0.54491692      -0.18221304       0.17117162
Na       8.35431983       3.79925035      20.48215708       0.47855063       0.08383939      -0.45190059
Na       2.08539725       8.70122350      16.79204277      -0.10819216       0.43389101       0.34526143
Na       8.23005823       7.56228078      11.91358120      -0.20552148      -0.01379893      -0.23725018
Na       3.11479728       2.52045039      16.23717516      -0.07836109       0.03364699      -0.09567412
Na       6.00720978       1.89118495      14.24841391       0.84563774       0.01784467      -0.05693868
Na       3.33206685       3.92900688       8.21549553      -0.50160564       0.16020985      -0.10268085
Na       4.67849014       8.73147641      13.66573294      -0.63942709       0.08032127      -0.92252859
Al       7.35564465       5.39440382      22.70890441      -0.48718758       2.21057640       0.42312250
Al       4.74552837       2.88863381      11.52988273       1.16091377       5.31055216      -1.69871617
Al       3.07298750       4.76944802      18.38664572       1.41676936       0.78509559       1.55962298
Al       5.59869805       7.08770775      15.87676836      -0.21196216      -3.67877431      -1.12107794
Al       0.68410894       2.33020045      11.57587010      -1.02427220       0.40431040      -0.38387011
Al       8.24873054       9.58808963      22.96935283      -4.47868659       4.56600312      -1.00573298
Al       9.87863848       7.86903249      16.02740979      -0.07766875       0.56396074      -1.50851286
Al       2.69080981       0.56067297       4.57127832       0.72610026      -1.07440332       1.29227917
Si       2.88053290       5.78934077      15.36534498      -4.33081579      -2.50008257       0.92911186
Si       4.92035066       7.53146190      18.89160534      -1.54151808      -0.77434529      -1.27823875
Si       7.71542087       4.55999010      11.90391585      -1.41960408      -3.14591939      -2.60008731
Si       5.90963293       2.60462994       8.52575487      -5.28415072       2.58521834      -0.32966472
Si       1.47558053       7.73249979      12.00028302      -2.60724562      -1.18302165       1.67849328
Si       2.90826320       9.27394220      22.22588618       0.25392024      -2.96819037      -0.05563881
Si       9.17483116       2.74108205      15.29643072       3.77392991      -5.22842802       2.23407085
Si       7.79993606       0.92065217      19.21467023      -0.58657651       2.22197106      -2.25624675
Si       0.78580938       3.03589631       5.61976270      -1.07369901       4.03902613       3.11835840
Si       7.34696825       9.58943187      15.01483430       1.59023767      -1.49953315      -0.71170622
Si       9.80422548       7.15840107      21.88776256       1.69608556      -1.76550047      -0.76859217
Si       3.25614084       0.59595257      12.54275428      -4.37683323       0.66413827       1.39379791
Si       7.84608499       5.48214572      14.83158815      -1.32784473      -1.73287082      -3.16210258
Si       5.12709462       2.27010039       5.42073523      -3.90879216       3.55821495       1.49940462
Si       2.22823179       4.86785935      12.33309332      -0.54205538      -0.80470170      -0.06663683
Si       5.75312380       7.81977517      21.65843950      -1.37890739      -0.83796852       3.15575204
O        8.77658632       5.90944944      21.77572331      -0.29910905      -0.50692374       0.58888475
O        4.29332038       1.79731367      12.69805372       0.90811894      -1.33259422       0.88041083
O        1.72964473       4.46031330       5.64936562      -0.21463206      -0.95704735      -1.77889976
O        6.21964213       8.44485046      15.16828919       0.38232929       2.76261497      -0.88510384
O        0.83747137       4.05202148      12.07164891       0.44814658      -1.67438642       0.57184332
O        6.59420587       8.93347953      22.35330784       3.39551012       2.70046298       0.97886737
O        8.74385727       6.47369943      15.62431851       1.98380061       1.44705130       0.88599307
O        4.29945588       0.93918632       5.24266481      -0.52921532      -2.49178038      -0.35928955
O        4.00785592       6.23178819      19.00228071      -1.08216915      -0.31647785      -0.28709254
O        4.00424313       6.79845991      15.19634151       2.40895247       3.68369778       0.03161290
O        6.86294006       3.83948099       8.41197983       1.16015638      -0.74733082      -0.55881773
O        6.41922196       3.50419084      11.90789959      -0.24917679       0.17616237       0.71247832
O        1.55240007       8.38405033       8.23858657      -0.65218694      -1.21168711       0.48928954
O        2.69930009       8.73391708      12.38808094      -0.91200526       0.59200769      -0.69636455
O        9.10237096       1.78743944      19.53426472       0.99827853      -0.32012887       0.38529482
O        8.31600712       1.36408399      14.94987455      -0.71177796      -1.36849269       0.93133056
O        3.18394311       4.71833408      16.63379547      -1.34979862       1.34137192      -2.39730961
O        5.79818024       7.44776291      17.51399248       0.23952789       0.37247106       1.67603157
O        7.57322762       5.48008362      10.53373644       1.09204042      -0.06091080       1.67133902
O        4.75656188       2.67329265       9.78461484       1.26619530      -0.69593661      -1.85814173
O        0.38842204       8.01311941      10.81832779      -0.20409309       1.01597418       0.82329019
O        2.75309154       0.21065625       2.88520074       0.23366485       1.23168448       0.38841583
O        9.80786449       2.35303205      16.86470820      -0.59763781       1.08237558      -2.55467983
O        7.69119426       0.22571762      17.75116114       0.65590450      -1.07795517       0.56666661
O        9.28310882       8.40045249      22.73435394       3.01151133      -2.32585159       0.44657776
O        1.90220348       1.04247601      11.60382878       2.16017543      -0.71484367       0.60936586
O        1.57672566       1.80599681       5.01928875      -0.63509604      -0.59236246      -0.84125394
O        8.76809446       9.15653003      15.54832280      -0.10289230       0.12458880       1.32356717
O        3.56964336       4.32936011      11.71581973       1.76206638      -2.31408737      -0.81113820
O        5.95480051       6.35141359      22.26501695       0.22746602      -0.21544441      -0.08889113
O        6.23478332       5.63465485      14.94054385       0.63411170       1.00865986       1.73724610
O        4.11166370       3.38129673      18.48251963       2.64474361      -1.87914640       0.69074224
O        8.97831655       3.51940254      12.12471912       2.06049076      -1.48791408      -1.15611628
O        6.75448440       1.33050586       8.47390036       1.20612539      -2.53937887       0.92997802
O        1.49669010       6.72639258      15.85788830      -0.48586186      -0.25489228      -1.14241432
O        4.08599439       8.98205001      18.88425164      -0.42766772      -0.36069367      -0.84114104
O        8.20015913       3.88727005      15.04996292      -2.75440750       3.68896731       0.32456480
O        6.70777854       2.23908410      19.07495137       1.07241546      -0.47074704      -0.19065071
O        1.91067091       6.23822349      11.57555786       0.64562875       1.71028555       0.00847525
O        4.24647391       8.34160073      21.91208287      -2.12485689       0.39347973       0.24355952
O        8.00676505       5.60136513      13.03459192       0.10985821       2.54280716       4.03979135
O        4.91958060       2.72678361       7.07277074       0.98097522      -0.60615549       1.13369629
O        2.47209119       5.09262516      13.92803312       0.12756338       0.06840706       2.11119898
O        5.92208740       7.79120346      20.09006838       2.27880587      -0.00186264      -2.01539255
O        0.66676069       2.98153334       7.33941749       0.13409495      -1.13317301      -0.37642169
O        7.53494884       9.65199780      13.38485939      -0.28791345      -0.68933881      -1.19691549
O        0.29583722       7.52700964      13.42404204       2.09716869       0.93346490      -1.87905025
O        2.61127403       0.59466931      14.15150956       1.00923084       1.18929170      -2.26591330
80
Lattice="9.77192453 0.01751879 6.90363604 0.24348012 9.76890588 6.90363604 0.01370155 0.0133883 13.86910312" Properties=species:S:1:pos:R:3:forces:R:3 energy=-576.3946455 source_file=vasprun.xml step_index=0 time_fs=18000.0 time_ps=18.0 file_index=9 pbc="T T T"
Na       7.62077834       6.52485499      18.21351448       0.62364754       0.19903169       0.22798138
Na       8.90116931       3.50623323      21.02552471       0.36591033      -0.14201224      -0.29092314
Na       1.51475222       9.07389303      17.17364280       0.19495170      -0.41207599       0.25458844
Na       7.41793336       7.47418834      11.81231687      -0.04008346       0.42524142      -0.20689609
Na       3.29817184       2.79765219      16.13539679      -0.00255392      -0.42231225      -0.53981453
Na       6.53195041       1.31342824      13.22551300       0.20507972      -0.04974236       0.06792711
Na       2.30250795       3.91476066       8.68984336       0.76127954       0.25064678      -0.12528257
Na       3.97478380       9.25806419      13.93492607       0.38864979      -0.36302923       0.05116592
Al       7.51893391       5.35841084       9.09364007      -0.15710271       0.01516659      -2.54412233
Al       4.78536666       3.30118257      11.36169803      -0.95744126      -2.25094440       0.70220596
Al       2.98370895       4.81653491      18.27411233       0.16176665      -0.55701435      -0.60502663
Al       5.86180640       7.18476506      15.90158546      -0.69802833      -0.56199550      -0.79063730
Al       0.79091985       2.29417309      11.36070646      -1.27666816      -0.96484569       2.51663740
Al       7.97849057       0.02660773      15.93862185      -1.12852210      -2.20215379      -2.99111055
Al       9.91025335       8.03184283      15.94192366       0.55353502      -0.94506235       0.99625083
Al       2.55629864       0.65233895       4.59931346      -0.39378840       0.72351778      -0.60943800
Si       2.70986063       5.86367168      15.29551161       2.69176572       1.99106074       3.58617061
Si       4.79460366       7.56002786      18.89216640      -4.12972820      -0.35963170      -2.56671007
Si       7.63551638       4.59230079      12.22402046       0.24042958      -3.06637942      -2.82178226
Si       5.88789970       2.67259834       8.46803688      -1.52964482      -0.18489465      -0.27334638
Si       1.21973741       7.66805598      12.18778199      -2.17750362       4.10786544      -2.89342258
Si       3.14389647       9.28506900       8.63603949      -1.78436327      -0.52191199      -1.18004164
Si       9.61856477       2.57477601      15.19745254       3.07175292      -1.95064994       0.19056205
Si       7.57143850       1.19901123      18.86400004       0.09512625      -1.54145700      -1.08070247
Si       0.84188233       3.01159737       5.57638068      -0.48807177       1.81897019       2.80277825
Si       7.44491493       9.57487402      14.56721707      -1.27359436      -1.65023774       2.63418544
Si       9.74777390       7.12258766      21.78697783      -3.54436624      -0.51169431       1.01244415
Si       3.16111980       0.68108602      12.69301075       2.05650771      -1.63823068      -2.20244652
Si       8.31966024       5.44782311      15.05298520      -1.19787589      -0.18602324      -1.86454269
Si       4.80791741       2.51139726       5.40183113       0.25499223      -1.15862401       0.98758838
Si       2.21755408       4.78328208      12.38632880       0.22485361      -0.19347281       2.42225283
Si       5.89597230       7.88027073      21.81459391      -1.52958427       0.77429673      -0.65461070
O        9.08392000       5.57217878      22.03103728      -0.13196788       1.87473550      -0.52846126
O        4.44699445       1.67814192      12.36878500      -0.88361391       0.69851562      -0.13528748
O        1.88732551       4.29259111       5.62079281      -2.28548540      -0.73942581       0.27139381
O        6.18840813       8.43102781      14.57499705       0.51442169      -0.48384505       1.95378955
O        0.97899070       3.70448772      12.30132660       1.18890004       2.77407254       0.96936721
O        6.85954393       9.22010069      21.60025587       0.11587220      -0.03774661       1.77267384
O        9.58866591       6.30417618      15.31675555       1.58109734       2.75718349       0.15575309
O        4.10247021       1.05171789       5.40876358      -1.22796271      -0.76545850       0.72156970
O        3.76638281       6.19424564      18.73603504       2.52857273       3.81504593       0.73046967
O        4.26150087       6.57946191      15.44930085      -2.05560452      -0.02604218      -0.42769696
O        7.07743271       3.71040699       8.60597918       0.97512379       1.02209949      -0.17795513
O        6.15553138       3.79780698      12.20827724       2.65760558       0.45922832       0.73458921
O        1.74614627       8.46844294       8.73931872       1.46357507       0.68239867      -0.81679933
O        2.21359069       9.02012487      12.35285858      -0.46062096      -1.84945501       0.63211715
O        8.86254601       2.20429917      19.02259314      -0.37953870      -1.93543112      -0.23301365
O        8.61468040       1.35793352      14.97667878      -0.82159137      -1.15035990       0.66833526
O        2.56182356       4.82157432      16.57353482      -1.05134992       1.23854190      -0.88563292
O        5.77833466       7.72316046      17.59319114       0.48455989      -0.41031818      -0.14660480
O        7.75869256       5.25332370      10.70161733       0.73618506       0.29809253       5.08701180
O        4.72456388       2.96069894       9.66516104       1.68662790      -1.11117880      -2.05461534
O        0.33254368       7.83398997      10.79642221      -0.56893214      -0.51491992       1.01439042
O        3.10572382       0.61168446       2.90731674      -0.06414685      -0.32321391       0.32525177
O        0.76218850       2.51223726       9.70323081      -0.63240489      -0.33780463      -1.76194616
O        7.60276863       0.12996241      17.56358562      -0.10671875       1.83696242       1.69586698
O        9.00629635       8.14242754      22.94701152       1.68919424      -0.00334727      -1.71856998
O        1.76409889       0.91415235      11.93583831      -1.40202635       1.36051065      -1.77367430
O        1.16255546       1.81577786       4.63502135       1.05830506      -1.33385743      -1.39916499
O        8.71188800       9.24676438      15.54477320      -0.63055747      -0.52155713      -1.02922382
O        3.36315993       4.22805375      11.45830976       0.02523049       0.37858547      -0.36106231
O        6.33510907       6.64353123      22.74941316       0.73268881       0.08985062      -0.62662792
O        7.11905585       5.79229675      16.04124810      -1.61944979       1.26535240       0.46208346
O        3.95514873       3.34979736      18.18266498       1.50536647       0.24678386       0.88838800
O        8.96638601       3.50367398      12.43150528      -0.15608407       0.40754198      -0.20831169
O        6.59188830       1.19612962       8.23869955      -0.38950577       0.62250115       0.53842199
O        1.51371012       7.09722489      15.21719123       4.13007424      -0.92022473       1.33552739
O        3.83916115       8.94973643      18.87746182       0.09070879      -0.17792516       0.57811630
O        8.84166196       3.92329861      15.20888681      -1.39090746       1.25262410      -0.15270985
O        6.33519029       2.27852959      18.72033233       1.23479554      -0.70293762      -0.29302722
O        2.07848397       6.36897228      12.07820022       0.68653833      -1.75959762      -0.18637742
O        4.32464802       8.15444618      22.37297719       1.12318279       0.94960956      -0.21893474
O        7.59741873       5.65419849      13.40864584       1.30467040       0.72019431       2.32392858
O        5.17224171       2.87469179       7.00246154      -1.60529774       0.91568309      -0.93381207
O        2.70181632       4.95209707      14.04820594      -0.85798155      -2.46352145      -3.92620030
O        5.61430775       7.46325439      20.20989992       2.04447580      -0.67935909       2.29681025
O        1.15216772       2.37425454       7.21783969      -2.03239635       1.39180296      -0.65722179
O        7.64582340       9.51618575      12.97722584       1.11938231       3.24657414      -2.05047980
O        9.75801567       7.59218974      20.19647113      -0.44931621      -0.24608134       1.02502708
O        2.72735474       0.51078959      14.20790383       0.94915215      -0.29753210       2.32822015
80
Lattice="9.77192453 0.01751879 6.90363604 0.24348012 9.76890588 6.90363604 0.01370155 0.0133883 13.86910312" Properties=species:S:1:pos:R:3:forces:R:3 energy=-577.33107861 source_file=vasprun.xml step_index=500 time_fs=19000.0 time_ps=19.0 file_index=9 pbc="T T T"
Na       7.61149721       9.64548450      18.07729323      -0.50327772      -0.10580057      -0.06511172
Na       8.60984557       4.42331858      19.96352684       0.09634610      -0.06279072       0.23406048
Na       1.63602437       8.76437228      17.22008158       0.06086436       0.45917234       0.61183734
Na       7.66139112       7.34854705      12.00097784      -0.11972174      -0.04316511       0.15056956
Na       1.87251222       2.77448818      16.16600748       0.14847949      -0.13660184      -0.09693606
Na       6.15149189       2.12013953      14.50533620      -0.12366573      -0.25576195      -0.35312852
Na       1.48184945       5.26559896       7.67700950       0.31122790       0.73067987       0.43840313
Na       3.13496051       8.51605551      13.90806294       0.90013513       0.37432270       0.06460549
Al       7.54194033       5.40699236       9.05300799      -0.65447382      -0.13118193      -0.01503784
Al       4.98254652       2.73847355      11.25367136       0.22244514      -1.06167445       3.06482874
Al       3.48925836       4.68337218      18.37856476      -1.46226071       2.63305392       0.77847894
Al       5.76292454       7.42464998      16.12949330       2.94338853      -0.65846881      -0.14796243
Al       0.82268237       2.43046942      11.42683231       1.35740207      -2.06335830      -0.24879000
Al       8.05673154       9.56267421      22.82823229       0.91335764       2.20132826       0.19308569
Al       9.90670552       7.78294925      15.88270826       1.90042171      -0.57673758      -1.91915619
Al       2.14373743       0.48091532       4.54373031       2.10949781       1.56240552      -1.34795487
Si       2.92213607       6.07438668      15.56547004       1.08222365      -1.34488262      -1.19867087
Si       4.85173865       7.50800693      19.11338802       1.90532025       1.69399288      -2.29188824
Si       7.76589948       4.20840573      11.93614730      -0.73261206      -1.50822387       4.21819971
Si       5.98864810       2.67985692       8.41016908       0.18572156      -1.54190848      -1.53679406
Si       1.28866493       7.24443704      11.80092928      -0.31830103      -0.84729873       0.81159726
Si       2.86341933       9.03303190       8.51502884      -0.09334825       2.08576038      -3.24056939
Si       9.48817670       2.64239489      15.40122170      -0.91745246      -0.90584221       1.35466271
Si       7.83464400       0.76693348      18.88810232      -1.20533153       0.44658057      -1.46164723
Si       0.99892810       3.34108845       5.57706486      -1.66770626       2.03231896       1.65158332
Si       7.67891043       9.69025628      14.98587480      -2.03242367      -0.24291158      -1.18834987
Si       9.93246932       7.14563189      21.59046712      -2.61611697       0.00686617       1.73409898
Si       3.22126416       0.37035064      12.66469758      -1.37906798       0.24715484      -1.22040000
Si       8.10607579       5.44062880      14.92337071      -2.15115187       1.09521781       0.10708527
Si       4.89940597       1.98555380       5.33540073       0.15963935      -0.79424683       0.85789540
Si       2.76727802       4.74116810      12.58569787      -1.04496926      -0.21257228      -0.54718126
Si       5.73657580       7.95262200      22.06330999      -0.04030252       2.84009104      -2.01762355
O        9.06479381       5.86121130      22.06802490      -0.45673803      -1.10454790       0.58097655
O        4.66179866       1.16723531      12.56369321      -0.38632707       0.53464599      -1.47531844
O        2.08422187       4.61760773       5.70972296      -0.67743800      -2.27471061      -1.12073892
O        6.45971227       8.65696243      15.09673940      -0.80388850      -0.42939621       0.34749615
O        1.30890532       3.92693102      12.34239152       0.07823407      -0.24073296      -0.36224506
O        6.42268027       9.49313252      22.36630598      -1.29814964      -1.52630048      -0.81068711
O        9.18942226       6.71137476      14.69230631      -0.39078606      -2.22324278       0.60084005
O        3.74876125       0.77670319       5.35532089      -0.53886924       0.01942585       0.16978179
O        4.32645467       6.05853017      19.06508789      -0.85081373      -2.92716306      -0.96171932
O        4.20686092       7.07157715      15.58623302      -2.70864684      -0.44913220      -0.63252767
O        7.04303228       3.87639987       8.18934086       0.57816597       1.87979958       0.88764804
O        6.58068352       3.06470025      11.95789484       1.42649691      -0.81907945       0.09642181
O        1.83600933       7.93476711       8.05421701      -4.13381953      -1.49658587       1.98480928
O        1.73265136       8.77690239      12.14448295       0.31387957       0.63114025      -0.47836473
O        8.97175638       1.92550150      18.88731990       0.04199577       0.65038379       0.24530652
O        8.32984779       1.48548848      15.21428658       0.21276239      -0.56431601       0.55022783
O        2.60823129       5.14126179      16.81470118       1.00227857      -1.26768502       1.32525938
O        5.80989068       7.99966207      17.78957811       0.00926038      -0.72269677       0.61335945
O        7.36975866       5.15936465      10.82903683      -0.38751627       3.63891244      -4.64675129
O        4.83383574       2.73527162       9.55792152       0.50896136       0.09479028      -0.74640328
O        0.39914083       6.97632044      10.51913467      -0.61558045       0.75891282      -0.98464849
O        2.45963613       0.43349886       2.67696589      -1.14409574       0.27864762       3.88198725
O        0.89642637       2.23266205       9.58832325      -1.34982979       1.11975351       1.11601115
O        8.35895498       9.39942497      24.57807616       0.11125134       0.48787199       1.06337899
O        9.04933200       8.46195676      22.01371729       2.48638823      -1.36041149      -0.84671777
O        1.91727813       0.96448900      11.78738407       0.54562713       0.68606253      -0.49528136
O        1.33887251       2.10848543       4.64893959       0.70392629      -2.02960386      -0.59459300
O        8.91120486       9.17855975      15.85468163       0.97500324       0.66917927       1.09287716
O        3.99021369       3.79689729      12.17181495      -0.88192539       1.28618266      -0.34159182
O        6.50799022       6.84656306      22.83921825       0.79915142      -1.55551820       0.74855632
O        6.72592022       5.93100372      15.67681895       0.65348680       0.40714457       0.54445913
O        4.31272392       3.23660409      18.31462184       1.09037369      -1.57273898       0.05672833
O        9.35117018       3.94458556      11.77795705       1.28487154      -1.06303632       0.41732677
O        6.95086323       1.32462225       8.74920571      -0.11484400       1.02731441       0.22049992
O        1.63202197       7.07689668      15.46950763      -0.72254421       1.73831918      -0.71937383
O        3.60083526       8.52499941      18.95238089      -1.11903515       2.07351443       0.97833476
O        8.58519135       4.03341586      15.68736833       0.83416324       0.61480454      -0.14987099
O        6.30137028       1.38311509      18.55496035       0.55345276       0.29907519      -0.20258642
O        2.59077685       6.23044859      11.71234449       0.28680618      -0.81460758       1.51942781
O        4.16304179       8.13627394       8.62234830       2.17026452      -0.88786370       0.37576574
O        7.59557209       5.11086071      13.38039066       0.49237275      -0.85706597      -0.85533722
O        5.37176084       2.45846780       6.88404827      -0.92848447      -0.23783892      -0.40977972
O        2.96508001       5.07857479      14.20046443      -0.39770384       0.81767273       0.46275389
O        5.83327686       7.61201802      20.37424166       0.43217916       1.08067607       2.86500085
O        0.58828215       2.98157133       7.19857272       1.26209261       0.46245532      -3.01149131
O        7.81751791       9.74699778      13.33076229       1.33757596      -0.11424512       0.35615554
O        0.29430021       6.90459783      13.10987353       0.94536408      -0.03825969      -1.44530457
O        2.52937253       0.35621530      14.14132251       1.51457211      -0.58571533       0.81611342
80
Lattice="9.77192453 0.01751879 6.90363604 0.24348012 9.76890588 6.90363604 0.01370155 0.0133883 13.86910312" Properties=species:S:1:pos:R:3:forces:R:3 energy=-573.84774389 source_file=vasprun.xml step_index=0 time_fs=20000.0 time_ps=20.0 file_index=10 pbc="T T T"
Na       7.93287054       8.14948768      18.93327492      -0.94763891      -0.37706994       0.07353120
Na       9.02028564       3.71318610      20.83789564      -0.12737294      -0.36049859      -0.28709052
Na       1.02876488       8.50451092      17.39951010       0.79394892       0.18881701       1.02502933
Na       6.44589270       7.37202547      11.38596363      -0.18269200       1.26563531       0.53044843
Na       4.01938241       2.66207994      15.22275914      -0.61343158       0.07855927       0.14455319
Na       7.40166487       1.66092432      13.63360808      -0.28665479       0.24780467      -0.36149002
Na       2.76468137       3.59435321       8.97439359      -0.10377822      -0.10561619      -0.22481313
Na       3.60368504       9.05016505      14.01198219       0.26397738      -0.37741960       0.04079288
Al       7.42869967       5.65687355      22.95797715      -0.37814689      -2.94234149      -0.91367743
Al       4.71023681       2.82646539      11.34708571      -0.57271993      -1.08518832       0.01395574
Al       3.35719307       4.65207374      18.19421181      -2.17248720      -2.22869291      -0.29372543
Al       5.88021970       7.08768589      16.26750958      -0.85913180       2.67191329      -1.15327448
Al       0.75933526       2.34709595      11.40729327      -1.49653901       2.17434700      -0.59542683
Al       8.37774938       9.60772548      22.87267739       0.10255950       0.14360968      -1.18608597
Al       9.90908688       7.91353721      15.81761865       1.43811637       1.30572219       1.21723318
Al       2.42924005       0.85576176       4.43676772      -0.55115176      -1.47419765       2.35125829
Si       3.15045475       5.80097297      15.25365744       0.15187526      -0.41803258      -2.32330960
Si       4.52545601       7.51786877      18.99506052       2.30977032       0.44747026       0.55077278
Si       7.35711667       4.57501081      12.17638970       0.46700699      -1.76232995       1.84119800
Si       5.89272657       2.53495042       8.41557929      -0.95280242       1.87830083      -0.28915987
Si       0.99363943       7.77780387      11.89405343       2.01736388       1.36905478       1.33433296
Si       2.98569967       9.52345175      22.30034312       0.01699427       0.58159531       0.69257326
Si       9.48323732       2.88769171      15.37934648      -0.15504835       0.19324701       4.10649227
Si       7.89310913       0.66608249      19.00193589      -1.21460707       1.29358448      -1.43402028
Si       0.60920922       3.25902001       5.47742807      -0.12909502      -0.58269698       1.78221270
Si       7.64037037       9.57451870      14.91331587      -4.09889496      -0.27215868      -3.54521601
Si       9.95545343       6.99858354      21.86449236       2.02187245      -0.74464592      -3.46822228
Si       2.90647781       0.41895019      12.50054770       1.65481501       2.51197944       3.32927794
Si       8.16601393       5.56214889      14.95739032      -0.89333928       2.50062189       1.44286259
Si       4.94964548       2.06875689       5.58767343       0.92204937      -4.01794197      -1.96573862
Si       2.33194212       4.92338157      12.12059088       1.51829017       1.81092337       1.56210742
Si       5.86121895       8.06994619      21.78228817       0.35720874      -0.47595597      -3.39630507
O        8.84690904       5.79399683      21.79788543       0.16977458      -0.35317430       1.98761752
O        4.34656117       1.27615412      12.32391857      -0.90565819       0.51818632       0.24460536
O        1.58753149       4.55331515       5.22970402       0.51597553      -1.09613726      -0.98888457
O        6.31274412       8.58566058      15.22540460       2.00765557       1.01314625       0.11105259
O        1.13673786       3.88752727      12.16514098      -1.39550236       0.01606417       1.34202750
O        7.11463822       9.06928359      21.73170354       1.48020706       1.98111731      -0.14521074
O        9.52389953       6.46780689      14.98091940      -0.60163393      -0.51522398      -0.50364682
O        3.99917930       0.66835564       5.48594339      -0.26616017       1.49225593      -0.66721518
O        3.93098860       6.17394824      18.50477387      -1.00852966      -1.22601317       0.86388913
O        4.44041907       6.75581117      15.26277602       0.01525892      -0.08451735       0.11556067
O        6.83420825       3.98180754       8.58950272      -1.27871387      -1.41619111       0.12966124
O        6.07931365       3.48491908      12.34292194       0.55916983       0.55907657      -0.95059994
O        1.80465475       8.52058586       8.76157108      -0.81257956      -2.47667854      -0.02641713
O        2.01075748       9.09466596      12.24214796      -1.41206982      -0.76583830      -1.32600915
O        9.07993601       1.77183980      19.01059437      -0.52270447      -0.46839325       0.72151108
O        8.77327679       1.49312563      15.83433207      -1.43530685      -1.71333308      -2.23294970
O        3.24935572       4.64352825      16.35946927      -0.37891795      -0.82121110       1.14780324
O        5.46231379       7.90792685      17.79679175       2.02417918       0.62813463      -2.31364136
O        7.31458508       5.52166426      10.87247356       0.87766826      -0.28126977      -0.41400395
O        4.80098682       1.96842465       9.62533418       1.67803702       2.89831737       0.07137966
O        9.65200227       7.76423059      17.62187188       0.36389308       0.22924164       0.18119474
O        2.75453839       0.80594102       2.75789345       1.24549697       0.56896599      -0.26276709
O        0.63042260       3.05200323       9.82437713       0.92640022       0.13117021      -1.28633717
O        8.10693426       9.53425439      24.50970218      -0.47572315      -0.18842597       2.32310262
O        9.41584381       8.15137847      22.76806057      -0.22090801       1.54299596       0.80007648
O        1.83061141       1.08925033      11.58794853       0.21664167      -1.72424636      -1.69501313
O        0.92755165       1.81728318       4.80096633       0.97219980       1.08599026      -0.40316494
O        9.00085584       9.40164526      15.59500732       1.66562073      -0.68427644       1.25014784
O        3.44063791       4.16257015      11.15947597       1.17847440      -0.35311600      -0.04192060
O        6.22175926       6.79881513      22.61190470      -0.12036600      -0.52615177       1.96420971
O        7.14080645       5.95061547      16.19265921       0.10567299       0.64586232      -0.36971602
O        4.16492876       3.12427803      18.58668979      -0.81789999       2.06039363      -2.25458425
O        8.68266322       3.49227690      12.38259385      -0.28213121       1.25366284      -1.08193372
O        6.99205476       1.45691855       7.98140304       0.81881075      -1.84644789       0.48564949
O        1.88591134       6.87178504      15.36738337      -2.71303193      -0.19071584       0.39327583
O        3.36738418       8.60378801      19.24666685      -1.45974844       0.25609175       0.01116014
O        8.35539827       4.08462802      15.45137110       1.16592581      -3.58261947      -0.83013468
O        6.53660599       1.60244719      19.06786734      -1.83699649       1.05437265      -0.16013661
O        2.06836438       6.59096413      11.69590681       1.32708769      -4.11003260      -0.08068579
O        4.58751816       8.89754426      22.10767016      -4.10914958       1.94503925       1.23601252
O        7.38558610       5.61586224      13.50838929      -0.07687984      -0.65888018      -1.62795452
O        4.86688213       2.72028865       7.00168205       1.29897130       1.12640053       5.22653060
O        2.94847389       4.97308420      13.74882676      -0.09006624       0.58281314       0.05866556
O        5.62603361       7.50074330      20.21641619      -0.07035928       0.03657434       0.98902049
O        0.62651200       2.81242694       7.20851152       1.45372614       0.63891432      -2.75621426
O        7.98936520       9.28729165      13.14549944      -0.22680184      -0.47609748       2.87639149
O        0.22259017       7.39152305      13.33759393      -0.57526931       0.53018709       0.08738283
O        2.19076941       0.69965633      14.14996942       2.68329021      -0.63404082      -2.76975158
80
Lattice="9.77192453 0.01751879 6.90363604 0.24348012 9.76890588 6.90363604 0.01370155 0.0133883 13.86910312" Properties=species:S:1:pos:R:3:forces:R:3 energy=-575.6569708 source_file=vasprun.xml step_index=500 time_fs=21000.0 time_ps=21.0 file_index=10 pbc="T T T"
Na       7.47258040       7.38210883      19.05947000      -0.14385205       0.62058279      -0.21189233
Na       8.21551587       4.36016639      19.98023238       0.55576195      -0.38014131       0.50192795
Na       2.49417347       5.93751668       7.31200099      -0.34327894       0.31801873       0.20941424
Na       9.10101663       7.60330286      24.99597445      -0.16701913       0.32138843       0.73341647
Na       4.03530699       2.90825424      14.89475019       0.02848818       0.10075396       0.94207023
Na       8.52440439       1.85684109      10.06132063       1.16039740       0.19881715       0.62612175
Na       2.25428543       1.74455794       8.20249078       0.39151423      -0.23849912       0.12368911
Na       4.28174187       8.32270872      12.58073078       0.02960513      -0.25005679       0.49174392
Al       7.31538034       5.43008517       9.15378284      -0.65768431       0.36727313      -1.00184002
Al       4.81983886       3.21205198      11.71121153       0.43237516       0.60890714       1.65579835
Al       3.21706332       4.74399945      18.30836494      -1.31414681       1.46199796       1.35911128
Al       5.64247429       7.37013127      15.86944662       0.43442463      -1.49291335      -0.45481396
Al       0.45412257       2.71479333      11.16461597      -0.73917776      -1.25960483       3.18752776
Al       8.23629342       9.71612022      22.68128161       1.13169904       0.51283836       0.67455132
Al       0.25313305       7.99923056       9.05467184      -0.09735421      -0.73871209       0.78325782
Al       2.20571521       0.71476833       4.64746681      -0.28503340      -1.21876578       0.60923720
Si       2.99385588       5.62951382      15.31031018      -0.43924409       2.90470688       0.15675559
Si       4.16463681       7.90516886      18.82830934       3.97003626      -3.84783115      -0.80426793
Si       7.73841218       4.75555164      12.09236717      -2.67914886      -1.42346033       2.09159905
Si       6.10962817       2.43853904       8.82883377      -0.73385914       2.43812363       2.58848101
Si       0.86512674       7.68702203      12.16386574       1.58438953      -0.29132574       2.58945911
Si       3.21554169       9.28058302       8.77936031      -2.15378943      -0.71189569       1.29990145
Si       9.29538261       2.72828179      15.17177284      -1.05713706       1.81986764      -2.23465882
Si       7.44907031       1.24077439      18.74979092       0.44989932      -4.26187547      -0.37492190
Si       0.56465578       3.15733870       5.31146667       0.27261270      -2.91048315       1.54994987
Si       7.38416004       9.56783015      14.69616318       2.93359687       1.62073593      -0.03569542
Si       9.85092407       7.03592483      22.13641790       0.43013875       0.15309728       0.00012343
Si       2.88209726       0.84304662      12.80469665      -0.36971055       3.65938856      -0.29101159
Si       8.44268983       5.71884365      14.93099626       0.66336000      -1.57316215      -1.44512571
Si       4.64596724       2.21896927       5.90629773       2.32365872       1.43813156       0.19218216
Si       2.18125854       4.83720620      12.42090762       1.13745848      -0.50224437      -2.41083779
Si       5.72458805       7.93424883      21.77801480      -2.61739422      -3.16002907      -1.13068304
O        8.77700946       5.81349914      22.13087947       0.38200612      -0.10478254       0.65583143
O        4.11201468       2.12911612      12.99840864      -1.15110506      -2.85608703      -2.15919154
O        1.47227356       4.38911089       5.04004694       3.01442798       1.42380593      -0.65322097
O        6.06392337       8.64424366      14.76293638       0.19497507       1.53198998      -0.78181002
O        0.75337406       4.11282928      12.15113416      -0.23117427      -0.05633585       0.13245942
O        6.92066406       8.88806830      21.97406541       0.61463689       1.38325536      -0.17460458
O        0.16488008       6.29694721       8.42029970      -0.96812471       0.43723678      -0.21072288
O        3.42660296       1.14259503       5.97059273      -0.44374688       0.71396209      -0.39452389
O        3.16356103       6.58212714      18.79175476       0.90962373      -0.38437320       0.46925886
O        4.24631323       6.66285821      14.98399642      -0.45671223      -0.50063578       0.69109497
O        7.14206569       3.72175258       8.80888657      -0.40540086      -0.57522700       0.12647764
O        6.21117174       4.12759396      12.45586329       1.44044923      -0.00206396      -1.02769012
O        1.95470418       8.29676110       8.87867391      -1.91023547       0.03968449      -0.25355395
O        1.96935948       8.92608215      12.34858478      -0.38851937      -0.10482728       0.02830688
O        8.48348033       2.39525133      18.67095978       1.77268845       2.86403558      -0.21928891
O        8.34812628       1.51205868      14.96071818      -1.00578300      -3.05287037       0.20347710
O        3.29048828       4.66586962      16.56991829       0.61535449      -1.00592896       0.08480736
O        5.36210957       7.71202726      17.58083036      -1.08782608       0.14520429       0.68143331
O        7.79033159       5.69711167      10.82959338      -0.59652677       1.07118099      -2.17499209
O        5.27539298       2.40417884      10.27174074       0.08881066      -0.01011797      -2.26235079
O        9.75490760       7.95988165      17.80425665      -2.14372513       0.36089334      -1.62150467
O        3.04616760       0.47901982       3.15797636       0.85955669       0.30578944       0.42628009
O        0.48588452       2.74423076       9.47969506       2.48871212      -0.77714671       2.20887499
O        7.83882303       0.19880372      17.48770126      -1.27253060       0.90021328       1.55658567
O        9.49025648       8.42178751      22.97262925       0.42687546      -1.03846796      -0.88361977
O        1.51489568       1.61285717      12.08400285       2.38746582      -2.13243757       0.90437958
O        0.87167292       1.78940852       4.29335208      -0.10432846       1.73608548       2.06858200
O        8.85972109       9.10201794      15.24392627      -0.21398759      -1.00194136       0.72997318
O        3.52253273       4.34209267      11.54669400      -2.26163645       1.01297227       0.26065785
O        6.01627777       6.36438381      22.11909779       1.41429654      -0.63580325       0.84571990
O        7.20200743       6.43932093      15.57634663      -1.53735470       0.58702039       1.65504829
O        4.32463732       3.84867124      19.42808190      -0.68572907      -1.33036495      -0.98833618
O        8.82568024       3.50772971      11.86853997      -1.97635639       0.11716810      -0.24584773
O        6.97055838       1.12788817       8.91171283       0.77437970      -3.46901862      -1.47242520
O        1.60563289       6.49609275      15.66000261      -0.44421037       0.29017493      -0.26637550
O        3.38108761       9.25241335      18.73899396      -1.22693493       3.01481953       0.90344480
O        8.39640781       4.05970642      15.22423918      -0.60773444       1.84405764      -0.09284564
O        5.86215635       1.59300929      18.76823531      -1.70767399       1.07472126       0.47347774
O        1.72210486       6.30978119      11.90181697       0.72422899       1.54430514       0.69175497
O        4.25865473       8.07525908       8.69997633       2.81172422       0.44359305      -0.13279405
O        8.23345135       5.80463444      13.23332822       0.81650336       0.13458605       1.44864810
O        5.43629122       2.37278321       7.39990442      -2.69455447      -0.27422701      -2.40985956
O        2.66933611       4.79101959      13.96633461       0.06474473      -0.73178387       0.83877713
O        5.26011403       7.94105019      20.14031545      -0.40517394       0.08774029      -0.30156064
O        0.67678660       2.84119345       7.08120959       0.30218735      -0.01678743      -3.48671828
O        7.74749863       0.32012507       6.28496546      -1.97630256       0.15315625       0.25407002
O        9.62565328       7.39955230      20.57024440       1.87216099       1.48251872      -4.82712278
O        2.88668359       0.48180076      14.47834159      -0.23251502       1.08888787      -3.27710982
80
Lattice="9.77192453 0.01751879 6.90363604 0.24348012 9.76890588 6.90363604 0.01370155 0.0133883 13.86910312" Properties=species:S:1:pos:R:3:forces:R:3 energy=-576.76567563 source_file=vasprun.xml step_index=0 time_fs=22000.0 time_ps=22.0 file_index=11 pbc="T T T"
Na       2.84444623       2.13964205      15.93580991       0.12878980       0.73985987       0.04350717
Na       7.91738105       7.09255252      18.51307817      -0.82366464      -0.05146529       0.14499926
Na       7.55609557       7.45972885      11.17858288      -0.24322836      -0.60294437       0.42145324
Na       2.48897583       1.66228460       9.58887666       0.02815676       0.36020373      -0.25463292
Na       8.00270413       3.08873454      20.83792694       0.27958679       0.28837067       0.01327322
Na       7.33238819       1.36364333      13.17411258      -1.10987235      -0.02570171      -0.73628550
Na       1.43795860       6.05147245       7.01998491       0.18464923       0.55254493       0.25176164
Na       3.28058629       8.60155108      14.27864791       0.30598705      -0.16707568      -0.21632764
Al       6.96110467       5.15178237       9.00332527      -0.89545397       0.59839637      -1.63394613
Al       4.76286176       2.77787667      11.91995711      -1.99342187      -0.23670590       0.27895198
Al       3.01994289       4.52206707      18.64155203       0.32332481       0.49307130       0.03714067
Al       5.25187170       7.01765971      16.08383966      -0.00662303      -0.72257840       0.97088349
Al       0.56792425       2.12531170      11.72979367      -2.45797164       2.82046703       0.12327370
Al       8.10273564       9.61786272      22.88174667       0.49323144      -2.48397968      -0.00090830
Al       9.50515066       7.79342827      15.90504520       4.20043625      -1.83593819       1.02836897
Al       2.09067941       0.33087101       4.63844632      -0.86976723       0.93552620       0.87197515
Si       2.54137584       5.45358736      15.57974057       1.13580724       1.69725794      -1.04649267
Si       4.38306524       7.50157231      19.19128941      -0.01913449      -1.27826040      -0.94529031
Si       7.47028143       4.53444412      12.10940353      -2.26788263      -0.61584490       0.89634266
Si       5.37218664       2.24630909       8.74013767       1.60189457      -0.78404716      -1.67637886
Si       1.01430027       7.46622269      12.14580641      -0.63099155      -0.24078955       0.84817362
Si       2.28447649       9.15208737       8.34844520       2.18324083      -1.04607828       3.12810522
Si       9.15726162       2.49952700      15.33311316       0.11556630       2.72144259       2.88011022
Si       7.51420309       0.60715906      19.17487035       0.27526823      -1.22150432       1.33949318
Si       0.54002093       3.14948634       5.73468392       0.89231108      -3.03883559      -0.33734033
Si       7.05681116       9.31597369      14.95410698      -1.08627305      -2.92172224      -1.61961403
Si       9.47301286       6.77918167      21.70899536      -1.02508630      -3.04670312      -0.16242440
Si       2.88808331       0.44823853      12.91735700       2.78489683       1.98119579      -1.43786193
Si       7.79201563       5.47790801      15.01537587      -1.23346784      -1.87946851      -1.51667628
Si       4.52170532       1.75482842       5.93041950      -1.41558971       2.56603733       0.14001387
Si       2.21301275       4.66594721      12.71736348       2.04239671      -1.36967691       0.57381769
Si       5.52659767       8.01321380      21.90453788      -0.64214424       3.70350941      -1.85923870
O        8.47103220       5.41463114      21.89651151      -0.45621179       0.43955665       0.49936343
O        4.47891572       1.15962767      12.99761913      -2.15911746       1.05177045      -1.65299907
O        1.43594376       4.46537554       5.69613097       1.37455303      -0.60531133      -1.06718983
O        5.73512870       8.35686437      15.15571621       0.25388096       1.95757488      -1.18049215
O        0.84535580       3.83828304      12.57300008      -1.22717148      -2.20246604      -0.59547508
O        6.58321422       9.32663604      22.14522734      -2.28154138      -1.34904060      -0.25152437
O        9.15591498       6.27783683      15.16781581       0.33829754      -0.23451368       0.51520299
O        3.67916103       0.50092669       5.39331235      -0.04006315      -0.16171999      -0.04933373
O        3.46258554       6.15647566      19.17037464      -0.02648669      -0.82487517       0.86944826
O        3.58732439       6.76622144      15.67167069      -1.03904369      -1.41447566      -0.64096222
O        6.10563304       3.58450660       8.27177295       2.04468492       2.83567428       0.99855285
O        6.26182023       3.45045850      12.45779511       0.94889270      -0.47617269      -0.24177225
O        1.26252990       7.99048740       8.00298377      -1.48015549       0.55836054       0.73394946
O        1.69158654       8.87646808      12.60624792       0.06595206      -1.29723728      -0.03310158
O        8.98450924       1.31009428      19.48796968      -1.35835437       1.21273228      -0.17366677
O        8.35976096       1.16279920      14.94375403       0.32200978      -0.06382948       1.39690736
O        2.60416857       4.47752455      16.85004582       0.16240889      -0.55908605       1.55992634
O        5.08633093       7.45030334      17.74636562       1.02897330       1.06951394       0.53123627
O        7.02184593       5.30131078      10.74428542       1.11578097      -0.56591229       0.00761866
O        4.70586350       2.26086608      10.16109725      -0.17639260      -0.45539141       1.74576000
O        0.21961313       7.58430489      10.76722152      -0.72237476       0.07881680      -1.87663313
O        1.93820425       0.04959521       2.95481713      -0.20329846      -0.15208627      -1.05407091
O        0.10443530       2.42108371       9.98250956      -0.25336789      -0.50273832      -1.04224867
O        7.96758627       9.51210650      24.70070315      -0.47155686       1.64881586      -1.17054889
O        9.15559651       8.08219351      22.46916366      -1.64086471       3.38497740       2.48700188
O        1.89906736       1.12323944      11.77352183       2.07135283      -1.07570604       0.21184989
O        1.06602778       1.75546280       4.92094026      -0.54985227       2.37968322       0.49596587
O        8.19345116       8.72098675      15.86946871      -1.01059378       1.59116112       1.12347364
O        3.41964840       3.98931255      11.88065327       0.96597528      -1.18071703      -0.63119749
O        6.18510006       6.77679989      22.58013267      -0.23877673      -2.19952022       1.76839004
O        6.49778691       5.76173336      15.96350588       0.65987527       0.52412762      -0.56036053
O        4.15318936       3.20899590       5.24374404      -0.83377658      -0.18629537      -0.33436959
O        8.85755263       3.69987714      12.08829940       0.22636687      -1.04721119      -0.08868752
O        6.62398510       1.05414187       8.43731148      -1.82152750       3.35290987       0.98646762
O        1.15371183       6.20132660      15.14296720       1.34434589      -0.70545687       1.07752018
O        3.21674016       8.64001303      19.52053336       0.56523773      -0.38233100      -0.73165881
O        8.09766996       3.86424218      15.26272556       1.34017315      -1.90640251      -0.15452859
O        6.09295009       1.54897538       5.61681013       3.16053975      -0.84834309      -0.71898346
O        2.03388359       6.18729150      12.17577453       0.15126347       0.95058851       0.20148282
O        3.84714455       8.66819888      22.13150544       4.08600972      -2.55203274       0.18179424
O        7.51305068       5.65901070      13.29435570       0.05065422       0.09243960       1.15761171
O        4.17598097       2.01757565       7.62005821       0.26907125      -1.45163483      -1.02445440
O        2.94626506       4.51284684      14.27600824      -1.29229958       0.40881822      -0.34703696
O        5.69106034       7.59712809      20.23589820      -1.60188953       0.60865485       0.73980386
O        0.58467124       2.57668431       7.34135249      -0.17220437       1.02750911      -0.94182504
O        7.56984466       9.11715913      13.35518426      -0.32072653       1.21933477      -0.21393886
O        9.56100509       7.14908498      20.14349542      -0.18857188       0.20422246      -1.92049724
O        2.17798282       0.66740986      14.36575236      -1.27144374       1.93080060      -1.13937970
80
Lattice="9.77192453 0.01751879 6.90363604 0.24348012 9.76890588 6.90363604 0.01370155 0.0133883 13.86910312" Properties=species:S:1:pos:R:3:forces:R:3 energy=-576.5531902 source_file=vasprun.xml step_index=500 time_fs=23000.0 time_ps=23.0 file_index=11 pbc="T T T"
Na       9.51281225       2.33231881       9.82370702      -0.19998318      -0.24429335       0.50280790
Na       5.69818177       3.82141739      16.89263448      -0.00927524      -0.67924470       0.40390523
Na       8.63194994       7.89395947      12.53896823      -0.52754118      -0.36211670       0.02811220
Na       1.27948527       8.81571543      17.42468857       0.27327734       0.16409678      -0.36862724
Na       8.82962928       4.18303173      20.98665749       0.03384948      -0.28246211      -0.84841822
Na       6.14116121       0.14315558      12.61881284       0.28532948       0.07659696       0.34832218
Na       2.01372625       5.66890519       7.28056735       0.52450497       1.47627025       1.83724832
Na       3.85148233       8.55208811      13.74980937       0.45440182      -0.04229797       0.06790092
Al       7.13284992       5.39274504       9.23332334      -0.14916532       0.51214420       1.94380014
Al       4.69465444       2.87380262      11.53961814      -0.70803279       0.26717847       0.51178875
Al       2.93887001       4.63942084      18.55383730       0.87523172      -1.57585118       2.06168827
Al       5.45954526       6.81084649      15.96526519      -0.69107558       1.48881250      -1.12430969
Al       0.58038256       2.21863805      11.35236785      -1.11792453      -0.13092374       1.12241288
Al       7.98925432       9.68111532      22.87564843       0.57592964      -3.48578938       1.56520028
Al       9.64707402       7.81716757      16.05905551       1.82458975       0.31218538      -1.65499697
Al       2.06617646       0.59173129       4.82210426       2.04109075      -0.92318047       0.07619887
Si       2.67185378       5.66068392      15.45311010       0.48096793      -0.23433745       3.77541371
Si       4.27109928       7.34104023      18.98217339      -0.40842305       1.62000146      -0.73716022
Si       7.29649990       4.27615008      12.12062595       1.15827790       0.74437473      -1.29038353
Si       5.64025190       2.61838702       8.76816906      -0.22192861      -0.42378853      -0.41595092
Si       1.11692719       7.42525245      12.17874888       0.81164995       2.59585886      -0.48287760
Si       2.71230744       9.48191737       8.58457048      -0.32266751      -4.29652799       0.34786254
Si       9.20912103       2.49468606      15.44395610       0.66557184      -1.04703173       1.34355194
Si       7.50641530       0.96759011      18.96756646      -1.28102511       2.19267641      -0.05859247
Si       0.45733540       3.20945331       5.82060621      -0.34742769       0.99259254      -6.28138791
Si       7.04942622       9.47978962      14.98223909       2.38749507      -0.54878463       0.07162723
Si       9.79720765       7.02876087      22.02640250       0.25130312       1.96725921       1.18206048
Si       2.89509027       0.40344713      12.67033320      -0.79943341       1.35547512      -2.85229019
Si       7.98849430       5.28692087      15.18018735      -0.07424663      -1.15087697      -1.85612162
Si       4.71872796       2.20385436       5.82409341      -2.01073122       0.43754863      -1.84649055
Si       2.38157716       4.67881772      12.64435803       0.74420099      -1.96493819      -0.32794740
Si       5.47376153       7.91974087      21.85809662       0.39330178       1.76169923      -0.80264775
O        8.63961623       6.00214960      22.40724094      -0.00164782      -1.96259264      -0.67911107
O        4.24604596       1.25548731      12.10993364      -1.61240604      -1.12235558       1.02366549
O        1.39648556       4.58068723       5.77490497       0.17858519      -2.52471585      -2.45754106
O        6.20425978       8.09235137      14.80991073      -1.11008726       0.37195817       0.43288159
O        1.18264993       3.70843869      11.98575842       1.40375892       1.39498786       1.18687961
O        6.61333929       9.12634076      21.98720970      -1.05088892      -0.72710487      -0.44200137
O        9.24487470       6.29660960      15.08095312       0.00161511       1.06779921       0.00786184
O        3.59289812       1.01977501       5.68110993       0.08705830      -0.22566562       0.86785192
O        3.58851707       5.99614981      19.37893938      -0.64936543      -0.51913939       1.62943925
O        3.91758782       6.52267404      15.03188460       2.42371339       0.86026298      -0.84489971
O        7.06939702       3.54307865       8.89555111      -0.96026405       0.65372545      -0.57291567
O        6.43978512       2.92764336      11.73390372      -0.34473956       0.95652149       0.93641277
O        1.44177078       8.44431446       8.41007302      -0.97058647      -0.42178192      -0.40119938
O        1.99422166       8.85270716      12.64434624      -1.55736868      -1.40597911      -1.85765326
O        8.58800277       2.18770023      18.78857092       0.48430719      -0.56092723       0.75694889
O        8.00153104       1.41529741      15.35606030       0.72935902       2.27541319      -1.41040739
O        2.96813962       5.06888308      16.97355323       0.00382914      -0.94093009      -3.49771063
O        4.60455527       7.33278901      17.39744875       2.01619357       0.25788553       0.47303312
O        7.31338468       5.59594932      11.08850020      -1.02697168      -1.19424414      -0.93866125
O        4.42666972       2.87157596       9.81022497       0.94314566       0.32543219      -0.03434200
O        0.37866080       7.42228068      10.73283528      -0.30951337       0.25102539       2.09996495
O        2.29047499       0.40963590       3.06928797      -0.02422323       1.46017331       1.43759194
O        0.48150840       1.97482444       9.67540420       0.05090903       0.15304820      -0.98787902
O        7.91451898       9.57692229      24.74979992       0.21456060      -0.19154444      -0.55796500
O        9.39596977       8.47507149      22.66357135      -0.35603196       0.80719961       0.27285255
O        1.40620917       0.83270230      12.02847659       1.12817020      -0.15953302      -0.14192991
O        0.96765124       1.87542713       4.91100033      -1.34720466       2.56677539       0.14628122
O        8.43079093       8.99755412      15.76520998      -1.07823555       0.90629174       0.31169542
O        3.96195723       4.20588484      12.46396380      -1.28155263      -0.31102776      -0.93975527
O        6.03687764       6.56556459      22.42070364      -0.25127918      -1.75921221       0.71600318
O        6.79405851       5.65839445      16.19127598      -1.62974761       1.04954577       0.10307542
O        4.31559284       3.39787971      18.63945649      -2.16847929       1.65309953       0.36710004
O        8.80222679       3.66346921      11.87089368       2.71291365      -1.24196235       1.02116393
O        6.08267061       0.97747246       8.81795093      -0.03509987       0.50088343      -0.12092464
O        1.42585535       6.55913551      15.94965813      -2.39375312       1.76381520      -1.25724503
O        3.19601768       8.62407309      19.03164806      -0.16538198      -0.12834220       0.32495057
O        8.47664894       3.88513350      15.84878389       0.24758159       0.07189208      -0.18773323
O        5.99890702       1.76572634      18.79315983       2.95791324      -1.62685889       0.52635130
O        2.11791772       6.18759387      12.14231881       1.49350485      -0.74272799      -0.20102190
O        4.06181842       8.43508217      22.50303949       0.01319760       0.22293381      -0.36921511
O        7.32688538       4.89679441      13.62455664       0.22879671       0.65099807       2.22521342
O        4.85521520       2.87418666       7.32069660       1.11303796      -0.63630885      -0.22004500
O        2.25293363       4.65007708      14.32026773      -1.47918535      -1.38538152      -1.34598217
O        5.32136268       7.74852461      20.15380373       1.06375235       0.58833043       0.62662459
O        0.42627991       2.66863017       7.23250538      -1.43050648      -1.10739803       4.40391072
O        7.49845112       0.29358116       6.63148161      -0.54436332      -0.69860110      -0.12391972
O        0.25430664       7.17003202      13.52017990      -1.31869047      -0.77687392       0.42985232
O        2.63516707       0.61052559      14.22418485       0.67801534       1.04580214       0.99880845
80
Lattice="9.77192453 0.01751879 6.90363604 0.24348012 9.76890588 6.90363604 0.01370155 0.0133883 13.86910312" Properties=species:S:1:pos:R:3:forces:R:3 energy=-575.43016017 source_file=vasprun.xml step_index=0 time_fs=24000.0 time_ps=24.0 file_index=12 pbc="T T T"
Na       6.82557694       0.81487694      13.12966718       0.08340321       0.56851365      -0.30032621
Na       9.05564605       3.21515936      21.45188088       0.37969508       0.14744203      -0.62480437
Na       1.82985914       6.46809853       7.03843903       0.00623316      -0.97162411      -0.74371453
Na       7.26333455       7.42905772      11.10851568       0.17122985       0.96018135       0.65570479
Na       6.37363769       4.82314184      17.86797721       0.14583877      -0.02734236      -0.12673803
Na       3.70982698       2.28584365      14.88805986      -0.06422623       0.43541828       0.52241348
Na       3.09071257       2.73725670       8.81664770      -0.92821614       0.09096483       0.49993985
Na       3.81753740       8.21093363      13.50558730      -0.17548785       0.24474168      -0.35894889
Al       7.27582673       5.63085525       9.03776112      -0.44174315      -0.39681892      -2.01439238
Al       4.64265053       2.99274807      11.70166255       2.60746983       1.47951930      -0.42922651
Al       2.93258622       4.69108190      18.16116811       1.71697592       0.12960634       0.06500123
Al       5.54441915       7.35369872      16.06608605       0.48389228      -1.27411105      -1.31232052
Al       0.53777493       2.26820928      11.25367569       3.68104855       0.89691328       1.23426248
Al       7.92512924       9.77443216      22.79632597       0.30326766      -1.73151433      -0.57797428
Al       9.88490615       7.89009669      15.87712962      -3.31222214      -0.23594459       1.20719122
Al       2.05572350       0.41896843       4.51154265       1.22667242       1.18009754       1.15099802
Si       2.77772803       5.65542614      15.27438494      -0.34795371       0.54177005      -0.33347926
Si       4.41872761       7.42513366      19.08830950       0.08344956      -0.46259251      -1.03485422
Si       7.56632534       4.33296620      12.05208815      -1.01179708      -0.07072565       2.24261394
Si       6.18175079       2.64263230       8.64866608      -3.29057914       3.04054180       0.25697326
Si       0.73393930       7.54805940      11.81072863       3.68594587      -0.86373364       1.39900418
Si       2.57791260       9.36560658       8.51966428       3.10722266      -1.82674839      -0.48635311
Si       9.40485968       2.53415728      15.22521837       0.19205763       2.71569623      -1.79325964
Si       7.45399740       1.05834954      18.77941866      -2.30138174       1.20507443      -0.49532381
Si       0.48987950       2.88582073       5.33514758      -0.76121370      -4.29575879       1.91336783
Si       7.36576745       9.54487995      14.61340092       3.36114166       1.86587984      -2.84664621
Si       9.67126426       7.28216947      21.83590825       0.82778912      -0.74406611      -0.07935144
Si       3.01258076       0.58678512      12.57561046      -0.90447203       0.72839344      -1.47300747
Si       8.29730089       5.50799487      14.95635429      -0.51255459      -0.77496450       0.26626832
Si       4.80124775       2.48974993       5.71126241      -1.35610498      -1.41435731       0.69819597
Si       2.14581688       4.73485180      12.23502357      -0.46040720      -1.07500713      -1.54769232
Si       5.52714527       8.15778391      21.98752588      -2.43716359      -4.35778475       0.40865414
O        8.43853626       6.26267662      21.70330009       0.09444220      -1.68316806       0.49871659
O        4.24454142       1.63513573      12.68135123       0.96665907      -0.04999118       1.05597052
O        1.50774786       3.97581741       4.87603467      -0.48739644       0.76121508       0.12550435
O        6.24537433       8.68211421      15.17014499      -3.56563491      -1.26135617       1.31400930
O        0.95400419       3.62246277      12.48510199      -0.30194628      -0.39013813      -0.91452637
O        6.44598156       9.36592539      21.84138205       3.40536168       3.33571767      -1.18984819
O        9.82354392       6.20768645      15.37968513      -3.38748316      -1.06930424      -0.92806457
O        3.55431342       1.34676493       5.48458737       0.60150859      -0.58819163      -0.32343843
O        3.16897623       6.33458780      18.95886571       0.28497238      -0.35489145      -0.06702199
O        3.99030861       6.83290657      15.29517996      -0.36503387      -0.82548131       0.18772457
O        7.07720745       3.97298017       8.30886480      -0.28909988      -0.02339798       0.39608717
O        6.17437321       3.58498368      12.67771011       0.20067613       0.73870911      -1.44673056
O        1.65684451       8.06169666       8.33781080       1.21627620       1.64384618       0.50582739
O        2.14773636       8.45249915      11.61818647      -0.43791301       0.72985796       1.03364648
O        8.91179582       1.68591453      18.81673530      -1.27906258      -0.90255731       0.98801536
O        8.39758941       1.32991707      15.08948769      -0.58931249      -0.91878532      -0.69662026
O        2.85142920       4.37542794      16.38562645       0.58587803       2.19344233      -1.23708709
O        5.38305409       7.19969245      17.74901899      -0.49480785       0.18695061       2.25278686
O        7.47236888       5.24306786      10.70640259       0.27328532      -0.17183469       0.96386447
O        5.54804685       2.76072082      10.17870751      -0.01017253      -1.11733953      -1.82981429
O        9.32830286       7.85517380      17.73356153      -0.28219898       0.67741999      -3.30300657
O        2.20159505       0.58310465       2.81736279      -0.17826838       1.43505338      -0.79598004
O        0.55659286       2.64497030       9.57891541       1.67672307      -0.79499042       1.67342891
O        7.05226705       0.25237095      17.44067748       0.13418433       0.30622255       0.48918497
O        9.04632927       8.36212118      22.91506255       0.83006239       0.75191325      -0.69907077
O        2.04883281       1.23511563      11.46633129      -1.34960088      -0.11011455      -0.07925539
O        0.60214493       1.29396455       4.76985839       0.12542453       2.14217696       0.93316249
O        8.87190741       8.91564364      14.77544130      -0.56757000       0.35060624       1.17628034
O        3.33755538       4.03574375      11.22308274      -1.17300533       1.01351966       1.26302127
O        6.20413669       7.06125088      23.03363231      -0.65678319      -0.22552886      -0.49696054
O        6.80250388       6.16322307      15.72494511       3.49685834      -2.17236908      -1.31257411
O        4.39449499       3.75545522      18.65894473      -0.83832884       1.70634485       0.07071377
O        8.67143105       3.12085121      11.93624149      -0.41164314       0.83732625      -0.32929467
O        6.97228038       1.37471420       8.18886826       1.93170317      -2.28947415       0.04333100
O        1.35848572       6.49556737      15.46838178      -0.99367037       0.49410805      -0.09232695
O        3.83481456       8.94837034      19.01256339       0.30875127      -1.22981287      -0.32720484
O        8.47304768       3.88737740      15.43572912      -1.30255902       1.86738440      -0.66890761
O        6.40265703       2.44359915      18.94168778       0.03289547      -1.75408692       0.92273869
O        1.56489879       6.09814470      11.52691529      -0.59179939      -0.49583950       0.57645658
O        4.14863609       8.75397220      22.61967723      -0.75512238      -0.23902099      -0.61097712
O        8.20365704       5.44251339      13.22073788      -0.67258083      -0.04067997       0.92562903
O        4.79462422       2.66929850       7.51482005       1.60634367      -0.08138082      -1.50654845
O        2.76338932       5.00191854      13.72012141       0.87915002       0.43202658       1.61627842
O        5.24067738       7.28301098      20.51690412      -0.15508922       0.67527840       0.49153625
O        0.69443120       2.68928716       7.04736424      -0.64594228       0.39636539      -0.81975298
O        7.17404436       9.72162017      12.89251338       0.25445072      -0.85833785       2.59203281
O        0.25998897       7.67728044      13.35712158      -0.28917302       0.46258201       1.30323114
O        2.40560487       0.42242187      14.07154989      -0.57874378       0.81030207       0.29474483
80
Lattice="9.77192453 0.01751879 6.90363604 0.24348012 9.76890588 6.90363604 0.01370155 0.0133883 13.86910312" Properties=species:S:1:pos:R:3:forces:R:3 energy=-577.53554248 source_file=vasprun.xml step_index=500 time_fs=25000.0 time_ps=25.0 file_index=12 pbc="T T T"
Na       6.19201217       2.13131084      14.08727382       0.08682259      -0.79614500       0.56838568
Na       8.61830671       3.63282021      20.35467826       0.06596862       0.04466325      -0.17304981
Na       2.23553542       6.35828510       6.91514034      -0.48013940      -0.02781776      -0.11710231
Na       7.65333804       7.53835239      12.32569735       0.35929799      -0.06691376      -0.25426389
Na       7.42268065       8.33708266      18.03583067       0.66235500       0.32410299       0.55466464
Na       2.87403935       2.36828310      15.84610460      -0.42091107       0.16554287       0.21524192
Na       4.54014495       6.01265173      10.37863742       0.26219590      -0.25876043      -0.03973624
Na       4.13056397       8.94456945      13.80886658      -0.53198627      -0.07167237       0.06698420
Al       7.33372961       5.14825730       8.89701237      -1.18533572       1.02472366      -0.44197372
Al       4.64064293       2.96546843      11.53350012       1.94476496       0.48243883      -2.33298589
Al       2.97386365       4.66303837      18.40130569      -1.55760729      -4.72966288      -1.69894773
Al       5.66262398       7.07393584      15.84063249      -0.81887179      -1.71934954      -1.28939896
Al       0.60084749       2.09200592      11.20066361      -0.09216807      -0.10356121      -0.52530761
Al       7.95064057       9.34495625      22.67376915      -0.61685484       0.64612426       2.01722216
Al       9.60379939       7.81146457      15.97503955       1.45909715      -0.62915300      -3.44833832
Al       2.29112594       0.51669006       4.41748161       0.33068005       0.00641595      -0.29191095
Si       2.77578441       5.57021941      15.34275641      -2.34735279       1.09424614       0.28870399
Si       4.54461631       7.38421894      18.75981419      -0.79557934      -0.65698531       0.87269172
Si       7.48321390       4.10189931      11.89836243       1.29817788       2.57403454      -2.56424959
Si       5.76366605       2.72115424       8.25236171      -2.83549214       0.56545173       1.14019246
Si       0.82246542       7.47396187      12.05986534       1.71012000       2.62252289       0.64482895
Si       2.84398184       8.98204765       8.33275431      -2.50999534       0.76875457       1.22366791
Si       9.29557945       2.29851534      15.10752628      -1.04872152       0.26196578      -1.19796592
Si       7.51489670       0.86032338      18.95691023       0.73579124       1.09928937      -2.47898578
Si       0.60734725       3.04665136       5.27949004      -0.37931412      -0.50832729       0.47823568
Si       7.31525995       9.68931275      14.92010526      -1.52659542      -1.76861118      -2.28683314
Si       9.75081449       6.87888303      21.89942715      -0.16719410       1.25238306      -0.44176745
Si       2.97227564       0.38720142      12.42278775      -0.55641809       1.43835175       0.55612163
Si       7.98624610       5.30209288      14.66314898      -2.33863031      -1.21067020       0.68806402
Si       4.70035730       2.14183354       5.51082657       1.58484171      -0.66683805       2.72212273
Si       2.10566766       4.72653561      12.40719494       4.39991188      -1.40305981       2.11505872
Si       5.55636400       7.70568419      21.70808283      -0.39815522       0.51513963      -1.18015668
O        8.90890145       5.54057748      22.15745263      -0.12196658      -1.11187588      -0.98864058
O        4.14839005       1.54669985      12.40224193      -0.04441019      -0.67148116       0.05267297
O        1.43470478       4.46242824       5.54026909       0.58859790      -0.66303375      -0.46581990
O        6.04693665       8.54523653      14.91112399       1.20576250       0.11848800       0.79016880
O        1.02007516       3.73998451      11.90183807      -1.77183186      -1.58306963      -0.95390890
O        6.33374654       9.12837218      21.87281339      -0.07022588      -0.14247898      -0.25799026
O        8.85704299       6.59872314      14.64190201       3.12065202       2.45419050       1.52093614
O        3.90157867       0.77286383       5.23294007      -0.80984294      -1.64708129       0.21115538
O        3.56348823       6.11437912      18.73609683       1.08199893       2.81597646       0.99059892
O        3.97960666       6.69051129      15.10429656       1.22086429      -1.14540914       0.79733083
O        6.74748495       3.87407879       7.79304295       1.39996504       1.23647979      -0.08695193
O        6.35850727       3.13685345      12.22593977      -4.24775348      -3.22323547       1.26075212
O        1.42889938       8.19489942       8.26201497      -1.64297346      -1.30616715       0.97423633
O        1.93112952       8.71897173      11.88940300      -1.10855104       0.17392614       0.51943381
O        8.91473782       1.73888960      19.01677186      -0.54429818      -0.02858649      -0.03931592
O        8.07457321       1.16350218      15.11945934       0.60408856       0.99807938      -0.52113837
O        2.58962076       4.56482128      16.66082955       1.09154403       0.95458037      -1.31228801
O        5.52413309       7.52700229      17.52551776       0.63984577      -0.02649035      -0.95643646
O        6.98693439       4.83003091      10.52833705       0.62591577       0.78442618       0.58444140
O        5.12077444       2.97354722       9.68805050      -1.72220172       0.72447029       2.69083899
O        9.58088688       7.52643806      17.67620995      -0.02852663      -0.80343497       0.55615248
O        2.77644110       0.04649936       2.78929083       0.42243911       0.77024035      -0.53123838
O        0.47952089       2.04194404       9.43314296       0.41500462       0.62908313       1.15473602
O        7.75444811       9.53785219      24.57236294      -0.66585563       1.30478412       0.24102013
O        9.08462747       8.06566397      22.69365360      -0.80834104       1.05485563       0.77354993
O        1.75423935       0.83897397      11.49412963       0.24355297       0.23473989       0.54947620
O        1.36723572       2.09400990       4.15845463       0.17093284      -1.12351787       1.30283127
O        8.63768082       9.18259569      15.64804551      -1.00671183       0.90708418       1.18544558
O        3.67290605       4.42340982      11.81431764      -1.08841808      -0.07810244      -0.40111905
O        6.28040396       6.69115501      22.70532506      -0.27313950      -1.45860015      -0.15413924
O        6.78780590       5.61154333      15.77289695      -1.06289469       1.23708946      -0.82530971
O        4.01140551       3.16104456      18.45528125      -1.31717070       3.74822683      -1.39213296
O        8.86140329       3.33822885      11.55328086       1.24514600       0.10873541       0.69284632
O        6.38827222       1.29272361       8.48819184       2.75092225      -2.77645227      -0.05521860
O        1.47634314       6.66842667      15.44099001       2.31304309      -1.06175553       0.23979780
O        3.58569255       8.66016801      18.89112305       0.33613832       0.00951016      -0.30331001
O        8.52141085       3.83081956      15.18027114       0.53288547      -0.61983228      -0.86688545
O        6.39436485       2.16794034      19.17330828      -0.05650831      -2.17573230      -0.67170977
O        1.89881504       6.28659807      12.33756142      -0.59531503       0.71993419      -1.76888870
O        3.85685765       7.76711509       8.13778779       2.79979740      -1.43797351       0.39847790
O        7.44896779       5.31070353      13.01037061       0.97864549      -0.09724964       1.85867694
O        4.57006830       2.45854441       7.17829187      -0.48300499       0.09554568      -1.88073302
O        2.37263221       4.53837412      14.06711212       0.40770674      -0.09848847       0.53463698
O        5.40793590       7.17727474      20.11518109       1.66043721       0.51244810       1.26623844
O        0.33368498       2.22803779       6.73997900       0.08820045       0.50166095      -0.34213415
O        7.66184958       9.59595708      13.24096206      -0.40256239       0.21485080       2.09873315
O        9.76526792       7.56269052      20.36034070      -0.86657732      -0.66896804      -0.88037590
O        2.60402755       0.23247222      14.04852888       0.52303716       1.35436103      -0.97001056
80
Lattice="9.77192453 0.01751879 6.90363604 0.24348012 9.76890588 6.90363604 0.01370155 0.0133883 13.86910312" Properties=species:S:1:pos:R:3:forces:R:3 energy=-576.1422019 source_file=vasprun.xml step_index=0 time_fs=26000.0 time_ps=26.0 file_index=13 pbc="T T T"
Na       6.41183231       1.80894703      13.62546311       0.04543933      -0.67655852       0.87283135
Na       8.45913731       4.24853309      20.14232563      -0.08591942      -1.15693363      -1.04997083
Na       2.31256300       5.66151788       7.54408953      -0.35930098       0.17784388      -0.03328964
Na       9.81810087       8.02803621      25.17962750      -0.23886513       0.07769291      -0.03856241
Na       7.58433861       8.00633932      18.72622561       0.20271659       0.01794046      -0.16898714
Na       1.68318316       2.69900796      15.83724128       0.31583551      -0.22218964       0.28626414
Na       5.51644032       8.28963914      11.11385423      -0.00320428       0.45146144       0.06576264
Na       2.90606062       8.63913471      15.00329614       0.12377445       0.57786078      -0.29301467
Al       7.03304832       5.14078630       8.64493450      -0.25558754      -1.08213667       2.66264879
Al       4.77235967       2.79254863      11.30207065      -2.65925543       0.90485091      -1.01936452
Al       2.99742150       4.60158414      18.43708869       0.36332457      -2.82245521       0.59593315
Al       5.64136201       6.92687271      15.80652941      -2.34639663       1.11122734       0.27934528
Al       0.50973196       2.17424539      11.40985059       0.21613446      -2.18068315      -1.16126128
Al       7.97381406       9.42674336      22.82319943      -1.76306955       1.87915869      -0.48607593
Al       9.73583039       7.79166596      15.68955446      -0.57541161      -0.23496881       0.65901268
Al       2.24512661       0.40750114       4.41237375       0.99751224       0.17487599       2.33545550
Si       2.61776349       5.56766964      15.42910716       2.46281801       0.98255713      -1.10035979
Si       4.49970769       7.27068427      18.89447502       0.40392312       2.46365477       0.01242031
Si       7.53571960       4.12401850      11.77396003       1.78477192      -2.35639271       0.01638529
Si       5.59610970       2.53064451       8.19066691      -0.87122743      -2.72709027       1.77651457
Si       1.13148346       7.45410389      11.83760989      -1.71186670      -0.19864262       1.39622396
Si       2.69920074       9.09243998       8.34796933       0.62986310      -3.20209153      -1.01501351
Si       9.29097317       2.59560204      15.29519423       0.28392608      -2.49828273      -0.06010836
Si       7.37763834       0.84113183      18.93657182       1.12528881      -0.56540198      -2.05065892
Si       0.56554098       3.04747802       5.57958832       3.23911197      -0.92919938      -1.22362798
Si       7.06604502       9.54410728      14.75804581       1.55042385       0.17051784       0.96408568
Si       9.55724356       6.79185796      21.67776721      -0.88966900       1.07608290      -1.92620907
Si       3.17641836       0.36107990      12.38291655      -2.67845309       0.74307751      -1.51730109
Si       8.05859878       5.22789636      14.53822461      -0.65124842       1.71729642       0.92938107
Si       4.58543101       1.99686749       5.43234494       1.41668028      -2.50005368      -2.10719154
Si       2.21537100       4.47010955      12.39313921       3.68671877       2.42299480      -0.03724978
Si       5.43986560       7.91790566      21.87028948       0.17951129       1.79357096      -0.23404745
O        8.59931479       5.47358127      21.86028109       2.04603987       0.83679480      -1.03054892
O        4.41402810       1.22886105      11.89839654       0.71409981      -0.17625327       1.31743629
O        1.37026562       4.44308902       5.30854933       0.77122900       0.56754713       0.01032850
O        5.81383120       8.62946480      15.31436308       0.71328591       0.57444162      -0.40568555
O        1.00383757       3.50126154      12.27608254      -1.36331944       1.92781568       1.64672524
O        6.12134104       9.37532053      22.24004530       2.55946237      -0.70320432       0.26906389
O        9.25615033       6.24338436      14.98422147      -0.05454866      -0.91127784       0.11551353
O        3.99731482       0.58567571       4.68760724       0.25401011       0.04998838       1.73777958
O        3.67859455       5.90413124      19.34858920       0.98368913       2.13143330      -0.20383830
O        3.81121927       6.69580922      15.28373834       1.07555409      -0.54130379       0.76023071
O        6.35606758       3.78739361       7.69555403       2.02623450       3.92456897      -0.71157858
O        6.27745808       3.12102389      11.92420530       2.05373919       1.11252410       1.85103526
O        1.51695722       7.94923222       8.05998601       1.17165731       1.42646426      -1.13450747
O        1.87582713       8.81953012      12.24852689       0.95025624      -0.72649747       1.08723532
O        8.74749023       1.78378075      18.99707801      -1.44562551      -1.68943895       0.71919447
O        8.39508540       1.20369921      15.28953059      -0.54804200      -0.91220727      -0.83739097
O        2.84151863       4.68987366      16.75279993      -1.25489195       0.36103247      -1.82644808
O        5.63215488       7.11884078      17.66177367      -0.84352808      -0.62212448       0.55628048
O        7.54237335       4.90159675      10.43958779      -0.94840407       1.29602128      -3.76645636
O        4.93211868       2.74210421       9.63423300      -0.07113757      -0.10103845      -2.26331688
O        0.28484071       7.82714540      10.56079647      -1.51680178      -0.49476449      -2.31050387
O        2.10887877       0.06236997       2.79323458      -0.46788705       1.29040842      -2.50948510
O        0.32076525       2.50160723       9.73584703       1.06952167       0.56546925       0.83727332
O        7.74125804       9.35044026      24.56548896       0.47673061       1.89653954       1.67916896
O        8.98118767       8.07041380      22.49595718       0.69705554      -0.71419889      -0.39866954
O        1.75123674       1.01927287      11.79315122       1.08801798      -1.34528447       0.59177157
O        1.51800594       1.85751079       4.91944546      -1.47176259       1.17702693      -0.08501368
O        8.56599655       8.99300613      15.25756211      -1.55302906       0.41812449      -0.34509083
O        3.53053727       4.06233633      11.50749895      -0.50456003      -0.48326978       1.42945028
O        6.22492191       6.64121942      22.43099631      -0.81669081       0.47152147      -0.02521369
O        6.60183146       5.89272946      14.87794025       0.50311334      -0.73711593       0.76950685
O        4.09749086       3.10369172      18.29990653      -1.86717824       3.59643101       0.57387247
O        8.89334802       3.07732870      11.89271623      -2.90774890      -0.14408649      -1.24298404
O        6.85915053       1.41039121       8.38265718      -1.47574840      -1.76399836      -1.25480956
O        1.28626537       6.53422840      15.41190976      -0.96486705       0.15084571      -0.31759049
O        3.51970178       8.68853919      18.53423052       0.48540412      -3.46420305      -0.16568569
O        8.16809361       3.72563066      15.21028153      -1.11025400       1.83904918      -0.47630939
O        6.26622950       1.99400751      18.86184435      -1.41121660       0.24010200       0.55414061
O        1.95530790       6.04011922      11.76985792      -0.20424129      -0.38888275       1.01001631
O        3.93613190       7.97580600       8.65547867      -0.25394610      -0.13276854       0.40681367
O        7.97870342       5.14081275      12.92195545      -0.04796421       0.81017215       0.64851564
O        4.40007250       2.13617342       7.07114658       0.64152844      -0.25595346      -0.18661659
O        2.61691669       4.56834731      14.11414779      -1.10272547      -0.34125230      -1.09397601
O        5.30660130       8.01747676      20.22768989       0.15779799      -2.01949023      -1.71687649
O        0.59392213       2.79370644       7.15257760      -0.67352285      -0.35994525       2.19625226
O        7.01774432       9.51609628      13.06116940       0.52359151      -0.14838722       1.73446637
O        9.54032705       7.23847230      19.85814123       1.03356098      -1.17476953       2.97182000
O        3.08133134       0.17165830      14.00600509      -1.07191641       0.31561769       1.50517682
80
Lattice="9.77192453 0.01751879 6.90363604 0.24348012 9.76890588 6.90363604 0.01370155 0.0133883 13.86910312" Properties=species:S:1:pos:R:3:forces:R:3 energy=-575.8866147 source_file=vasprun.xml step_index=500 time_fs=27000.0 time_ps=27.0 file_index=13 pbc="T T T"
Na       5.51628473       1.83930051      14.97733463      -0.11669901      -0.09705264      -0.81329058
Na       8.39552883       3.66914661      19.86943129      -0.47033647       0.26951536       0.76617812
Na       1.94069665       5.47641234       7.56560616      -0.34940881       0.17052097      -0.14695778
Na       0.92457179       8.80505358      17.23032084       0.79965642       0.14526406       0.90191716
Na       7.82122347       7.25984311      18.93459049       0.29782050       0.38488202      -0.37960567
Na       1.54633787       2.66491336      15.87987219      -0.15005357      -0.11082166      -0.14016281
Na       6.02770155       7.22920881      11.68390011       0.44396276      -0.13133130       0.09671771
Na       3.54334534       9.04887730      14.14436644      -0.34145760       0.34010750      -0.37111493
Al       7.05401096       5.21711911       8.75196618       0.82654268      -1.24068042       0.28535014
Al       4.66942670       2.89777105      11.52420194       2.35188419      -1.86633360      -1.44927662
Al       3.12191867       4.57256789      18.46482411      -2.73145450      -1.28944602      -0.92139479
Al       5.44678587       6.93130622      15.62709597      -0.55739692       0.53674198       1.74352808
Al       0.60465545       2.39092749      11.23203854      -0.66532990      -0.20846420      -0.38406140
Al       7.93741098       9.52512284      22.84837507      -1.24877075      -1.75875161      -0.68088183
Al       9.44712670       7.85525336      15.83752771       2.33771864      -1.83119227       1.02364568
Al       2.35405612       0.46065492       4.24883382       0.07037274      -1.40818257       1.43051646
Si       2.44025542       5.62763409      15.29289530       1.27867383      -3.19269999       2.33031240
Si       4.55353457       7.46379251      18.68076456      -2.12795641       1.28316772      -1.43475231
Si       7.57758648       4.40551188      11.87258783      -1.08019424      -1.78764465       2.01506032
Si       5.69531065       2.31032960       8.35164377      -2.64386778       3.19256202      -0.21679915
Si       1.17503241       7.47256770      12.03038842       0.05326245       1.53902781       0.29666882
Si       2.62239347       9.07231080       8.17219171      -1.15694768      -3.06733045      -3.02342565
Si       8.93056449       2.41469141      15.09007859       3.09270620      -1.42648313      -0.68571920
Si       7.69623102       0.73027616      18.98123758       1.33198461      -3.28916339       1.22905063
Si       0.56277858       2.67439508       5.43461337       0.12045657       5.00733934       2.73231616
Si       6.95129742       9.25533410      14.73320571       2.98309181      -1.19526405      -0.17466150
Si       9.69094387       7.07300741      21.83554233      -1.69091401       0.09993533      -3.46338526
Si       3.09682751       0.63235692      12.36515796      -0.77162471      -1.23782654       3.40156452
Si       7.94983847       5.42235850      14.84503444       1.64627793       0.50774111      -0.21198310
Si       4.88906979       2.12550550       5.33594266       0.02401486       4.75710057       2.96791540
Si       2.15070518       4.58108600      12.39400990       0.68955184       2.28163640       1.09666469
Si       5.37771203       7.66051555      21.51113399       1.41753267       0.01075593      -0.46699288
O        8.62723782       5.83191472      21.78670099       0.01248702      -0.11448731       0.60479013
O        4.38920959       1.47690555      12.69445418       1.38437798       1.39320481      -0.80140112
O        1.80070961       3.81898855       5.78049358       0.30842993      -0.05834191      -1.25775014
O        5.63401486       8.39953660      14.50446247      -1.56435731      -2.46722878       0.15840140
O        0.63861637       4.10624015      12.00370394       0.51248189      -2.51320206      -1.30522837
O        6.41133292       8.83747388      21.96669619       0.50435434       0.87195988       1.18804670
O        9.35767801       6.19299533      15.14535275      -0.06602146       0.33468060      -0.34297650
O        3.89195162       1.04837808       4.96256771      -3.21072733      -3.83921112      -1.92818277
O        3.47117182       6.20269128      18.77806601       1.36996559       2.12308946       0.65296442
O        4.02729895       5.92427806      15.23426617       0.63180559       1.64293901      -0.05890228
O        6.82308225       3.51755662       8.08445406       0.17041984       0.61523723       0.26011953
O        6.24694854       3.38620229      12.10254319       2.21196383       1.05253459       0.09048388
O        1.20633529       8.29905826       8.16169812      -0.67301631       0.09814475      -0.01485738
O        2.28769970       8.71241573      12.18262889      -0.61533462       1.06483282      -0.64222022
O        9.08772319       1.59703395      19.18106282      -0.31925240       0.02137523      -0.94189024
O        7.74768417       1.31936711      15.12889725      -0.44489678      -0.94391207       0.73394363
O        2.17834463       4.60325875      16.76549305       0.79571753       1.75733917      -1.53795065
O        5.17038174       7.80700048      17.21891020       0.52239184      -1.72626496      -0.57332349
O        7.29342663       5.23576177      10.54332086      -0.13675077       1.31482753      -1.45366835
O        4.75775421       2.59507312       9.67065001       0.54817567      -0.17632970       1.00591574
O        0.22735686       7.42425268      10.72642565      -0.70191323       0.63984668      -0.72787898
O        2.94807521       9.57730883       9.57124018       0.96612922       2.56603895       3.71220507
O        0.10116319       2.33107946       9.51624522       0.30232770      -0.33280826       1.18260157
O        7.92106082       9.38744830      24.64552686      -0.08621856       1.59302206      -0.56641719
O        9.27868834       8.34116870      22.66951288      -1.83648009       1.83063025       0.65926225
O        2.08595103       1.45827234      11.47460307      -1.83802807       0.75939777      -1.09611314
O        1.00517746       1.67443629       4.34958609       1.91044924      -2.90904643      -2.90050555
O        7.97849458       8.71711948      15.87108692      -0.01333847      -0.36008207      -0.23891340
O        3.59694617       4.11607863      11.90148205      -1.97805263       0.58553394      -0.54833927
O        5.75487369       6.26230477      22.19023515       0.03695335      -0.40871721       0.56656070
O        6.93598881       6.04471846      15.95087122      -1.11999314      -0.64546063      -1.06297754
O        4.51990151       3.57032530      18.44751102       1.17485472      -1.24062000       0.10064596
O        9.08664955       3.68708734      11.79733029      -0.99760810      -0.38989096       0.34275801
O        6.41969313       0.90372194       8.36510050      -0.49411696       2.24509760       0.72263501
O        1.48528375       7.02393412      15.29644673       2.75825798      -2.49896186       1.19466509
O        3.55192575       8.91877098      18.67993700       0.11412980      -1.52324252       0.61786765
O        8.28029492       3.84119264      15.02613494      -0.99372393       0.54406629      -0.07574429
O        6.47281687       1.75842481      18.92599848      -0.43356531       0.88950979      -0.10048337
O        2.17527383       6.21241961      12.19348716      -0.04043326      -0.28174008      -0.46111179
O        3.77480068       7.86246685      21.63742702      -0.50866854       0.97348408       0.14917293
O        7.53230992       5.50626623      13.24435480      -0.44976400      -0.27583295      -1.41522299
O        4.55472193       2.36099221       7.02350029       2.38748265      -0.60035770      -0.19443491
O        2.26286805       4.51038549      14.03625657      -1.21868224       0.14342288       2.20344681
O        5.74110202       7.45567232      19.84592669      -1.03672382       0.14420447      -0.09961915
O        0.22923573       1.94296061       6.86516853      -1.84085373       0.71490222       1.44333701
O        7.74581478       9.31254280      13.29468869       0.09135660       1.72022062      -1.62300990
O        9.88010693       7.60951737      20.24770889      -0.47620385      -0.69701725      -0.68706081
O        2.40201514       0.48981117      14.03956475       0.73283343       0.95066107      -2.25751582
80
Lattice="9.77192453 0.01751879 6.90363604 0.24348012 9.76890588 6.90363604 0.01370155 0.0133883 13.86910312" Properties=species:S:1:pos:R:3:forces:R:3 energy=-575.09413151 source_file=vasprun.xml step_index=0 time_fs=28000.0 time_ps=28.0 file_index=14 pbc="T T T"
Na       6.00296973       1.44924162      13.84112962       0.40350789      -0.44461062       0.03229378
Na       8.10296275       5.07321204      17.96913837       0.01333167      -0.11423721       0.11961995
Na       2.52644335       6.15275360       7.91801778       0.01902772      -0.99918833      -0.40726726
Na       1.70846081       8.85157481      16.76375213      -0.05628470       0.12232472       0.15374244
Na       8.82659911       1.33418151       9.51489448      -0.40083047       0.25755716       0.09589879
Na       3.69215291       2.35116838      17.01972157       0.19616025      -0.04410126      -0.99072421
Na       7.51129512       7.52696080      10.91641585      -0.02807799      -0.34772750       0.56426926
Na       3.88304984       8.05256210      12.99744111       0.26878185       0.06343964       0.37860186
Al       7.26280704       5.02550079       9.07745617      -0.01370982       0.02158008      -0.52726544
Al       4.60264752       2.85339170      11.75037698       1.63123826       0.08953719      -1.14392339
Al       2.62371264       4.75530388      18.18239984      -1.55432921       1.17180916       1.47383759
Al       5.47812793       6.80718005      15.80288126      -0.28852302       1.91744730      -0.50157145
Al       0.47714790       2.04843403      11.43430193      -3.05109157      -0.49664943       0.21519701
Al       7.98529218       9.45268702      22.59252983       1.20330610       0.27474520       1.27900769
Al       9.47849240       7.58100608      15.97750905       2.02120821       1.15107687       1.40784196
Al       1.86183142       0.47893076       4.53365460       0.67278700      -1.36124962      -0.48870352
Si       2.75351573       5.66369260      15.26364116       0.01645359      -0.21333918      -1.74746250
Si       4.07079028       7.45380364      18.77284997       2.36718955       0.32227539      -2.17241846
Si       7.26890616       4.26411512      12.28111573       1.62454319      -1.67062260      -1.64163960
Si       5.65796948       2.38872339       8.82134903       3.53685486      -2.22887220      -4.99658299
Si       0.65178639       7.25678791      12.02963873       2.03153270       1.09360517      -0.92017131
Si       2.77440688       8.86536724       8.54510673       0.20201791       1.29997511       2.17295254
Si       9.31147795       2.25291247      15.34839296       1.17376251       1.36393617      -1.24829295
Si       7.15990569       0.97789075      18.77192323       0.88847303      -0.31229457      -0.31853491
Si       0.31887750       2.92198054       5.58307132      -1.46780633       1.89242661      -1.55108841
Si       7.12789240       9.33240918      14.54002968      -0.41329917      -1.64759982       0.46587515
Si       9.81951853       6.81706331      21.92305273      -2.50257349      -2.85168994       2.04067625
Si       2.77449903       0.37753137      12.55547943       2.70121601      -1.58200318       0.01858412
Si       8.04960919       5.21441847      14.90939338      -0.51126431       1.77722800       0.50032012
Si       4.22821286       2.13080377       5.80757112       2.71965610       2.05684782       2.57288963
Si       2.19480892       4.58662977      12.23701406      -1.05808387      -1.11707183       0.88642893
Si       5.51234380       7.64581905      21.64503719       1.37190454      -0.68956648       2.94815318
O        8.85343740       5.51282284      22.29907807       0.76286933       1.03688458       0.09672865
O        3.87054518       1.52255932      12.44388873      -0.13725078      -0.27185174       1.37648063
O        0.88583204       4.32320781       4.98001508       2.30219490       0.63922552      -0.20226509
O        5.81206853       8.29470421      14.69153891       1.63753382      -0.09951464       0.50173203
O        0.69707959       3.62905368      12.03312931       3.74087927       2.30610545      -0.02032896
O        6.64487803       8.86796392      21.72567825      -1.79691518      -0.69018387      -0.83335548
O        9.41181347       6.08902003      15.25578300      -1.55883433      -2.53483650      -1.04710961
O        3.18586698       0.96725037       5.59489824      -0.16088805      -1.51583609      -0.12854450
O        2.82268557       6.49954917      18.87994341      -1.48076787      -2.57644432       0.40011552
O        4.00731297       6.58192212      14.89634927      -0.43782594       0.14999865      -0.62401370
O        6.92186555       3.36130381       8.67780350       0.35060193       1.63475309      -0.61989216
O        6.00821780       3.32351016      12.64874488      -0.03260490       0.44602066       1.20821746
O        1.44284450       7.88312506       8.54044344       1.09316563       1.66007014       0.44382314
O        1.49894224       8.69210566      11.87581882       0.27831036      -1.49022442       1.44200562
O        8.43493583       2.08708105      18.92287691      -1.13463871      -2.04656763      -1.04829181
O        8.27179298       1.17799464      14.83453061      -1.88131178      -2.07927823       0.52441156
O        3.08817367       4.63509189      16.41421218      -0.40945994      -1.57261296       2.90566756
O        4.90279423       6.97246679      17.43696648       0.52918546       0.34801854       1.11639685
O        7.16753947       5.01053942      10.85383522      -0.02762880       1.05854351      -0.08544352
O        5.31387440       2.29294478      10.28455122      -2.17534687      -0.55917987       2.58275189
O        9.35615154       7.42454217      17.77535000      -1.37929758      -0.90000876      -1.56779979
O        2.42490731       0.41436357       2.80340368       0.09467974      -1.90280355      -1.03722552
O        0.39399996       1.54217183       9.70980691      -0.60176097       1.78144818      -0.69210507
O        6.95272623       0.03015622      17.40561374       1.88103391       0.24852958      -1.90155362
O        9.37329240       8.14363131      22.66306636      -2.30497001       3.57979062       1.26683365
O        1.33486519       0.73172388      12.12172790      -1.84873341       0.23994616      -0.31277256
O        0.79860176       1.75145822       4.64606138      -0.33563915      -0.88758211      -1.59359592
O        8.48861589       8.79516297      15.39660170      -1.70380016       1.52915509      -1.24015756
O        3.63571716       4.19145593      11.55690664      -3.04182785       1.33160987      -0.08921645
O        6.10100777       6.26648762      22.33005725       0.20429459       0.46280116      -0.21861241
O        6.70163841       5.58244606      15.81964792       1.55548836      -0.12848597       0.00111224
O        3.61027019       3.53187184       5.12647151       1.04669165      -1.20001655       0.39610703
O        8.47783897       2.97858958      12.12040441      -1.68066257       2.01681077       0.99022305
O        6.56787341       0.95514337       8.36812979       0.06629969       0.38432617       0.46760011
O        1.50209267       6.64842508      15.80819264       0.85261007      -0.74333568      -1.67589966
O        3.56482357       8.98361681      18.33647843      -0.55795231       0.07795310       1.61471178
O        8.41383761       3.73025927      15.39792509       1.01177889      -2.63294516       0.92134922
O        5.68493255       1.73353706      18.84719849      -1.23591490       0.87468474       0.78031028
O        1.81247431       6.03961191      11.63334444      -1.45977245       2.11294598       0.42643150
O        4.17659114       7.90991190       8.83754166      -1.10440592       0.75343753      -1.04409090
O        7.55007239       5.51914818      13.34926063       0.65071408      -1.55365407       0.20686251
O        4.70018527       2.31397816       7.50753364      -2.38975317       0.67287274      -2.58607367
O        2.50037081       4.79069749      13.86878082      -1.10208696      -0.02160256      -0.03065301
O        5.03204529       7.41695004      20.14737182      -1.07094060       0.08289188      -1.78309149
O        0.53702626       2.52616859       7.12048047       0.44547999       0.02785558       2.27415017
O        7.44948929       9.38527669      12.84501131      -0.09442667       1.12661997       1.74608684
O        9.59921004       7.00497411      20.34014085       1.62533107       0.16079416      -1.84947817
O        3.18849372       9.59040209      20.99722351      -0.68788314      -0.13338676      -0.12874713
80
Lattice="9.77192453 0.01751879 6.90363604 0.24348012 9.76890588 6.90363604 0.01370155 0.0133883 13.86910312" Properties=species:S:1:pos:R:3:forces:R:3 energy=-575.34923527 source_file=vasprun.xml step_index=500 time_fs=29000.0 time_ps=29.0 file_index=14 pbc="T T T"
Na       5.73811842       2.28907035      14.44892188      -0.04516257       0.11634076      -0.26706715
Na       5.65186012       4.61721940      19.87953806       0.27173702       0.22054497       0.11585009
Na       1.46581111       5.72499933       7.25216913       0.19226401       0.00072159      -0.22235298
Na       1.68708832       9.64435739      16.45855439       0.30680922      -0.34982227       0.10734569
Na       7.58901100       8.49635073      19.62817253       0.03708987      -0.03092737      -0.31712578
Na       1.20734502       2.17684493      15.96394194       0.35965056       0.19134178      -0.89181579
Na       8.00810002       7.33422797      11.53243392       0.03052484       0.19835037       0.19646025
Na       3.53280838       8.14703267      13.37902386       0.86404032      -0.49323751       0.75252485
Al       7.19775260       5.37751563       8.98929448      -0.09061406      -0.04039809       1.04946989
Al       4.69610000       2.82789528      11.22311757      -2.53292064       1.10180971      -0.55069105
Al       2.73985319       4.51948903      18.32642087       0.49971048      -0.55053081       1.48581186
Al       5.69640494       6.89594393      15.78326559      -2.50437144      -1.53745856       0.80939394
Al       0.45180746       2.00131629      11.36279193       1.38754821       2.40285234      -2.46278338
Al       8.01073004       9.61734217      22.72181067      -0.46048215       1.10799804       0.30519262
Al       9.69340179       7.99281271      15.83526577       0.20844736      -1.17506276       1.24916828
Al       2.28911002       0.39309438       4.51663788       0.38281827      -1.49112465      -0.99167094
Si       2.51694663       5.39419819      15.31660779       1.79812076       1.53427115      -0.71689347
Si       4.49894588       7.19699167      18.83479754      -0.66776253       3.32790287       1.34334761
Si       7.41544001       4.17323183      11.89638795       2.22269042       0.85587269       1.70965608
Si       5.85878742       2.64785873       8.25808672      -0.36600052      -0.78654037       1.42091297
Si       0.85687292       7.38685220      12.02605348       1.98180340       2.31739631      -1.27581013
Si       2.84896035       9.03588982       8.31686436      -1.09391016       2.46599908      -0.90987255
Si       9.39701593       2.53101293      15.19952119      -2.08668204      -2.67539532      -1.49863519
Si       7.46020797       0.70952171      18.92327621       1.80378110       2.06417314      -2.57906278
Si       0.36466852       2.67981338       5.18555829       1.53598349       1.66601362       2.34697444
Si       7.32561740       9.41610073      14.68269372      -0.59427196      -0.40879042       4.38450095
Si       9.75196238       7.17218153      21.87112906      -0.48563417      -3.11974057      -1.17145580
Si       3.11056734       0.50065286      12.52787754      -1.99084507      -2.28409233      -1.64362978
Si       8.20453095       5.35001183      14.92473905       0.42268166       1.35069471      -0.50755372
Si       4.55197567       1.99374618       5.45965412       1.70078559      -3.32278358       3.42043748
Si       1.97887357       4.49072128      12.34806795       1.09230166      -1.86736276       1.01591172
Si       5.47541729       7.52747030      21.78896156       0.80986016       2.47441641      -1.72588292
O        8.85275464       5.84681952      22.43852426       0.58027687       2.81189109      -1.98417556
O        4.42589748       1.26838926      12.05267220       1.25308033       0.14312440      -0.10222836
O        1.25421746       4.10265752       5.36298365       0.00533683       0.25440351      -0.93032512
O        6.18403612       8.23714658      14.87521511       0.42009363       0.94310071      -1.20248474
O        0.86963384       3.69209892      11.46543081      -0.95730326       1.09370331       1.51683171
O        6.61591280       8.75198732      22.00578648      -0.51758431      -0.20279343      -0.61515021
O        9.25021190       6.60976362      14.80003111       0.08976876      -0.26986062       0.27757314
O        3.57657404       0.64185936       5.74915003       0.80800218       0.99796879      -1.38000200
O        3.73535608       5.83964702      19.14860064      -1.61860813      -2.01790901      -0.41569508
O        3.94746129       6.12665778      15.13105310       2.82730228       1.45518430       0.26712712
O        6.92792641       3.90890814       8.09920360      -0.53305512      -1.35201255      -0.31686921
O        5.87751973       3.76229771      12.08403414       1.57819115      -0.94247330       0.35022623
O        1.39282869       8.40386984       8.15643361       0.27344231      -0.38121183      -0.24952678
O        2.01733402       8.58187083      11.98060242      -0.74530560       0.18251496       0.35602440
O        8.79735283       1.73755341      19.03204841      -3.97285988      -1.97397401       0.92073388
O        7.85258878       1.61727648      15.12889499       1.32947675      -1.14737616       0.45905082
O        2.50361836       4.52902319      16.65860087      -0.91489846      -0.16141616      -0.07244288
O        5.11934113       7.39023935      17.39811830       1.22745210      -0.44816603      -0.44565957
O        7.62222752       5.27798333      10.71648340      -0.60384971      -0.48472723       0.71036466
O        4.77023197       3.01562593       9.41707273       1.11619793      -0.87015418       2.06336841
O        9.81581695       7.61284080      17.60802658      -1.24690099      -0.50967048      -1.99150933
O        2.72862341       0.09802077       2.76922009       0.64920211       0.36966146       1.33250016
O        0.49293290       1.84212790       9.45518329      -0.11761872      -0.11359538       1.10441604
O        7.73647441       9.53954718      24.47443927       0.43858483      -0.07214318       0.17810759
O        9.44890277       8.56334593      22.52195913      -0.74757311       2.21954462       1.34354313
O        1.74496100       0.99347492      11.71639371       2.05924014      -1.78973606       0.67496715
O        1.09872872       1.63593890       4.16018986      -0.78259284       0.45079517       1.48742701
O        8.55883520       9.24594431      15.81620884      -2.00157489       0.94866229      -1.89580559
O        3.26997421       3.69280452      11.86272484       1.46224304       0.48311465      -0.74033937
O        5.64814126       6.38667258       8.98038508       1.87774541      -2.06591976       0.51703450
O        7.02743039       5.76339075      15.91452031      -1.29335776      -0.17561636      -0.01513708
O        3.71244762       3.05144113       4.74058855      -0.40303982       2.17787032      -1.86943028
O        8.61779129       2.96209194      11.67945270      -2.55838036       0.79315225      -0.81292583
O        6.30458126       1.02072794       8.25401105       0.89314419       1.34068478      -0.11172750
O        1.51442466       6.72399547      15.24321123       0.11630242       0.09070613       0.45359351
O        3.41605669       8.54612691      18.99453041       1.32999033       0.30005626       0.50281348
O        8.92272249       4.03089384      15.44524729       1.33020855      -0.54921274       1.46404658
O        6.11586119       1.64603133      18.67526973      -1.62342975       0.21917642       1.19996205
O        1.73977915       6.10548337      12.32294604       0.86103130      -1.52564806      -0.53954131
O        3.89162329       7.92100818      21.72499490       1.20663925      -0.59308279       0.66142993
O        7.94937662       4.87805686      13.40190143      -1.73120677      -0.25458644      -3.09356506
O        4.88678524       2.61251198       7.00370612      -1.03316989       0.50310390      -3.66092775
O        2.33381884       4.37485824      14.10243726      -2.05359171      -1.21645081      -2.08876670
O        5.74911030       7.11927695      20.14807730      -0.87348094       0.09959379      -1.06275254
O        0.35996115       2.28847199       6.80366885      -0.35906531      -0.68646811       0.77385470
O        7.81015029       9.37175171      13.14931931      -0.18306762      -0.14245505      -0.40269645
O        9.70218308       7.63808735      20.20961689      -2.01629109      -0.62602190       2.31660524
O        2.82199449       0.56161460      14.12649801       0.16664478      -0.58056999       1.08373600
80
Lattice="9.77192453 0.01751879 6.90363604 0.24348012 9.76890588 6.90363604 0.01370155 0.0133883 13.86910312" Properties=species:S:1:pos:R:3:forces:R:3 energy=-574.52979523 source_file=vasprun.xml step_index=0 time_fs=30000.0 time_ps=30.0 file_index=15 pbc="T T T"
Na       5.03914716       1.62109236      16.03052543      -0.10134796       0.03439267      -0.38152766
Na       5.88020612       4.81985124      19.58705815       0.10818583       0.02177053      -0.21300598
Na       1.80178738       4.30588916       7.98312959      -0.25222155       0.08245991       0.14143348
Na       1.77341728       8.51513071      17.16930912       0.03603120       0.06148184       0.57801541
Na       8.08206041       8.83531527      18.92366810      -0.43559065      -0.01996974      -0.12170901
Na       9.35136039       3.40040794      21.09984816       0.47582889      -0.33006110      -0.24807269
Na       6.95313289       7.35694690      11.61658793       0.08030884      -0.40999074       0.41607099
Na       3.69309236       8.68988510      14.20770059      -0.09335156      -0.20131503      -0.35738993
Al       7.63275987       5.36614176      22.77289204       2.72048718      -3.84054377      -1.30154587
Al       4.85021856       3.04555984      11.21875210      -3.35017416      -0.94551395      -0.50988417
Al       2.55590928       4.53004876      18.40888464       2.34724185      -0.95100232       1.08097059
Al       5.63533671       6.68204166      15.78194468      -0.06569064      -0.84156219       2.77739537
Al       0.48543126       2.09592323      11.36340375      -0.31442157      -1.59261777       3.65059254
Al       7.77817736       9.35511631      22.87601502      -1.68186947       1.35342965      -2.50577549
Al       9.62554500       7.91085714      15.61589348       2.01057904       3.15362623       1.52447031
Al       2.44609634       0.30030164       4.45547766       2.09658552      -0.88474694      -2.06527076
Si       2.56581178       5.56739926      15.41512121       0.47178075      -0.61870879      -0.76005842
Si       4.40908783       7.12728966      18.82062379      -0.41536264       2.83977857      -0.42864691
Si       7.61610100       4.16022691      11.84486554       5.99219525       1.88910868       0.75112885
Si       5.94169130       2.74010357       8.08355045      -0.77270807      -1.24538484      -0.38135641
Si       0.92330062       7.42722651      11.95973321       1.14621424       1.00746572      -0.22042355
Si       3.03085597       9.19602363      22.25331822       0.02102601       0.57060513      -0.75821019
Si       9.13885080       2.38540074      15.31845525       0.59974366      -3.50145124       2.53257532
Si       7.30607694       0.68836752      18.74370655      -0.20603556       2.23146645       2.33299341
Si       0.56448110       2.54883584       5.64263944      -3.34872092      -3.50087618       0.45975047
Si       6.85637422       9.38942148      14.67454783       2.31771136       1.49027006      -0.09587895
Si       9.82573630       7.24856640      21.78185342       1.19848462       0.90579301      -1.64514142
Si       3.00420584       0.49323600      12.33785518       2.97815938      -2.28525148       1.65812295
Si       8.18081886       5.42688593      14.55316525       3.49265386      -2.16271883       1.32997776
Si       4.77565503       2.14732959       5.03956919       0.69590850       4.48288129       1.56973320
Si       2.22119195       4.50031818      12.53767559      -0.36754872      -1.73967819       2.05221008
Si       5.48058689       7.44573688      21.89245846       0.09158878       4.01593530      -5.61297146
O        9.17242123       5.80769438      21.86792259      -1.49895960      -1.23941778       1.05752006
O        4.08896220       1.53334381      11.81117732       0.75582295       0.83981643      -0.52266782
O        1.37081198       3.82869871       5.71340227       3.47436756       4.88848079       0.09565554
O        5.82363265       8.25831752      15.16053216      -0.34736055       1.12103995      -1.23577186
O        1.10630694       3.34384008      12.45206720      -1.32744589      -0.93185263      -1.54285961
O        6.35029674       8.85722603      21.80841356       1.22286399       0.36654866       1.95888696
O        9.49468743       6.41004616      14.81142504      -0.58873928      -0.97066436      -0.24611494
O        4.03174090       0.79885592       5.15765262      -1.84911215      -2.11096902       0.58825230
O        3.22509826       6.03158257      18.98036705       0.37276595       0.56628135       0.98492800
O        4.06499422       6.16096479      15.37916282      -0.44706082      -0.28234598      -1.40110357
O        7.28916720       3.67805339       8.01224443      -0.33298489       1.13590456       0.10911524
O        6.27963433       3.53543528      11.90041470      -3.28249482      -2.09392212       1.59823253
O        1.48670862       8.88788000       8.48196621      -3.34879386      -2.44983657      -0.15312006
O        2.19226515       8.53490491      11.99005664      -0.50702844      -1.20427748       0.78601145
O        8.60779909       1.57211412      19.22573937       1.15194842      -0.77115913      -1.58512290
O        7.87859569       1.27057616      15.59930994       1.47218080       1.60830500      -0.50970564
O        2.22075022       5.01713370      16.86639999      -1.73947300      -0.33510730      -2.07369036
O        5.39869663       6.98507371      17.53966675       0.38675778      -0.72708446       0.38077658
O        7.70365466       5.13471937      10.57442399       0.62462440       0.65110259      -0.66470969
O        5.13428066       3.03533203       9.44689582      -0.93481825       0.76484362       0.35105139
O        9.76678748       7.79424806      17.57203043      -0.43122933      -0.68121770      -0.92958931
O        3.17303866       0.26361288       2.76944480       0.32196474       0.81991932       1.61247376
O        0.41386809       2.59884248       9.77500766      -0.86932622      -0.90496430      -2.54077341
O        7.52856421       9.27691441      24.55485492      -0.07908527      -0.13974467       0.44435961
O        9.15189116       8.45825464      22.58221092       1.97141911      -1.48900013       0.59790709
O        1.52736711       0.60868523      11.83133553      -2.68582419       1.20100515      -1.76207870
O        1.37177684       1.55165903       4.68964911      -1.80679855       0.61758346       0.11658946
O        8.39391899       9.14384657      15.17995068      -0.12687390      -1.52804637       0.28023794
O        3.62664176       4.17637754      11.95396241       1.80080298       0.03817871      -1.89953479
O        6.42880895       6.30746775      22.27019670      -1.42408091      -0.39535981       1.27297501
O        7.03546604       5.62973308      15.59102737      -2.33200767       1.30210331       0.18741745
O        4.16431053       3.52116121      18.14051381      -0.82488989      -1.37753540       0.69358022
O        8.78214532       2.99023094      12.09924762      -0.03839604       0.01145996      -0.55200853
O        6.30311407       1.14880485       8.20908192      -0.30296738       0.14162431       0.58520059
O        1.70456885       7.07560683      15.30731497      -1.18670384      -0.10181165      -0.78544195
O        3.75414640       8.72882309      18.60070984      -0.38146714      -0.91056479       0.56496099
O        8.70895233       3.84972490      15.16979108      -1.62441228       4.58366682      -2.33104673
O        6.32999059       2.04864154      18.31984791      -0.37758483      -1.77830478      -0.46027199
O        1.59113720       5.90154832      12.13398131      -1.33774135       3.05018314      -0.83946340
O        3.99278542       7.81362575       8.42604322      -1.45939971      -0.68097221       0.91541579
O        7.97572596       5.41801159      12.94224436      -1.00322107      -0.54920162       0.29972077
O        4.98633568       2.82912093       6.61449660       1.05718044       0.28303938       1.60128158
O        2.30546366       4.38139371      14.20875013       0.32254940       2.78765283       2.33684349
O        5.37232897       7.11463137      20.16303515      -0.11478369      -0.52704263       0.70714049
O        0.39700469       1.89323022       7.20647877      -0.02557798       0.16098948      -0.90903024
O        6.76488711       9.56848358      13.02872632       0.74980335      -0.44857067      -1.06367207
O        9.68493979       7.83836658      20.19278833       1.18109565      -1.17701265      -0.30721558
O        3.11414923       0.38263490      14.03705715       0.30578912      -0.20919438      -1.04916592
80
Lattice="9.77192453 0.01751879 6.90363604 0.24348012 9.76890588 6.90363604 0.01370155 0.0133883 13.86910312" Properties=species:S:1:pos:R:3:forces:R:3 energy=-575.06959947 source_file=vasprun.xml step_index=500 time_fs=31000.0 time_ps=31.0 file_index=15 pbc="T T T"
Na       3.67285705       2.84519354      14.82775422       0.10074625      -0.76667717      -0.26165903
Na       6.13265009       3.98148505      18.00082178       0.39374628       1.38993610      -0.63830847
Na       1.41295651       4.42241487       8.88047137       0.40291541       0.15389463       0.14514183
Na       1.59548068       8.37188483      17.33700529      -0.11546338       0.09293993       0.34075782
Na       8.59243033       0.84448606      10.60038970      -0.26865499      -0.32653160      -0.00143791
Na       8.98854769       3.82227220      21.27761500       0.61034755      -1.51948131      -1.22594964
Na       5.20951505       7.88080123      10.75209900       0.19219404       0.17945522      -0.14373900
Na       3.91079141       8.11898486      13.97726649      -0.01041255       1.21587166      -0.63434776
Al       7.34138240       5.15388612       9.11522866      -1.79222053       0.11742123      -0.06485388
Al       4.62338817       2.91221616      11.31589158       0.21556905       0.95466669      -0.66363441
Al       2.96459072       4.61552913      18.28247289      -1.48898375      -2.16291697      -1.42410358
Al       5.86161373       6.86289951      16.19040657       0.20663877      -0.42869799      -3.34276677
Al       0.42968964       1.99270423      11.41729746      -0.22409921       0.34870351       1.14014244
Al       8.19572052       9.25665502      22.70191231      -1.03376527       1.80492805      -0.29855706
Al       0.22746551       7.72759176       8.79811367       0.64458157      -0.28472856      -1.02642440
Al       2.15829982       0.45484183       4.60437069       2.08472462      -0.64891005      -1.17630301
Si       2.89988684       5.58556668      15.28309417       0.09246182       1.28702059       0.97578694
Si       4.51364289       7.44606822      18.72315477      -0.04971112       0.69091574      -0.21835382
Si       7.54221733       4.33393165      12.09961123      -2.25933190       0.84539257      -0.41054305
Si       6.02199160       2.06765388       8.58880688       0.30265967       3.72313058      -0.54685495
Si       0.98676084       7.48254013      11.84143035      -2.34322224       3.95197063       2.57388452
Si       3.01794372       9.13644358      22.27411062      -2.36733700      -1.05180324      -2.97055048
Si       9.43832952       2.25324413      15.14794236      -0.42673469      -1.53133906       2.62350751
Si       7.30140957       0.81425489      18.68349645      -1.57130712       3.83449793       4.67546480
Si       0.43139716       2.91159672       5.32518364      -0.87996588       1.48563064       0.62398510
Si       7.48685557       9.18561716      14.54537729      -3.08756973       2.04425326       2.26669960
Si       9.81429020       6.97323453      21.87812121      -0.95579371       0.98217260       0.32104493
Si       2.97902025       0.48634901      12.42590098      -3.02361879       0.15230326       1.26909767
Si       8.08664075       5.01599716      15.15460813       0.62516213       1.26452338       1.01690163
Si       4.67192956       2.02231965       5.73965924      -3.62652167      -0.48769340      -3.08466007
Si       2.13957750       4.60200974      12.34580463      -0.86500422      -1.12712613      -0.55122100
Si       5.58790755       7.58532292      21.77085734       1.10986981       3.14504811      -2.57189032
O        8.66922775       5.73400194      21.96493110       1.25063941       1.91443913       0.01822523
O        4.11901721       1.56024707      12.31667174       0.92936984       1.78122219      -0.87829989
O        1.27941842       4.26595511       4.85353182      -1.23566293      -1.97137304       0.63448568
O        6.36725068       8.16363592      15.06145018      -0.43092071      -1.37707811      -0.35473031
O        0.86729108       3.46360353      12.44411019       1.64367238       1.60861754      -0.02981957
O        6.85834038       8.61588256      21.78855354       0.70481446      -0.31276674       0.27643895
O        9.38231773       6.06062811      15.54016906      -0.57691389      -1.64550095      -0.83684355
O        3.68727218       0.64260424       5.56498812       0.49149015       1.84393219      -0.23759709
O        3.44358731       6.16104216      18.57111304       1.95186842       3.87522213      -0.00713670
O        4.19141353       6.60450250      15.42625820      -0.09777641      -0.60306990       0.43837200
O        7.07927298       3.44601621       8.50899804      -0.18663887      -0.03237382       0.75582632
O        6.00496740       3.69150875      12.10905237       0.85091496       0.46393048      -0.49827146
O        1.90532710       7.89598714       7.94918079      -0.39873288       1.03507787       2.05564288
O        2.03959536       8.69807717      12.11857874       0.20622441      -2.67178459       0.68902920
O        8.63111417       1.63254452      19.06851908      -0.01350979       0.60488987      -0.87605629
O        8.88749349       0.77412933      14.95993041      -1.60932913       0.01943352       0.31229101
O        3.00144133       4.42393351      16.38273918       0.32695043      -0.98433222       0.98113926
O        5.86876899       7.52198881      17.70163421      -2.77205595       0.25603778       3.19359758
O        7.92798271       5.30453706      10.77289388      -1.32194056      -0.56494232       1.34268637
O        4.81980348       2.49374906       9.57188770       0.10618628      -0.50373357       1.70503390
O        9.83462205       7.98586477      17.47541479       0.56194767      -0.44122245       0.15929984
O        2.50416763       0.07673982       2.85441342      -1.08556174       2.12273819       2.51721055
O        0.57905930       2.22282022       9.70431640      -0.48468992       1.13294244      -1.92837478
O        7.55560974       9.64021940      24.41430817      -0.06509738      -2.55841322      -4.23347614
O        9.56046378       8.28757683      22.93444702       0.87248274      -3.42978060      -0.82809333
O        1.40395826       0.64740733      11.89245396       1.46600996       0.41185431      -0.13235954
O        0.79111616       1.43203551       4.83961758      -0.16477554       0.48348281      -1.75925117
O        8.95618244       8.92335414      14.86628968       3.40769710      -1.40605116       0.71305856
O        3.34528361       4.21130238      11.38273244       0.26215450      -1.17262308      -0.88163371
O        5.80294681       6.27671798       8.70922332       1.62186884      -3.29796904       2.27696029
O        6.88378100       5.38053692      16.19668740      -1.04890786       0.68790824      -0.08831121
O        3.98019686       3.43682024      19.00908680       0.22958651      -0.97199736       0.76753947
O        8.49344459       3.01923841      11.91669350       2.82108715      -0.37463380       0.51148433
O        6.94465166       0.77029618       8.79754109       0.25707167      -0.77960476      -0.38088191
O        1.49124788       6.42898570      15.60964545       0.71001135      -0.28886693      -0.79672043
O        3.52282665       8.91044641      18.52989014       2.42721677      -4.23704698      -0.51205710
O        8.26277129       3.40425402      15.43977584       1.13204845      -0.10590601      -0.13206488
O        5.93078209       2.07903809      18.61491552       3.93295833      -3.66578147      -1.92174397
O        1.62076359       6.06590408      11.83393681       0.54906283      -2.22591328      -0.97571555
O        4.48833903       8.55631843      22.50732820       0.72925566      -1.31048862       0.32259213
O        7.63864281       5.13815357      13.60725150       0.38185255      -0.23235785      -2.28654985
O        5.32767000       2.12384490       7.10684417       0.61030256      -0.02461625       3.68643768
O        2.92931007       4.98667936      13.74504402      -0.49580099      -0.48980894       1.34624528
O        5.17162026       7.35751674      20.19458879      -0.34175345      -0.04258330       0.57235428
O        0.55295769       2.57638170       6.94998237       0.88799529       2.06252053       0.28317580
O        6.81639545       0.03225984       6.23982399       0.06057830      -0.20989573      -2.14094806
O        9.95099972       7.53197385      20.33665015       0.22196612      -0.79845258      -0.97353654
O        2.83280498       0.46609980      14.07800317       0.13424668      -0.88328665       1.43585204
80
Lattice="9.77192453 0.01751879 6.90363604 0.24348012 9.76890588 6.90363604 0.01370155 0.0133883 13.86910312" Properties=species:S:1:pos:R:3:forces:R:3 energy=-573.95313039 source_file=vasprun.xml step_index=0 time_fs=32000.0 time_ps=32.0 file_index=16 pbc="T T T"
Na       1.72972009       2.27602522      15.54758237       0.22638231       0.00355801       0.34341379
Na       5.76622920       3.17405098      16.00849925       0.10874022       0.16715963       0.16620851
Na       3.74117466       5.50811644       9.38418461      -0.14467363       0.21614989      -0.16271156
Na       1.94886577       0.27510366       8.71295251       0.00067682      -0.01754047      -0.24183621
Na       7.87917980       8.55085420      19.74671775       0.09220133       0.43220228      -1.39609549
Na       8.29673927       3.58750620      20.45782384       0.08968121       0.13700173      -0.62093253
Na       1.60827696       6.87831677      19.70546514      -1.53728045       0.16182116       1.09199028
Na       5.22078981       7.96636106      12.52488057       0.02557099      -0.10269993       0.55304997
Al       7.18880971       5.20489522       9.20792892       0.56230124      -1.66951618       0.71199075
Al       4.51243072       2.99612713      11.26918438      -0.23030378       1.11041172       2.54674344
Al       2.85006244       4.51380534      18.05675193       0.30856987       0.51168416       1.26148562
Al       5.58063203       7.00140589      16.00772412       0.23301677      -2.99771650      -1.59354337
Al       0.34980580       1.98384166      11.29631799       0.12089451       0.40629133      -0.15899834
Al       8.24363866       9.26510612      22.82927827      -0.54549393       2.33132350      -3.49121790
Al       9.62102284       7.95709025      15.96531282       3.22249912       0.58832109       0.78922354
Al       2.20993638       0.29909510       4.67825438      -0.41530819       3.77358110      -0.27488581
Si       2.87615958       5.55018404      15.14647170       3.07707357       0.45732806      -2.91631129
Si       4.34303886       7.34968452      18.87328383       0.14957669       1.00341476      -0.65767700
Si       7.32935877       4.32890202      12.21564117       0.54880419      -1.33625505       3.75471373
Si       5.79287268       2.33877716       8.40691408      -0.00321547       4.30773159       0.28603048
Si       0.83908389       7.72962331      12.06004629       2.61652435      -1.33891346       1.09262015
Si       2.81248364       8.99940233       8.53331443       0.93952556      -4.78044064       2.56462160
Si       9.29836498       2.33985848      15.23602462       0.35520620       1.47254785      -0.72295085
Si       7.20730601       0.76902029      18.61943421      -2.36237847       0.04986395      -0.14800180
Si       0.43205065       2.77067021       5.48008355      -0.07795928      -0.08567074      -1.77842910
Si       7.15409208       9.41304134      14.69385125       2.18136355      -0.80564967       0.31397186
Si       9.82186708       6.91509107      21.98779275      -0.27285745       0.35051137      -0.24048047
Si       2.99881773       0.62876881      12.74097201      -0.89345927      -1.48839839      -0.99719666
Si       7.93494161       5.34792891      15.38686866       0.66769676      -1.75713907      -2.37875075
Si       4.66758398       2.09097169       5.33449268      -1.58444317       0.69724071       3.62004086
Si       1.97501243       4.78964196      12.16574933       1.26992118      -1.92349819      -1.94177045
Si       5.75483114       7.54245951      21.63449504      -2.29127215      -1.20375117       1.37728257
O        8.68978502       5.88376827      22.46496640       1.11477311      -0.51767128      -1.12621608
O        4.08711368       1.71444683      12.38710006      -0.20585472      -0.17379552       0.72387935
O        1.37050339       4.11859474       5.08608154      -0.48257900      -0.84064800      -0.38718499
O        6.18753737       8.16554352      14.90426636       0.14721976      -0.27298969      -0.17183116
O        0.65615484       3.66082200      11.74662280       1.58728462       2.63214719       1.98823888
O        7.01173176       8.61539720      21.62903855      -1.13906829      -1.20462372       0.63959592
O        9.05346717       6.49154071      15.62204482      -2.25856135      -3.92236462      -0.82570661
O        3.62642762       0.87296117       5.58370234       0.32532450      -0.64551871      -0.74724585
O        3.23485703       6.17536549      18.70377770       0.05611966      -0.25344719      -0.56962444
O        4.33742098       6.34228554      14.92620937      -2.23556592      -0.29713592       0.15817232
O        6.88393973       3.62388356       8.25318580       0.72044168      -0.39296283       1.50641660
O        5.92622192       3.53266922      12.11303452       0.98913677       0.38825982       0.67628881
O        1.57897030       7.75884845       8.40206397       1.58814292       2.72972704       0.11076434
O        2.02042283       8.84432350      12.57893796      -2.93686151      -4.13735952       1.11598301
O        8.40144512       1.73985540      18.91372022       3.08459886       1.07789612      -0.13586720
O        8.13059154       1.26692866      15.13747683      -1.03344783      -2.43448681       0.34688118
O        3.14921928       4.50038345      16.30843423      -1.29641119      -1.32843197       1.15057339
O        5.04657700       7.60189934      17.45475454       0.34119248       0.34127393       1.46351753
O        7.41629988       5.28374824      10.98694403       0.05741108       1.72703377      -2.74022814
O        4.89572396       2.65740798       9.69427299      -0.61147639      -0.15649649      -1.71286848
O        9.67476506       8.08808693      17.70645882       0.03078319       0.54816126       1.87248106
O        2.64394607       0.02964307       3.05866641      -0.16177006      -0.46636765      -2.16299978
O        0.51891073       1.81451320       9.51602713       0.12537814      -0.07155389       1.76232446
O        7.52621382       9.55828421      24.26153559      -1.07157847       0.10757569       2.85351353
O        9.61610497       8.26987179      22.83381826       0.82442679       0.61910040      -0.07283044
O        1.61654908       0.96128516      11.94589192      -0.39331151      -0.42949891       0.24326068
O        0.68013946       1.35162526       4.56992507       1.37276856       1.77296744       0.55577150
O        8.71079186       9.11944845      15.24735911      -2.94961369       2.88079880      -1.92006153
O        3.27813279       4.31926010      11.23518603      -0.51532375      -0.40905451       0.12381746
O        5.86937128       6.09602261       8.59502039       0.09937397       1.59644143      -0.06811585
O        6.62325781       5.33775181      16.37540622       0.02240640       1.84902876      -0.66768506
O        3.96742071       3.34188548      18.56113667      -0.29619528       0.98964993      -0.42797423
O        8.66851527       3.27143039      12.20269895      -1.85454054       0.88205497      -0.21295325
O        6.23536012       0.86160930       8.63262396       1.87536961      -2.28339982      -0.13035937
O        1.62963396       6.55918058      15.37110390      -0.47118149      -0.32953928      -0.06663844
O        3.85489486       8.91494662      19.19556744      -1.04976344      -0.52671849       0.59337958
O        8.73971443       3.87354088      15.36250760      -0.20568232      -0.32317833       1.36841230
O        5.89960920       1.96321728      18.17390141       3.10164860      -2.98227155       0.53599716
O        1.88854023       6.40251833      11.61043789      -1.91694644      -0.56494626       1.64880571
O        4.33885728       8.04734121      22.43570418      -1.15813264       1.67134135      -0.97277424
O        7.39616298       5.25138340      13.77446338      -0.14762058      -0.42889161      -1.66561096
O        5.08254089       2.44913045       6.98975388      -0.86805615      -0.42367551      -3.31138473
O        2.65344856       4.57472635      13.72819553      -2.00219612       1.11655991       0.38681289
O        5.22764281       6.89638949      20.17011271       1.45214899       1.13644489       0.18219164
O        0.54889569       2.34598555       7.03516083       0.70682531      -0.45469932       0.84810859
O        7.13195700       9.56331274      13.01223754      -0.30923320       1.14936105      -0.57005614
O        9.63800336       7.25427992      20.32661217       0.96232342       0.18477071      -0.84360764
O        2.48289204       0.32924463      14.35720755       0.53437842       2.22918837      -2.09670644
80
Lattice="9.77192453 0.01751879 6.90363604 0.24348012 9.76890588 6.90363604 0.01370155 0.0133883 13.86910312" Properties=species:S:1:pos:R:3:forces:R:3 energy=-576.90237762 source_file=vasprun.xml step_index=500 time_fs=33000.0 time_ps=33.0 file_index=16 pbc="T T T"
Na       8.90566710       0.74497981      10.06103988      -0.23230114       0.08509289      -0.15195901
Na       6.43842992       4.06589482      17.57318476      -0.09551123      -0.22371502      -0.73540516
Na       4.29203025       6.24485742      10.34711939       0.43091928      -0.08213231      -0.13547606
Na       1.07175898       8.50453079      17.94074020      -0.07205936       0.15168864      -0.24314687
Na       6.13273069       1.40466092      13.83734458       0.05360174      -0.78384642       0.78360306
Na       8.67673623       4.77888798      19.87241644       0.42757151      -0.41089125       0.41338792
Na       1.98021683       5.76348927       6.76437499      -0.39668778       0.19829087       0.28784685
Na       3.76727693       9.31675035      13.95290416       0.14368067      -0.57187318       0.19793479
Al       7.10561103       5.20400796       8.93967947      -1.10045625      -1.45044228      -0.58240793
Al       5.00395036       2.43974495      11.38921110      -0.46089441       1.98353109      -2.55001235
Al       3.19797556       4.35283478      18.19110967       2.18148610       2.70807394      -2.41674182
Al       5.39933900       7.00056603      15.56003001      -0.62670819       1.50883997       0.23013840
Al       0.49816756       2.38700414      11.24352397      -1.76848982      -1.50608352       0.93440277
Al       8.32644475       9.35757231      22.47671583       0.29756101       1.70825787       1.70338001
Al       9.70057588       7.47481674      15.74416898       0.40435718      -0.10491105       1.48777648
Al       2.05163054       0.40263432       4.41788636       0.30511288      -0.27892194       1.43598457
Si       2.87234025       5.39292138      15.24156822       0.86102690      -0.85442093      -1.02161640
Si       4.32100466       7.44655837      18.61679719       0.30831222       2.83437180       1.60482778
Si       7.42013804       4.23094506      11.90314425      -0.17427019      -3.40134305      -2.89255517
Si       5.81608942       2.21802281       8.21366666       3.91079286       3.12214394       3.06713554
Si       1.24023178       7.34269064      12.00048737      -0.07041020      -0.77390294      -1.37059384
Si       2.77828409       8.93610035       8.32090681      -0.56559171      -0.02971094       0.97489280
Si       9.20093308       2.49189895      15.14332548       0.01696844      -0.11767407       1.82078741
Si       7.53068456       0.78869267      18.70035023       0.62119432       2.03124941      -1.32199100
Si       0.45999999       3.04606484       5.31426737      -0.71803582      -0.52380845      -0.92064823
Si       7.35328221       9.37688283      14.50285813      -2.26867156      -1.40854560      -0.74807426
Si       9.85794000       6.84839548      21.98144746       2.84364013      -1.34960264       0.92446090
Si       2.79901884       0.55122524      12.57091352       2.19084278      -1.65179113      -1.15851101
Si       7.88674035       5.08175809      14.73310561       1.00558747       2.37901036       0.54123913
Si       4.67475880       2.00965915       5.57634165      -0.32823163       1.03684361      -0.91676641
Si       2.51288461       4.59126282      12.13509729      -1.21024623      -1.85619994      -0.71712341
Si       5.69488343       7.69039477      21.46881369       0.86312804       0.05089070      -1.51784839
O        8.59424968       5.95967460      22.21165500      -1.51571522      -1.70539484      -0.13024382
O        4.32354056       1.21126454      12.27275753      -2.52800386      -1.76727392       1.75583691
O        1.60780600       4.06962782       4.74260923      -1.75730566      -0.76948781       2.18653552
O        5.88468490       8.61136639      14.93827788       1.31960971       0.94107934      -1.84669958
O        0.91684597       3.88671841      11.84988735       2.77277784       2.84438831       1.57197466
O        6.84603692       8.86339285      21.77783436      -1.31317358      -1.41527853      -0.27179311
O        9.27068280       5.87752949      15.19118481      -0.11410273      -0.21120255      -0.49751434
O        3.43609400       1.07245276       5.28627659      -1.45977570      -0.69534298      -0.16992012
O        3.34775212       6.19242159      18.87347202       0.00167523      -2.40530680      -0.15978746
O        3.88104673       6.57292097      14.74079540       0.52031808       0.73514191       0.77875437
O        6.66679617       3.60697081       8.09395902       1.08083886       2.12034069       1.13061440
O        6.44122701       2.86449525      12.38127845       0.86490979       2.76606606      -1.99837883
O        1.42710185       8.00728940       8.07170504       1.14452374      -0.66616753      -0.33635324
O        2.40269437       8.46897572      12.11477465      -1.37298392       2.23190672       0.70020252
O        8.59927830       2.08106502      18.87697040      -0.47085725      -0.47136134      -0.17285241
O        8.47836578       1.11993407      14.71541818       0.02492856      -1.15544861       0.08431681
O        3.59461493       4.39865250      16.38734313      -1.53332995       1.20375977       0.11051675
O        4.97651561       7.59376292      17.17792983       0.34827294      -1.04981217       0.06030516
O        6.82606445       5.30651446      10.78345052       0.23392174      -1.42318784      -1.34536333
O        5.22974608       1.98739346       9.63272690      -0.80451997      -0.13250445       3.66849839
O        9.95756542       7.58342939      17.60079701       0.60641761      -0.11481965       1.11992670
O        2.47839733       9.75593834       9.70321101       0.56670820      -0.52553553      -1.33081282
O        0.39354021       2.53015236       9.56856986      -1.02228186      -0.49526057      -2.88546585
O        7.81629960       0.16603284      17.24131067      -0.04684289      -0.49716166      -0.08445539
O        9.67766818       8.24582994      22.71096179       0.09748697       1.22364840       0.08063333
O        1.46604034       1.04913355      11.79123586       0.92837467      -0.26747638       0.53237423
O        0.65757346       1.57395497       4.61281593       1.56305198      -1.62755619       0.70500795
O        8.41530001       8.59802023      15.41787452       0.87279862       0.94359536       0.13786844
O        3.75729695       3.76983098      11.37167774      -0.95011199       1.33924601       0.28739036
O        5.91066059       6.11536916      21.86904239       0.04896472       1.45751367       1.06234210
O        6.64105088       5.79835087      15.49324989       0.09361448      -0.71014043      -0.12739258
O        4.58716403       3.44698229      18.66708925      -0.25330622       0.42893140       0.66999007
O        8.88198546       3.43584629      11.36128563      -2.44405422       1.52612075       0.56837397
O        6.99957044       1.22270711       7.84305436       1.62906026      -2.52852413       0.22941342
O        1.41221198       6.01997970      15.76191406       0.16352623       0.02818433      -0.33535426
O        3.20886180       8.74912997      18.84521722       0.02747689      -0.33335073       0.03895505
O        7.93341235       3.57101726      15.27574537      -0.49519464      -0.90706634       0.93208985
O        5.99591516       1.39306805      18.83008299       1.49796246      -0.31063417      -0.76287758
O        2.34239452       6.14214313      11.47327863      -0.47446627      -1.48208783       1.02977054
O        4.25116355       8.06804163      22.11588541      -2.43536249       0.79942873       1.42078099
O        7.86840073       5.12825507      13.07840377       0.26482759       1.67439883       3.39920314
O        4.70724289       2.24520377       7.17595228      -3.68035986      -0.54568473      -3.06273002
O        2.81721932       4.56328334      13.73173967      -0.90115763       0.19346389       1.23191913
O        5.52732078       7.78324530      19.83059015      -1.13315618      -0.87233375      -1.32984126
O        0.19888928       3.10701321       6.98034897       2.07414435       0.43886943      -3.08048209
O        7.69480307       9.39499249      12.84265401       0.69730340      -1.87809552       2.23113054
O        0.49199602       6.89187783      13.51518771       0.50602912       0.72473480      -3.69946855
O        2.65832516       0.35695102      14.19470504      -0.03249617       0.89931384      -1.15634125
80
Lattice="9.77192453 0.01751879 6.90363604 0.24348012 9.76890588 6.90363604 0.01370155 0.0133883 13.86910312" Properties=species:S:1:pos:R:3:forces:R:3 energy=-574.74594751 source_file=vasprun.xml step_index=0 time_fs=34000.0 time_ps=34.0 file_index=17 pbc="T T T"
Na       9.46821805       1.85187873       9.57360348      -0.50259556      -0.28072916      -0.35427504
Na       5.82906083       4.65734150      17.39065106       0.00746147      -0.31226642      -0.33469030
Na       4.35833341       7.30570670      10.72530063      -0.23856355       0.06795494      -0.08534052
Na       0.78830341       8.54601780      18.01680626      -0.21627288      -0.20523756      -0.27558730
Na       5.98926920       1.57935113      14.09181255       0.08461070      -0.13569936      -0.21461884
Na       8.33058914       3.93896354      20.17607709       0.85279464       0.00352970      -0.68683528
Na       1.69285840       5.74389130       6.93454724       0.19468717       0.17274990       0.41469327
Na       3.03445601       8.59509260      14.18550650       0.57949137       0.20401945       0.61926761
Al       7.38299829       5.41526994       8.99417418       0.45598988      -0.12807917      -4.76932797
Al       4.70637305       2.83554127      11.08100123      -1.28522453      -2.45621035      -0.02316304
Al       3.06431543       4.51681260      18.33619367      -0.20890535       0.08641536      -1.45879592
Al       5.65098567       7.12689953      15.65397754       1.49350864       1.83190953       1.86137319
Al       0.51324528       2.06568836      11.21069254      -0.24594243      -0.05073473       2.61120958
Al       8.10766304       9.19448381      22.69459938       1.39279422       0.34402790       0.49388900
Al       9.71505241       7.57785910      15.60790331       0.60977165       1.66572178       1.47150630
Al       2.31177942       0.33808650       4.36667371       1.20701254      -1.63096326       2.20864055
Si       2.97004237       5.58489277      15.08554247      -0.49858480       2.48590485      -0.05103768
Si       4.65651645       7.19062719      18.83035723      -3.16442545       0.79675053       1.16827558
Si       7.44662625       4.08397131      11.79228627      -0.70792661      -0.61022017       3.91881904
Si       6.11793332       2.68711887       8.22591292      -0.10022047      -3.99058902      -1.34776114
Si       1.05735983       7.37307379      11.80337139       1.55037878       3.18013540       2.66727281
Si       2.89716961       8.71463261       8.13649511      -1.07316781      -0.87942621       4.28401302
Si       9.16604241       2.42310574      15.20808146      -1.55098915      -1.22076305      -0.41350297
Si       7.41302186       0.84763219      18.62025321       0.15577203      -0.27464129      -0.01163937
Si       0.50214254       2.93389213       5.33649792       1.25093337      -1.86795264      -1.98238867
Si       7.29981307       9.59475105      14.55426017      -0.68396352      -2.31816223       1.75601206
Si       9.87712336       6.80454251      21.59322714       1.25794938       2.43171431       0.18215841
Si       2.99187046       0.26853439      12.41585769      -2.83220813      -2.60102593       1.31723959
Si       7.98530739       5.14658007      14.76253383       0.86414740       1.51004234       1.46076017
Si       4.74022668       1.93614673       5.49588034      -4.32394353       0.96150454       0.70235127
Si       2.17406022       4.53718098      12.15981600       0.08039487       0.45884458       1.54343398
Si       5.74620605       7.62131149      21.45611242      -0.15137051      -0.78009986       1.40573565
O        8.89281532       5.61594862      21.75552287      -2.13935837      -2.36476529       0.85259278
O        4.05748256       1.10912536      11.75932963       4.03344693       3.80236496      -1.33620289
O        1.51850254       4.18766708       5.39535622       1.00115781       0.78075696      -2.51682767
O        6.05344136       8.77241047      15.21363337      -0.61847670      -0.22933720      -0.47083321
O        0.78640381       3.70867431      11.87445112       0.72932359       0.24204177       0.80377598
O        6.76078920       8.81729149      21.71106532      -1.11013107       1.31197263      -0.77294399
O        9.37001590       5.93295390      15.38737127      -1.81066035      -2.02376308      -2.04231945
O        3.77490769       0.61006168       5.43740148      -0.30567789       0.82387862       0.09344884
O        3.75318159       5.90619640      19.22384823      -1.25182089      -1.72205378      -0.59592622
O        4.14522557       6.73340492      15.16543746      -3.13941983      -0.84413810      -2.65840675
O        7.13379784       3.81825332       8.04977521       1.51560136       3.32670380       0.68096793
O        6.06334076       3.14615745      12.08232956       2.80557830       1.36139428       0.52174983
O        1.53422935       7.86076140       7.92854465      -0.22152639      -0.30074131      -0.02640695
O        2.36477244       8.45986147      12.20832077      -2.37862602       0.49246137      -1.85276032
O        8.62816383       1.93130801      18.88005769      -0.07211839      -0.70904259      -0.71694962
O        7.99648813       1.11282165      15.19606174       2.31153989       1.82605381      -0.96689799
O        3.03243777       4.84209312      16.44195793       0.11879783      -2.34620669       4.27417735
O        5.35351113       7.03652389      17.46688798       1.52991194       0.03390257      -2.50163127
O        7.41298136       5.01585261      10.56242950      -0.18406404       0.69898161       1.22642118
O        5.17974684       2.68308855       9.42681859      -1.98525998       0.48901877       3.60062099
O        0.23117055       7.65988604      10.53898100      -1.58151956       0.85842591      -3.19687569
O        2.76799950       9.52301841       9.69697460       0.93810935      -1.60794441      -3.43389305
O        0.37594639       2.05083108       9.53333331       0.21438127       0.29862218      -1.67698255
O        8.03104606       9.38785686      24.45305034      -0.50546010       1.47808889       0.58708765
O        9.37922433       7.90955560      22.67286982      -0.96658460       2.06844035       0.28481451
O        1.50741341       0.69375567      11.92275366      -1.48503960       1.02604900      -0.93652858
O        1.06092091       1.55061406       4.41236196      -1.02569186       2.47613984       1.52881012
O        8.53299383       8.61081708      14.83660273       1.85539914      -0.11797859       0.90161065
O        3.37272299       3.84131214      11.42072682       0.74379629       0.09768777      -1.17238540
O        6.12079260       6.59806514      22.61786897       1.63774159      -2.20555479       1.30414449
O        6.57578163       5.72197712      15.30979313       0.88706363      -0.13794361       0.46282491
O        4.05858492       3.07715240      18.34292306      -0.32518756       0.92183532       0.96582590
O        8.76869308       3.13053352      11.62800253       0.18721226      -0.57383183      -0.79780566
O        7.10980836       1.28999746       8.29886730       0.38637519       1.90041068       0.83597659
O        1.63757035       6.60891878      15.21287114       0.41883063      -0.52136572      -0.84123489
O        3.37075053       8.41834468      18.98067318       2.06727562      -1.52057278      -0.86967583
O        8.05067742       3.68165026      15.47233079       1.32582645      -1.86286740      -0.32296258
O        6.00797010       1.75795645      18.51144888       5.42980556      -1.14468197      -3.20208040
O        2.00544009       6.12110841      11.69760380       1.36215467      -3.66011232      -0.20886359
O        4.15967048       7.61530500      21.90773757      -1.56116092       1.94119548       0.26943234
O        7.83016234       5.07489515      13.15896646      -0.06703448      -1.12780803      -2.04482093
O        5.09299620       2.54186882       6.98718389      -0.66675092      -0.48058446      -1.91941101
O        2.82518031       4.62612954      13.79054034      -1.06303644      -0.25996011      -1.64278971
O        5.83880967       7.07944327      19.95313264       0.41911974       0.84561405      -0.32527552
O        0.39190725       2.85371598       6.89628601      -2.53282499      -2.28256756       5.44286604
O        7.00258979       0.02742593       6.09263149      -0.20204709      -0.45197122      -1.35500161
O        9.86192731       7.36400232      20.04803820      -0.01541110      -0.38726909      -0.13179796
O        2.89034700       0.09568749      14.08274318       1.01714396       3.33581884      -2.20209473
80
Lattice="9.77192453 0.01751879 6.90363604 0.24348012 9.76890588 6.90363604 0.01370155 0.0133883 13.86910312" Properties=species:S:1:pos:R:3:forces:R:3 energy=-574.67388222 source_file=vasprun.xml step_index=500 time_fs=35000.0 time_ps=35.0 file_index=17 pbc="T T T"
Na       8.37600471       0.37794298      11.87638856       0.18276603       0.04019736      -0.10486806
Na       6.10905572       3.96374050      17.38614768       0.22148587       0.48256822      -0.03086676
Na       4.07979782       5.58986568       9.68985175       0.27174345      -0.09243544      -0.08089299
Na       1.63050355       9.10038440      16.72898691      -0.13141382      -0.40445467      -0.07419540
Na       5.63258140       1.94271109      14.16898907      -0.12859879      -0.51908774      -0.19078375
Na       9.21338173       3.51339795      20.40665314      -0.62454954       0.14263709       0.91821331
Na       1.18035115       6.14036999       6.04484472      -0.22452767       1.05342954       0.43467057
Na       4.64576201       8.54177062      13.22126030      -0.92377258      -0.36886848      -1.26490216
Al       7.36611662       5.05828191       8.80883197       2.88433477      -1.14061024       0.09148278
Al       4.75887359       2.97350719      11.39099781      -1.02202121       1.13532271      -1.07328079
Al       2.66025044       4.32470148      18.11227232       0.94884498       1.80623758      -1.44392676
Al       5.61327862       6.87159260      15.70690157      -0.21056543      -0.50865724       1.27169562
Al       0.53871646       1.93787850      11.32763919      -1.66534192       1.09391672       2.18909981
Al       8.19261343       9.53771888      22.55090403      -1.19646204      -0.47939754      -0.77194306
Al       9.97579448       8.12251796      15.69903412      -4.74998557       0.42435620      -0.79656199
Al       2.51505378       0.15607162       4.55587673      -4.32355339       0.03330921      -2.14760673
Si       2.65871813       5.57225295      15.29883852       2.30458351      -2.58976801      -1.71840266
Si       4.31174346       7.11267314      18.67973224       1.33964783       2.19138457      -1.56874691
Si       7.61814577       4.02774483      12.03352016      -2.73714515       0.88944476      -2.66943213
Si       5.66135519       2.64138066       8.34109481       1.83132027       0.13387277       0.24850696
Si       0.89245610       7.46594964      11.90782015       3.58872270       0.68686785      -5.26478125
Si       3.06388158       9.03707550       8.39641266       0.87433313       3.51333753      -0.51458052
Si       9.58428943       2.54504151      15.26247733      -2.77803160      -2.01246952      -2.90662972
Si       7.41028770       0.76008114      18.72529193      -1.84785487      -0.34065410       1.23679669
Si       0.59434366       2.74282653       5.45783664       0.85225304      -3.20307658       3.41448626
Si       6.96293303       9.51596878      14.78975773       2.15615457       0.32829863      -1.33075187
Si       9.90072999       6.95703831      21.49669155      -3.67886259      -0.28753060       4.76693296
Si       2.99761988       0.34834398      12.38569195       3.14799696       1.76318980       0.59551478
Si       8.28816989       5.47716592      14.72316062       1.12619334      -1.00617223      -0.35891698
Si       4.56042146       2.10211176       5.50347789       4.39112973       3.84419676      -3.48181797
Si       2.16177784       4.65385257      12.20084445       0.20720730       0.49192160       1.16378912
Si       5.60781021       7.52621535      21.55346935       1.85819950      -1.09985169      -0.45229506
O        9.04648336       5.52556706      21.90904324      -0.05890617       1.44064464      -0.95318608
O        4.18908151       1.42901300      11.86112563      -1.14369728      -0.99502218       0.34619228
O        1.34446697       4.11846380       5.47030508       2.03368702       1.62130067      -2.38311472
O        5.75801167       8.39044263      14.84493303       1.98660109      -0.18203552       2.49016717
O        1.00183499       3.55693599      11.90696328       0.03292636      -0.72840495       0.41824391
O        6.69976965       8.73239255      21.66802397      -0.07162209       0.91859490      -0.00456218
O        9.42564851       6.68862445      14.74778540      -0.86957873      -1.29402496       0.05779701
O        3.89483587       0.74741116       5.20946055       0.46323401      -1.34163458       1.96558729
O        3.06530915       6.18307080      18.46630890      -2.06583042      -3.23028389       0.03234284
O        4.02942372       6.49052400      15.10185828      -0.56575273      -1.59274484       0.47593202
O        6.82911054       3.64871530       7.94473540       1.76456189      -0.05900246      -0.40337894
O        6.17474046       3.28496520      12.34138977       0.82779744      -0.42358952       0.61714831
O        1.58053212       8.54738463       8.01399938       2.60439709       0.11586575      -1.25999145
O        2.27541145       8.36295687      12.20728679      -0.44378139       1.15742327       0.07677725
O        8.77960734       1.46311797      19.22040146       1.19843387       1.41666307      -0.53951756
O        8.40188446       1.25380082      14.67111934       0.00390104       0.97916289       2.00581865
O        2.34936326       4.28238966      16.28853254       0.97896639       1.39129426       1.77528604
O        5.43855439       6.88088605      17.47892007      -0.77772584       0.59435329       0.29623771
O        7.46419738       4.59662717      10.49295409       0.74687119       0.15515383       1.38235456
O        4.95089678       3.14485916       9.64359533      -1.37960745       0.60338926       1.24027830
O        0.20421401       7.99632693      10.48010698       0.27349602      -0.06415257       2.75057333
O        2.81774506       0.22275455       2.83525373       0.18291470      -1.60781052      -1.15230745
O        0.51686005       2.09782833       9.66323340       0.45496324      -1.15848986       0.82307054
O        8.01105117       9.71360132      24.28975057      -0.51209381       0.10895651      -0.49538844
O        9.37637088       8.27825287      22.49022151       1.54319811      -1.56943008      -1.73677274
O        1.58618079       0.69855831      11.74107006       0.16730037      -0.62714886       0.32047657
O        1.12562894       1.46322852       4.61878957       0.50562089      -0.27393480       0.46004164
O        8.52778305       9.36832129      15.37509335      -1.07519979      -1.21663688      -0.20032431
O        3.62875398       4.43120034      11.58647028       0.66167120      -1.21531313      -0.59014731
O        6.24613930       6.18768134      22.25662615      -2.61321319       2.54564286      -0.06069162
O        6.93072182       5.62286394      15.57224384      -0.77007585       0.80366501       0.28421017
O        4.14927886       3.41513332      18.35089055      -0.93897651      -1.22302220       1.59832680
O        8.80399283       2.96038199      12.16716536      -0.73757895      -1.13651952      -0.66548421
O        6.13403051       1.12760897       8.59768773       0.57668410      -1.91029569      -0.34383782
O        1.56894650       6.68888914      15.34699173      -2.31178452       3.01592359      -0.39561595
O        3.42909179       8.62346553      18.74688789       1.54831453      -2.40470596      -0.76938578
O        9.03264956       4.04947824      15.33587963      -1.49355589       1.87457326      -0.22852395
O        6.17792338       1.92412697      18.41319493      -0.36175897      -0.69032933       1.73792941
O        1.56306064       6.03502064      11.52196821      -0.10601822      -0.61345185       0.22248478
O        4.18434041       7.80925529       8.53281474      -0.58961852       0.23633938      -0.44265781
O        7.79197717       5.16977100      13.14037797       1.24454154       1.25549311       1.55045683
O        4.84935210       2.63997760       6.97133427      -2.42799022      -0.54964449      -1.49424559
O        2.42125950       4.86534730      13.81911577      -0.65476453      -0.45664097      -0.89377815
O        5.22386644       6.94322678      19.99637964       0.16942686       1.07110698       2.29311453
O        0.81592941       2.41510215       7.14994168       1.34111754      -0.24857196      -2.80295338
O        6.92182870       9.46717493      13.01626584       1.29191420       2.13325322      -0.18234665
O        9.58661777       7.44540826      19.92908417      -1.00588231      -0.36510734       2.71400101
O        3.41738554       0.44451590      14.00317656      -1.57393002      -2.27483045       1.98780774
80
Lattice="9.77192453 0.01751879 6.90363604 0.24348012 9.76890588 6.90363604 0.01370155 0.0133883 13.86910312" Properties=species:S:1:pos:R:3:forces:R:3 energy=-576.81602458 source_file=vasprun.xml step_index=0 time_fs=36000.0 time_ps=36.0 file_index=18 pbc="T T T"
Na       8.20934070       0.33624001      10.56823692       0.39902859       0.36737431       0.13389108
Na       5.65406208       3.76797204      16.88003659       0.68190974       0.32370910      -0.57072639
Na       4.40665013       5.42248984      10.31707333       0.58215616       0.68188847      -0.61485254
Na       1.44576139       9.24462319      17.14948699      -0.12702700      -0.01213094      -0.63297890
Na       5.86963723       1.27729187      14.05587431      -0.02561200       0.10991106      -0.43784139
Na       9.28051437       4.24927861      20.44252941      -0.24518309      -0.14640163      -0.05114098
Na       1.25572167       6.73387358       5.78484072      -0.11154119      -0.40062821       0.73971732
Na       4.13591338       8.81818584      13.63215377       0.20394229      -0.44542976       0.24048284
Al       7.21559458       5.28437922       8.99017709       2.23751260      -1.63463715       1.93963681
Al       4.66617221       2.54335769      11.14775222       1.93384306       0.37010606       1.30223633
Al       2.94814395       4.48034804      18.11825200      -0.07577752      -0.21131359       1.63752719
Al       5.63704913       7.05359311      15.74726802      -1.46388543      -3.53292567       0.85827729
Al       0.42302934       2.31461218      11.22996133       1.78177981       1.07286332      -1.53324534
Al       8.03012341       9.28800930      22.69547207      -1.05295694       3.40598008       0.78217997
Al       9.95686547       7.63453476      15.87236033      -0.63240817       1.07798455      -0.44024460
Al       2.22447710       0.39527525       4.50250507      -0.45325786      -2.24856532      -2.19831072
Si       2.75527391       5.56614072      15.19385217       0.01815042       2.04221482       0.20680855
Si       4.37092990       7.29021178      18.77376300       1.63612723       2.48102187      -1.01209586
Si       7.37611591       3.97512474      11.88377388      -0.56770604       4.24140523       1.63585591
Si       5.97355938       2.43776078       8.29701089      -1.05088370       2.27165523      -0.66244827
Si       1.41710750       7.21852543      12.01306933      -1.70434088       0.64829843      -1.90156647
Si       2.82444092       9.11095950       8.30238222      -0.53787644       1.76561100       0.10067635
Si       9.13052064       2.35360606      15.25212106      -1.09856233       3.20132990      -4.00301306
Si       7.68730756       0.90855679      18.72086184      -1.71703989       0.06072886      -0.29266638
Si       0.36836225       2.75578052       5.37964268       2.13695504       2.02465557      -2.56475769
Si       7.45222306       9.57271101      14.66008391       0.19358247      -2.85703471       3.07267163
Si       9.85464317       6.93772778      21.73137764       0.54248216      -1.09923524      -0.55300200
Si       2.95717071       0.40571347      12.43323492      -0.78680062       2.40729805      -3.01149494
Si       8.01908964       5.29746328      14.82080222      -0.79274990      -2.40706744       2.97014311
Si       4.71890719       1.98746104       5.26916070       2.70394181      -0.74791593       3.45231806
Si       2.33212861       4.57676091      12.19241688       2.46533226       0.76697570      -1.47444629
Si       5.49624041       7.70154921      21.69711210       2.44642497      -2.56170403      -1.32671052
O        8.86259055       5.74102797      22.25363895       0.37472946       0.04036934      -0.18506721
O        4.29307134       1.34255417      12.36802054      -0.30462311      -1.47480558      -1.09531954
O        1.43647320       4.06214917       5.02729178      -0.72358852      -0.95745845       0.34806373
O        6.15880745       8.30623410      14.79875871       2.40893828       4.52367428      -1.65742972
O        1.04321021       3.95876028      11.53618531      -1.94812046      -1.41917681       0.59823484
O        6.53651234       8.83804865      22.01412179       0.05731104       1.65854912       0.16538027
O        9.21966977       6.29406596      15.04909843       0.75313281       2.01417385      -0.32696879
O        3.68019725       0.78209864       5.26418287       0.77015579       0.34180269       0.91500685
O        3.37225885       6.07402131      18.93576205      -0.95394748      -1.35899587      -0.35435322
O        4.07023636       6.44160444      15.02580692       1.18339581       0.97354280      -0.76450832
O        6.88493908       3.71306196       8.44094232       1.40441178       0.58451611      -1.42757469
O        6.21080273       2.97851110      12.10591999      -1.93494470      -2.39676943       0.00765003
O        1.60196779       8.15114888       8.02657003      -2.19027763      -1.47499111       0.25540549
O        2.34976911       8.47791467      12.37209193      -0.43522811       1.88460000      -0.19735423
O        8.71588485       2.16165287      18.93458460      -1.17865115      -0.66925050       0.41152690
O        7.94757218       1.26003311      14.94614610      -0.07246826      -0.50481006       0.74648922
O        2.98824603       4.54417995      16.40731069      -0.49250114      -0.14921544      -0.39050178
O        5.28432087       7.30283517      17.42082092      -0.53527863       0.22666330       1.18141314
O        6.91561077       5.05549095      10.76638798       0.59429686       0.66196416      -0.60638356
O        4.87680691       2.60794512       9.42604414      -1.73845099      -0.83720897       1.85373485
O        0.51080404       7.53500678      10.68553777      -0.71721708       0.75213390      -0.08572877
O        2.65466104       0.30875085       2.67802633      -0.51697251      -0.52786973       1.57290891
O        0.23526262       1.90785339       9.51606674       2.38249342      -1.70766173       3.32388249
O        8.14692525       9.53392538      24.46984885       0.69590686       0.56058053      -0.44148367
O        9.14811421       8.33756605      21.96598594       2.32291618      -0.53244794      -0.26441509
O        1.64521741       1.20660487      11.69378162       1.85672314      -1.87480677       0.59060822
O        0.88498785       1.46261152       4.46436135      -1.14963327       0.45138022       1.25688676
O        8.73550644       9.00919070      15.54981082      -0.43512138      -0.42691895      -0.18781623
O        3.70321415       3.85954449      11.60526444      -2.20480889       1.46503914       1.18178725
O        6.04109587       6.32935106      22.43850923      -3.14206051       2.84459914      -1.31958092
O        6.54759733       5.48305980      15.68850170       1.88932433       0.94220907      -1.03165243
O        4.28650677       3.31690579      18.45494482      -1.55323684       2.25007818      -0.88434291
O        8.73784562       3.27844884      11.58567310       2.45703341      -2.16364416      -0.61739051
O        6.96383157       1.24330680       8.57953250       0.90567454      -3.60893664       0.01914500
O        1.63971936       6.91809399      15.49505124      -0.95174839      -1.60583489      -0.11585935
O        3.29254143       8.72319290      18.58647827       0.66883460      -1.74950510       0.10330906
O        8.79097294       3.97663457      15.53259705      -1.39506942      -1.93046704       0.36118771
O        6.18184092       1.59558493      18.50960013       0.74776026      -0.31468840      -1.45587701
O        2.42803873       6.09890840      11.37453888       0.67191093      -1.88262501       2.09291068
O        4.07004977       8.11242249      22.10717944      -1.21475435      -0.35004961       1.33649092
O        7.77659530       4.84633161      13.34302432      -1.16186566      -0.55926384      -3.33730444
O        5.28134661       2.27869016       6.86419339      -1.49301913      -0.58352007      -1.73833345
O        2.22166150       4.77598506      13.84225892       0.20129568      -0.42758665      -0.32865751
O        5.42439033       7.53639512      20.03934759      -0.71844366      -0.26747845      -0.53729603
O        0.36901474       2.57001638       6.94768094      -1.03647563      -1.28768704       1.72545107
O        7.55902579       0.06319012       6.24410543       0.11956786      -0.28556681      -0.64326093
O        0.33408544       6.62324165      13.17339631       0.59424097       0.70620800       0.19969592
O        2.62622409       0.32274049      13.92184121      -0.38448590      -0.54117713       3.96625556
80
Lattice="9.77192453 0.01751879 6.90363604 0.24348012 9.76890588 6.90363604 0.01370155 0.0133883 13.86910312" Properties=species:S:1:pos:R:3:forces:R:3 energy=-575.83229017 source_file=vasprun.xml step_index=500 time_fs=37000.0 time_ps=37.0 file_index=18 pbc="T T T"
Na       8.62672416       0.95848002      10.39848257       0.03596339       0.39097175       0.06863737
Na       6.75444234       3.97283137      16.66101011      -1.19579483      -0.84602989       1.22483477
Na       3.45747808       5.87315139       9.79405879       0.38236516      -0.06143238      -0.01240145
Na       1.58517486       9.56755246      16.36036888      -0.07018230      -0.44909670      -0.25116131
Na       5.98896080       0.90013966      13.61000786       0.18184413       0.00163942      -0.02881097
Na       8.93376744       3.57399456      20.28657679      -0.54959223       0.24411293       0.71778485
Na       1.18042982       6.77366979       5.85668611       0.55769866      -0.51527217      -0.44524231
Na       3.80276904       8.42744305      13.53279930       0.44461695      -0.01834217       0.26346569
Al       7.20693812       5.40802452      22.56720727      -0.89103659      -1.54754206       1.41892731
Al       4.77081092       2.65480549      11.21226625       0.33559618      -0.15137105       0.94518169
Al       3.17993914       4.29777032      18.44377564      -0.89690081       2.84115337       0.95893938
Al       5.55379213       6.97823173      15.99523018      -1.39406486       2.40748720       0.96571460
Al       0.63666072       1.84515214      11.53914495      -0.25067015       0.77511954      -0.64645360
Al       8.05072042       9.70837561      22.91237405      -1.11648684      -2.23410090      -0.75764628
Al       0.23251487       7.78184770       8.51341273       0.64230155      -1.18771988       1.54604647
Al       2.30180299       0.30414144       4.10034964      -0.08537073       0.50968480       1.84816753
Si       2.61705429       5.63360772      15.49109085      -1.83070765       1.53249577      -0.04203268
Si       4.56739699       7.15585600      18.77901188      -0.06055583       1.14933007       4.26380051
Si       7.40735359       4.08601566      11.85983247      -0.46089013      -0.48591235      -0.65666460
Si       5.76253417       2.53205265       8.36618990       3.69568990       0.63114830      -1.66680182
Si       1.20548661       7.28331077      11.71505883      -0.76999621       1.13672020       1.46125876
Si       2.77783847       9.30797465      22.01557066       1.21299273      -1.98785918      -3.29440465
Si       9.20626779       2.57342568      15.34497728      -1.12333977      -1.96692887      -3.06652403
Si       7.50602985       0.55419155      19.09723640       1.66344993       0.92903765       2.24322986
Si       0.54901117       2.81853052       5.43289643       0.49931499      -1.47482200      -0.93139056
Si       7.25909601       9.36296085      15.01555539       1.08686240       3.10130220      -0.33594978
Si       9.72133631       7.21439202      21.51026810      -0.28711211      -1.00119221       0.47230968
Si       3.50656085       9.78103172      18.93837418      -1.16316248      -0.91364280       1.46417400
Si       8.09535658       5.56174993      14.63611975      -4.44454589      -5.12723257       0.30063662
Si       4.84914556       1.94924824       5.37806880       0.38020715      -2.02151497       2.20565177
Si       2.33436121       4.45678288      12.54186672      -0.15199183      -0.11036541      -0.73344303
Si       5.44563880       7.85364609      21.89534523      -0.60017492       1.30230107      -1.59805550
O        8.78246586       5.90759244      21.95940438      -0.52961607       0.74663057      -0.80837023
O        4.54046913       0.90515022      11.85932613       1.33589245       2.37143141      -2.01800601
O        1.67723528       4.00119771       5.48717832      -0.38371653      -0.57795737      -0.14510091
O        5.94189744       8.73280523      15.55865992      -1.77382940      -3.50837382       0.17072459
O        1.10931240       3.47895130      12.12439821      -0.98662133      -1.24268116       0.47179817
O        6.58034058       8.97822336      22.08864868       0.96460451       0.88948699       1.10127559
O        9.31359684       6.42669647      14.39480931       3.15144584       3.28031003       0.44855020
O        3.90762600       0.77674842       4.72361482      -0.07346003      -0.38225900       1.10533092
O        3.72119274       5.91389378      19.34613201      -0.59300099      -1.82514126      -1.41599177
O        3.74144254       6.78677620      15.44798361       4.25825117       0.20206529       0.09006789
O        6.81664946       3.83311697       7.92644423      -0.84273864      -1.75786406      -0.11601097
O        6.38499175       2.79571012      12.05046683      -0.89671530       0.58486546       0.04775144
O        1.72876714       8.07746786       7.56478542      -1.41515916       1.04459088       1.66320450
O        2.36328302       8.43009829      11.88588754      -0.33217628       1.50596363      -1.19765282
O        9.02248135       1.31775490      19.43762751      -1.19010029      -0.04453991      -0.19727860
O        7.86407428       1.53068815      15.31553409       0.66418411       1.26189679       0.10293491
O        2.62995638       4.75381954      16.85084209       0.08192147       0.32220434      -1.23728070
O        5.75328206       7.16212521      17.76948817       0.89498399      -1.52997354      -1.98183758
O        7.09037978       4.69392211      10.40293967       0.41060602       1.42796992       0.21009317
O        4.69638016       2.86932709       9.45819483      -0.81188410       0.10762004       2.54227662
O        0.64241304       7.09687820      10.25545536      -1.10526716       1.27639822      -3.40325733
O        2.02276748       0.49544311       2.39586699      -0.27122317      -0.30028603      -0.51399244
O        0.33320098       2.05090172       9.65901133       0.80464654      -0.16102742       1.84403913
O        7.97480069       9.57632048      24.67667745       0.51132976      -1.64905176      -3.23913465
O        9.28890852       8.60209204      22.20803075      -0.00885285       1.14048867       0.61046575
O        1.86679639       0.64646396      11.58428597      -1.06245873       0.39024829      -1.72983396
O        0.98565459       1.42291355       4.58429524      -0.04217851       1.04628095       0.09579153
O        8.78972784       9.03521498      15.69578177      -1.55335152      -0.26249486      -1.38306767
O        3.65215943       3.97985662      11.77411140       1.18224121      -0.88917353      -0.41869318
O        5.68992468       6.38934300       8.63825229       0.82994803      -0.68291335       0.33257945
O        6.83479264       5.87604170      15.66466934       0.77396883       0.62048917      -1.38950661
O        4.49844982       3.23980114      18.45557180      -0.15710041       2.46533572      -1.32033910
O        8.85413625       3.32735806      11.77573333       1.30183043       0.07147586      -0.16583467
O        6.78910877       1.17686943       8.79514239      -0.06697994       0.72716372      -1.36952840
O        1.38802764       6.85730732      15.32880532       0.57590173      -1.17011638       0.13166000
O        3.47779405       8.26683521      18.19177095      -0.42113552       1.60996550       0.92868216
O        8.46548074       4.06809189      15.52024185       2.05604713       0.35550493      -1.65912058
O        6.45512697       1.76283913      18.90979705      -0.07936331       0.49451009      -0.18523437
O        1.91510886       5.92368767      12.02431124       1.87028497      -1.67979641      -0.52200358
O        4.00564562       8.37914770       8.71260856       0.41438807      -0.46143566       0.81980815
O        7.40679136       5.12583386      13.18124043       0.39155837      -0.18998149      -0.05758543
O        4.84510226       2.16782622       7.08910177      -0.91633734      -1.17123403      -3.10795227
O        2.53543802       4.77273103      14.10228173       0.28813378      -1.01007091       1.70100473
O        5.24526506       7.90592555      20.24443494      -0.67837537      -1.04340047      -1.43844146
O        0.23589692       2.09274997       6.84088097      -1.25670150       1.37688727       4.80975953
O        7.05327255       9.26095941      13.28926541       1.91068429       1.08166189       1.31034886
O        9.87212493       7.38086218      19.85531229      -0.45108513       0.34522087       0.47302717
O        3.10303207       0.15772497      13.66890722      -0.59179908      -0.09358196       2.13472448
80
Lattice="9.77192453 0.01751879 6.90363604 0.24348012 9.76890588 6.90363604 0.01370155 0.0133883 13.86910312" Properties=species:S:1:pos:R:3:forces:R:3 energy=-575.10099574 source_file=vasprun.xml step_index=0 time_fs=38000.0 time_ps=38.0 file_index=19 pbc="T T T"
Na       8.74894929       0.53922115      11.22640672       0.17191660       0.01456858      -0.44889289
Na       6.27228899       3.84406255      17.15312396      -0.08174370       0.00493882       0.16003696
Na       3.49383930       6.06141964       9.76338237       0.38158238      -0.21270500       0.09540927
Na       1.17800575       8.81163586      17.18445383       0.48748174      -0.21604879       0.12950477
Na       6.00216308       0.62836813      13.39494292       0.06344797       0.60636599      -0.14086130
Na       8.95074115       3.91956796      20.34551311      -0.41438310      -0.35260800       0.15309559
Na       1.10297290       6.16893571       6.65860190       0.55578237      -0.55188687      -0.97859672
Na       3.64513699       8.64090911      13.67127796       0.98723374      -0.00782403       0.76730315
Al       7.32899838       5.31165516      22.57087338      -3.21422860       0.10275218       1.68344204
Al       4.88418646       2.71833610      11.04212887      -1.16434721      -1.83637770      -0.30013029
Al       3.11857528       4.58908642      18.22529182      -3.83827974       2.32350267      -0.15236018
Al       5.67665855       7.12831685      15.94033085       0.06995180       0.14178299      -0.77368628
Al       0.61588018       2.00572111      11.38657559      -2.31742250       1.93692246      -1.27523898
Al       8.17847449       9.53105211      22.67510114      -2.01811554       0.41721234      -2.76218157
Al       9.73668546       7.70423935      15.74456638      -1.64003796       0.22425765       0.27371582
Al       2.35702374       0.17723634       4.28040601      -0.25594519       2.80317832       0.50075428
Si       2.78102171       5.63692795      15.11193127       2.85119586       4.32996064       3.93671636
Si       4.34447675       7.37053582      18.94512603       0.24099944      -1.28089969      -3.30373957
Si       7.65576089       3.93073916      11.73157763       0.84618509       0.59838446       0.03929179
Si       6.01044296       2.47758404       8.09114847       0.40581744       2.56952402      -0.83392937
Si       1.20774541       7.36800676      11.86804865      -5.35284684      -0.65958936      -1.49901867
Si       2.73183390       9.11665099      22.05148283       0.33583108       2.68673655      -0.87901282
Si       9.13567828       2.49268966      15.32889304       2.64639322       2.56181787       0.51152466
Si       7.66546112       0.64235347      18.81304637      -6.36110311      -2.39345221       0.84704587
Si       0.62930650       2.84220603       5.53813847       0.74505094      -0.15723968      -1.84085045
Si       7.38427933       9.58955596      14.92132365      -2.48301212      -1.26993512      -3.29797093
Si       9.64739199       7.08162677      21.41833761       2.55706316       0.68569662       1.72995159
Si       3.08967591       0.40775215      12.27065082      -1.25243885      -3.26061896      -1.16187455
Si       7.98812396       5.02520917      14.88389436      -1.87364735       5.49557233      -2.44867152
Si       4.69937698       1.99337466       5.29836207       1.97729833      -0.79649531      -0.05673881
Si       2.42503767       4.47682027      12.43798676      -1.00688150      -1.82953982      -4.93366388
Si       5.30403676       7.90880408      21.75514215       4.83232707       1.09695709       0.30898364
O        8.69748402       5.87217512      21.81785197       1.18174807       0.53172623      -1.40395475
O        4.37861201       1.22386298      11.99841342       2.03174299       1.34455894      -1.25824151
O        1.54270450       4.15902841       5.13343463      -0.63829934      -0.91302555       0.65084283
O        5.99905130       8.76245313      15.29848389       0.52386747       0.69420261      -0.77247552
O        1.09028979       3.42501696      12.24301978       1.66174401       2.71371412       1.27689515
O        6.44774989       9.15857867      22.07650571       0.49254752      -1.54989242      -0.00962453
O        9.15847079       6.19891751      14.89418251       0.81522685       0.80439757       0.72803324
O        3.84029847       0.60422469       5.18393694      -0.30291516       0.64324058      -0.73105437
O        3.68807451       5.88101529      19.19889037       0.62909313       2.67056271       1.19715128
O        4.26272725       6.63397253      15.09457709      -4.29847246      -1.41984017      -1.68694812
O        6.78978165       3.96657351       7.73777669      -0.25452173      -1.97164552       1.15101503
O        6.42274265       2.81131741      11.81058035       1.26921198       1.66593680       0.03561044
O        1.45931997       8.15178934       7.97159963      -1.02555780      -1.13818911      -0.91040820
O        2.25104010       8.46090953      11.99988449       2.57106017       2.52087693       0.56193992
O        8.73961773       1.68726997      18.96913956       5.42140423       3.14865879       0.95530388
O        8.26486470       1.33426917      14.77912806      -2.29049455      -3.58451713       0.66354317
O        2.69565995       5.17329897      16.66069045       0.04315826      -0.79674983      -1.37391739
O        5.31918143       7.31016190      17.58683709      -0.65582253       0.03194342       3.12288485
O        7.73545499       5.04737646      10.46229181      -1.32744038      -1.16980872       0.51932856
O        5.03354613       2.21727701       9.32758011      -0.12554947       1.28315673       1.89070750
O        0.33356170       7.59373185      10.51995882       0.65898336      -0.30637549      -0.21464542
O        2.29179056       0.30146109       2.50903738      -0.86595470       1.11864779       2.54607004
O        0.36988804       2.37971023       9.66610227      -0.00939231      -1.25755517       0.57477260
O        8.01426110       9.67967927      24.29833804       0.80594128      -0.49868751       1.98573384
O        9.49130293       8.38681930      22.44049310      -0.46824287      -0.59126708      -1.36360009
O        1.89864295       0.96982952      11.37235229       0.00417429      -1.47697346       0.02823464
O        1.18042902       1.32607152       5.17274309       0.20531743      -0.10620196      -1.00335844
O        8.42045444       8.97447378      15.92221216       3.32078080      -1.33463347       0.41871552
O        3.66252753       3.94230641      11.40550656      -1.11025007       1.27593463       0.88376858
O        5.72252859       6.41018005      22.08837099       1.51630094      -1.12660955       1.43839674
O        6.67085637       5.67964094      15.65815410       0.69128265      -0.06751727      -0.53854391
O        4.16665843       3.42271856      18.53777809       3.45384338      -4.72746942      -0.40237762
O        8.97848707       2.90921460      11.53606103      -0.25661410       0.43681505       0.55639060
O        7.26310604       1.44452724       8.15920269       0.09306766      -0.50977969       0.11069099
O        1.46197093       6.59716183      14.86686383      -0.28684736       0.26680534      -0.59871796
O        3.13203167       8.46074354      18.65626339      -0.11394185       1.89005706       0.35696051
O        8.25618485       3.86282280      15.86066926       0.91312385      -4.19071717       0.75977156
O        6.28091979       1.63273038      18.64752201      -0.71837384       0.52838224      -0.90907233
O        2.01524384       6.03226937      11.81249121       1.82133363      -4.44449632       0.60843410
O        3.98853730       8.24457485       8.71413660      -1.16295132      -1.06350452       0.56860663
O        7.84102110       4.72706141      13.24071027      -0.48347487      -0.83459453      -0.53771816
O        5.06547495       2.36004326       6.81397227      -1.23655335      -0.47393272       0.34211919
O        2.83762972       4.59041471      13.93884390       0.57053090      -1.48550775       0.42501597
O        5.08446504       8.16366309      20.17055266       0.33919550      -0.61342523      -0.46508613
O        0.26044707       2.87489487       7.09651322       0.01092073       0.86409301       1.21398492
O        7.51220465       9.33594045      13.12181502       1.16462603       1.00001776       1.18450998
O        9.68688687       7.41837987      19.82360648       0.05175113       0.01898457       0.66374405
O        2.99111243       0.38715602      13.86652429      -1.50619437      -1.53833385       2.69361732
80
Lattice="9.77192453 0.01751879 6.90363604 0.24348012 9.76890588 6.90363604 0.01370155 0.0133883 13.86910312" Properties=species:S:1:pos:R:3:forces:R:3 energy=-576.66813372 source_file=vasprun.xml step_index=500 time_fs=39000.0 time_ps=39.0 file_index=19 pbc="T T T"
Na       8.74797659       9.57707425      17.68211608      -0.21948362       0.79102817       0.67509949
Na       6.88275507       3.65851430      17.20698261      -0.18010029       0.26423422       0.08151265
Na       4.13728762       5.63437975       9.86354561       0.17071296      -0.12068666      -0.05300782
Na       1.59385364       8.46786681      17.22211107      -1.15604915      -0.13098352      -0.89677691
Na       5.46836261       1.33515299      14.55705160       0.12204856      -0.24207667      -0.41589487
Na       9.30397779       3.08530463      21.00016306       0.06109090       0.25699654       0.15036695
Na       0.71156706       5.95741465       6.14744541       0.77564973      -0.19283710      -0.68576016
Na       4.01731990       8.83485201      13.58859161      -0.19620714       0.05879137      -0.25784327
Al       7.48287074       5.24602365      22.45183389      -2.87380013       1.09149591       2.07241706
Al       4.85156332       2.68671844      11.32030419      -0.04590916       1.23512763      -0.05948617
Al       3.04821571       4.41934899      18.23739640      -0.46261943       2.80199752       1.50000377
Al       5.63101077       7.22954633      15.73661396      -0.76694629      -0.62675041       0.28399709
Al       0.45668572       2.24146432      11.45257350       0.05610376       0.35213952      -1.14386994
Al       8.05676243       9.28378171      22.75459714       2.36018148      -0.10587585       2.69885075
Al       9.65832687       7.76091314      15.76660320       1.21809202      -1.38324681      -0.37649171
Al       2.20370055       0.52225166       4.03403124       1.36304036      -0.81511184       1.12457829
Si       2.95993122       5.67305829      15.29342373      -1.73565919       3.29298308      -1.28777260
Si       4.33511083       7.27257595      18.70274425       2.11830049      -0.90675148       0.83771760
Si       7.41903035       4.35791595      11.83321569       5.14601598       0.97516797      -0.96632621
Si       6.02032988       2.56717601       8.15198322       1.61358890       2.13345819       3.17756709
Si       1.27790455       7.44914860      11.70706576      -1.53741303       0.99679469      -0.60091372
Si       2.84019654       9.02278563      22.02290724      -1.17050567       1.07804610       0.51233142
Si       9.01280397       2.37246886      15.31221540      -0.20327949       0.02917177      -3.49295880
Si       7.46568250       0.73906025      18.90569486       0.80633242       1.49735386      -2.77884244
Si       0.50787479       2.71335013       5.44594970       0.14598819       1.83520934       2.15849960
Si       7.12919132       9.68660172      14.86334758      -0.78194413      -1.91391098       1.13348776
Si       0.27133813       6.98479903      14.73382944      -2.73754971       2.85557265      -1.71184242
Si       2.92905455       0.20505332      12.06083662       2.76571399       1.68146297       0.79390648
Si       8.12490201       5.41495425      14.68950399       0.33877312      -2.58284634      -2.43748385
Si       4.81714210       2.06546047       5.27633427      -1.43445860       0.57596757       0.73012016
Si       2.29340366       4.62518643      12.29603352       1.85410386      -2.51135827       3.43317079
Si       5.50214509       7.69909078      21.71979823      -1.19588619      -0.33208455      -2.49041374
O        8.83410897       5.88845411      21.62775831       1.52734260       0.41741942      -0.37832797
O        4.39477248       1.15221084      12.11433354      -1.71252816       0.44636814      -1.44701151
O        1.70785791       3.96425450       5.41433407      -1.62989212      -2.24207897      -0.47252947
O        5.66695664       8.95667867      15.26516421       1.68370015      -0.37522991      -0.47434955
O        1.11722016       3.54177054      12.52715991      -0.97449727      -1.39789151      -1.57841153
O        6.52044255       8.84822709      22.21702449      -1.22077748      -0.50213182      -0.70877172
O        9.54879691       6.17622535      14.94013817      -1.31311893      -0.15531415       0.87367550
O        3.65541032       1.02935681       5.02309624      -1.54791616      -1.36106392      -0.28608014
O        3.32509467       6.08722564      19.12628811      -0.30550433      -0.60734196      -0.40431457
O        4.14933997       6.69756397      14.96283231      -0.07005145       0.40645897      -0.60235142
O        7.26814573       3.77944767      21.56651239      -2.72502967      -2.66049244       0.51743098
O        6.32431754       3.31123962      12.10694722      -2.26435307      -1.90037058       1.16349193
O        1.38630712       8.26439468       8.21739075       0.88515745       0.46228884      -0.65694778
O        2.48719845       8.54769576      11.53822130      -0.79802087      -0.25606642      -0.48852254
O        8.67308441       1.93145423      19.06151770      -1.45083279      -1.30058205       1.19681346
O        7.91154602       1.14634994      15.30228444       0.38719821       1.32413851      -0.32739762
O        2.91504936       4.83094277      16.57432257       0.27351801      -2.14429415       1.54340915
O        5.16858532       6.88528020      17.35661845       0.84867387      -0.00457183       1.68875999
O        7.24554959       5.14513657      10.43089583       0.61014979       0.11491503      -1.31580459
O        5.22925791       2.97460099       9.59575693      -0.16939175      -0.30527405      -2.23659212
O        9.77516752       7.57485890      17.49411793       1.28423898       0.45132278       1.25279649
O        2.54172843       0.55521596       2.29396170       0.06023654      -0.75990128      -0.03623291
O        9.83390711       2.55624914      16.62302426       1.25460497       0.13930395       2.61052867
O        8.14062126       9.46509056      24.66635249      -0.28731363      -0.07225242      -1.16684546
O        9.53453900       8.32689473      22.46204565      -1.81336800       0.95850087       0.12060242
O        1.52758709       0.85584448      11.51167815       1.43510771      -0.98518635       0.05432496
O        0.77652935       1.28011520       4.78241974       1.03733599      -1.01845774      -1.77930229
O        8.39859724       8.88521941      15.53291517      -1.08148149       0.41967982      -0.54882571
O        3.67292805       4.09008438      11.63575376      -0.13420873      -0.61762229      -0.65525049
O        5.74243666       6.17683120       8.35593299       2.45321264      -0.59535691      -0.42821165
O        6.80994679       5.98182630      15.30079643      -1.01204304       1.40537957       1.50435079
O        4.41048887       3.49269878      18.53360456       1.44145253      -0.02707044       0.26907921
O        8.97900828       3.38241842      11.67366954      -2.44496123       1.26084948      -0.23217219
O        6.95999062       1.32345918       8.78218792       0.21740961       0.27225089      -1.25027979
O        1.51307500       6.75228699      15.65138676       4.13056904      -2.46148374       0.13423475
O        3.50293189       8.55119003      18.18395228      -1.90357425       2.60272144      -0.51919135
O        8.05957695       3.71308994      15.02912502      -0.13204046       1.91758868       0.71685154
O        6.15526107       1.76599343      18.33582333       3.32720815      -1.82347889      -0.26781888
O        1.75912598       5.90201324      11.59151189       0.02902495       1.82463333      -1.70916192
O        3.98853499       7.90888427       8.51807859      -0.25488477       0.55517371       0.25179370
O        7.92093616       5.48535020      13.00104672      -0.17221997      -0.86724486       0.06055854
O        5.22704937       1.91046565       6.90010572      -0.53806531       1.14807566      -0.03151089
O        2.60866625       4.94925083      13.92168538      -0.43933167      -0.60529138      -1.26570224
O        5.22750632       7.99897060      19.97689405       0.57224622      -1.94213731       1.32616484
O        0.24763503       2.32061928       7.06682178      -0.17610691       0.17528584       0.17725309
O        7.17527880       9.64652498      13.22154371       0.56338192       0.45727053       0.67446902
O        0.61346255       7.70039708      13.17670500      -0.29531515      -1.55364410       1.69539379
O        3.21182733       9.63131141      20.53527636      -1.34210890      -0.17232752       1.72518882
80
Lattice="9.77192453 0.01751879 6.90363604 0.24348012 9.76890588 6.90363604 0.01370155 0.0133883 13.86910312" Properties=species:S:1:pos:R:3:forces:R:3 energy=-576.65496767 source_file=vasprun.xml step_index=0 time_fs=40000.0 time_ps=40.0 file_index=20 pbc="T T T"
Na       9.79660849       1.06461268       9.40757981      -0.76181367       0.04352337      -0.51767622
Na       6.02632884       3.48165831      16.86337405      -0.14132889       0.19975224       0.03547236
Na       3.88720178       5.40892573       9.82974271       0.32468629       0.20566444      -0.19489924
Na       1.55449424       9.46820100      17.03092140      -0.70018651      -0.72500688      -0.95702412
Na       6.23481554       1.01935465      13.50837108       0.24494928      -0.55982708      -0.09040142
Na       8.40999539       4.18639225      20.20789348       0.40745286       0.47468249       0.02924057
Na       1.49965007       6.32231655       6.48939578      -0.42583283      -0.15501145      -0.18769633
Na       4.62993930       8.04506946      12.84731590      -0.36056407       0.30732518       0.23576753
Al       7.16240738       5.20151170       8.89220468      -1.75700661      -0.22662437       0.58349815
Al       4.73989741       2.70810587      11.30517779       2.83639796      -3.10454475       0.43687426
Al       3.24995166       4.53462729      18.39823653       1.72687869      -0.43682602      -1.93427547
Al       5.39766542       7.23779377      15.67519455       1.07579537       0.14125159       0.31369192
Al       0.40729326       2.32395699      11.41155582       0.08389825       0.07535788       1.31460120
Al       8.20052613       9.59656958      22.76869304       0.69854931      -2.70715985      -1.22539572
Al       9.68822873       7.50893754      15.99576552       1.67818373      -2.96109086      -0.72133964
Al       1.98989853       0.30769893       4.47937074       1.29930242       0.85162143      -0.65337376
Si       2.79429107       5.54999227      15.33668395      -0.07603487       0.80166493       4.09062009
Si       4.52750051       7.60897892      18.68912466       0.14854382      -1.01299523      -2.50863888
Si       7.34174755       4.14987504      11.86807140       0.66538567      -1.20105971       0.30866200
Si       6.08939772       2.43605367       8.33646465      -0.98700831      -3.44959103       0.95562695
Si       1.04712003       7.17450399      12.10459452       1.71627639       3.83574995      -1.90153541
Si       2.63215963       8.88099554       8.27249902       0.22804066       0.99217207       1.43567059
Si       9.18091000       2.50138783      15.17809548      -2.04717444      -2.38540841      -0.05702539
Si       7.70435070       0.89666590      18.96472784      -1.28384092       0.15411576      -1.39686894
Si       0.50332821       3.07907361       5.10933459      -0.61991685       1.78215225       2.62603221
Si       7.39627103       9.36571312      14.80869544       0.70688355      -2.74304605      -1.82290798
Si       9.85851010       6.70761069      21.99174995      -1.04322119       3.85221655       0.37051691
Si       2.88413764       0.31373633      12.30099591       0.28640070       1.97098383       2.61628494
Si       7.92482529       5.29900093      14.70121663       0.69439539       0.35692061       3.46492839
Si       4.71835545       1.76838741       5.57918521      -0.55322396       0.51201680      -1.80766380
Si       2.29520935       4.65638283      12.32437191       1.96099965      -0.36869607       1.07605182
Si       5.52674071       7.83826305      21.66869766       0.91426033      -2.16527883      -0.06281490
O        8.72204681       5.60678578      22.26677977       1.63173688       0.45764768      -0.76591514
O        4.25561446       1.07657489      11.84776850      -0.54632732       0.25255039       0.97853243
O        1.62221787       4.33089362       4.96939390      -2.85861382      -1.32866115       1.52912792
O        5.91916681       8.64478098      14.72805480       0.74511658      -0.70432681      -0.49317096
O        0.94951465       3.94199789      11.86601831      -0.59225620      -0.13848360       0.12943357
O        6.76353649       8.81224167      21.88451191       0.70994243       1.31698216       1.82825948
O        9.40852944       6.05768369      14.87759086      -1.69620238      -0.24914830       0.74115713
O        3.50380039       0.56020757       5.45626277       1.94770805       1.82265108      -0.78886572
O        3.84818516       6.09019892      18.78657339       0.73090029       2.60811452       1.46293564
O        3.92591487       6.61266860      15.08580758       1.09584222       1.36908564      -1.62845298
O        7.17483075       3.55169462       8.08845652      -0.00625735       1.60854839       0.18854190
O        6.28172436       2.84922980      12.34792460       0.71214359       2.79375065      -2.11154122
O        1.32898275       7.96489407       8.12808259       1.33647094      -1.62341765      -0.96228002
O        1.62332394       8.80227508      12.25739001      -1.42471663      -4.18662040       1.04405799
O        8.63320709       2.24724493      19.27692646       0.14433672      -1.38575614      -0.78788087
O        8.27384147       1.09864728      14.70080705       0.60198846       1.59643024       1.65486964
O        3.32635353       4.63391373      16.60941208      -0.52706327      -0.53436525      -1.05819202
O        5.38879003       7.82594555      17.27956357      -0.78433339      -0.38996604       2.87018653
O        6.98073338       5.20640084      10.67404917      -1.01010639      -0.80730423      -0.37051812
O        5.12289499       2.69556051       9.61623723       0.14338822       0.78930028      -0.35516598
O        9.94086507       7.14628408      17.66398549      -0.44223450      -0.38924822       0.17697320
O        2.19652451       9.65387285       9.63543451       0.92413956       1.14973141       1.00034681
O        0.11883057       2.15835821       9.73761529       0.07339048       0.34478346      -2.19101593
O        8.10967176       0.12209159      17.58542651       0.16707154       0.24887540       0.12205913
O        9.46681813       8.27140677      22.48443225      -0.51332426      -0.50023636      -0.04191619
O        1.51475406       1.05027701      11.97070353      -1.40433573       1.28447847      -2.15619321
O        1.01055597       1.78328505       4.35600802       0.50025355      -0.91442718       0.28666588
O        8.72342442       8.75835886      15.59052178      -3.33600654       2.41003241      -0.70371573
O        3.59162961       3.78763410      11.70733385      -3.06967185       3.55089814       0.98078820
O        5.81347567       6.19412145      22.04290311       0.25580175       1.00867442       0.26438089
O        6.64260688       6.02236707      15.49315110       1.84231086      -1.50718740      -0.52829367
O        4.43315919       3.34205238      18.96807318      -0.95269635      -0.62376724      -0.79692730
O        8.83170512       3.47801611      11.26610457      -0.52884254       0.26491618       1.69806689
O        6.92604050       0.96029218       8.57670091      -0.33508885       4.90390157       1.65691345
O        1.50410424       6.56045974      15.82829444       1.21769040      -1.93227386       0.04547445
O        3.21847148       8.67931378      18.45712758      -0.07189751      -2.08369644       0.19674351
O        8.05645231       3.68420345      15.25848468      -1.03164970       1.47775149       1.43561585
O        6.14689410       1.51905106      18.48340958      -0.24402001      -0.70256120       1.61957366
O        2.46458497       6.21969615      11.69683999      -0.92653883      -0.50179292       1.04267821
O        4.14850744       8.14677974       8.68026490      -1.45897455       0.40659341      -1.16206235
O        7.58537943       5.10061573      13.19676201      -0.61983609      -0.49262917      -3.48474273
O        5.11052613       1.99556277       7.10783570       0.28908726      -0.05865230       0.89363197
O        2.34862678       4.83374961      14.01428440      -0.44561692      -2.05498763      -3.29415178
O        5.37645229       8.11098865      20.02917212      -1.37702321      -0.78068454      -0.61070480
O        0.17913719       2.84310712       6.94857050       2.71041393       0.87640301      -4.30913123
O        7.88997339       9.53166852      13.18403704      -0.36407768       0.53897017       0.61639805
O        0.31499778       6.67523420      13.42628726      -0.42472012      -0.62663509       0.36663266
O        2.40119844       0.16147973      13.95193723       2.28367253      -0.89692047      -0.10840061
80
Lattice="9.77192453 0.01751879 6.90363604 0.24348012 9.76890588 6.90363604 0.01370155 0.0133883 13.86910312" Properties=species:S:1:pos:R:3:forces:R:3 energy=-576.76553232 source_file=vasprun.xml step_index=500 time_fs=41000.0 time_ps=41.0 file_index=20 pbc="T T T"
Na       7.99487449       1.57306380      10.35012218       0.40848414      -0.15905567       0.87386289
Na       2.05664411       2.35608386      15.38045104       0.08500162       0.59232765      -0.30652664
Na       5.38097724       7.22828596      11.43257426       0.13934642       0.10066900      -0.02181750
Na       2.17678491       9.14495956      16.11636607      -0.26976701       0.23422735       0.03449827
Na       8.91587806       5.09812542      19.40979159      -0.12219846       0.30330536       0.22378053
Na       6.27997832       3.82731284      16.50602661      -0.79029219      -1.47503524       0.82321738
Na       1.58867364       6.83449923       6.33521459      -0.08351011      -0.31856654      -0.38496729
Na       2.25075119       3.54192480       8.50994722       0.58013836      -0.32942092      -0.04997492
Al       7.30421220       5.52897340       9.10295508      -0.20016066      -0.46516684       1.17319642
Al       4.68048933       2.68995190      11.19699114       0.92978276      -0.70029520       0.34225843
Al       3.15100250       4.25703633      18.26221819      -0.39066571       2.43953388       1.50911215
Al       5.52320545       7.08425039      15.92587415       0.59707352      -0.90498744      -0.97966921
Al       0.75689234       1.87227436      11.38689520      -1.82485995      -1.02494232      -0.23645810
Al       7.97716463       9.52607467      22.69901991       0.21676251      -1.92075315      -1.11185073
Al       9.86931310       8.03554248      15.83164428      -0.74371738      -0.67185188      -1.09318348
Al       2.45300961       0.22316334       4.32892882      -0.22223368       2.08274699       0.08967635
Si       2.74200247       5.79657386      15.29264480       2.69270707      -0.70375940      -0.55227496
Si       4.53860239       6.96750727      19.04957071       0.59318002      -0.22087787      -0.45734200
Si       7.56942146       4.22783754      11.96179881       0.26742084      -3.11091413      -1.43410621
Si       5.96916243       2.67761579       8.26814162      -0.87385505      -0.20327401       1.40788336
Si       1.36892840       7.40722409      11.78008594      -2.07914880      -1.19755262      -0.35291161
Si       2.81372347       9.25653927      21.98259726      -0.42849276      -0.56042094       3.52260281
Si       9.24159242       2.46176520      15.52785000      -1.46524188      -1.69127889      -2.29724835
Si       7.65031922       0.53002921      18.81712946      -0.59676026       0.01496120       1.21328530
Si       0.63870579       2.58745952       5.56741836      -2.73286416       0.15176600       0.63819568
Si       7.33905928       9.54717693      14.81254745      -2.93154729       0.64206868       2.27568511
Si       9.92207658       7.31018041      21.60814668      -1.89463515      -3.20965566       0.75779877
Si       3.16141645       0.12129445      12.32629077       1.76842803       2.38385591      -0.53482021
Si       8.19099462       5.27415015      15.06155178      -3.74412972       2.90206723      -1.97787692
Si       5.05815560       2.03082186       5.21719815      -0.67478255      -0.48775330       0.84873597
Si       2.08728056       4.36070559      12.42811056       2.24287101       2.96566495      -0.91066989
Si       5.54257318       7.58395566      21.88194318       0.25140979       3.38463418      -0.67473975
O        8.55287506       6.25807936      21.93570624       2.25907419       0.68152423      -0.62545639
O        4.48015739       1.00823766      11.89987144      -0.85671478       0.26370729      -0.23566914
O        1.80870294       3.65850610       5.53548453       1.82356651       1.40798948      -1.31357744
O        6.20037277       8.57452452      15.43311434      -0.39159183       0.37933216      -0.63618087
O        0.82577526       3.44732395      12.14530137      -1.06450698      -1.00864443       0.65200216
O        6.72954238       8.78135651      21.62532811      -0.96234061      -0.85400184       2.05418901
O        9.11394776       6.59277849      15.09726654       0.82486633      -1.43433846      -0.49242071
O        4.00439472       0.84463626       4.97502905      -0.49873250      -0.38956965      -0.15641197
O        3.41117629       5.80957094      19.26262355      -0.07078057      -1.00260484      -1.14509615
O        4.04918428       6.71167908      14.92711392       0.13638522      -0.09972167       0.39645835
O        7.11116146       3.78549017       8.77908668      -0.79226332       0.59627842      -1.99795046
O        6.31303154       3.10029384      11.76332823       1.33850213       1.74061865       0.28938042
O        1.46880740       8.33481662       7.88123343       0.23479753       0.32540459       0.40308938
O        2.59483117       8.37394740      11.81841065       1.98352533       0.29112185       0.49331597
O        9.15829219       1.02851150      19.02373070       0.10261162       0.91640004       0.05809747
O        7.94971950       1.41630991      15.48107714       1.24014550       2.91479030       0.18161126
O        3.19255238       4.87299473      16.56076743      -1.41011549      -1.18522388       0.55157665
O        5.35005119       7.10056005      17.63400068      -1.14505817      -0.45677877       2.15633547
O        7.55918006       5.46539231      10.88896013       0.32684814      -0.50821805       0.71015969
O        4.76840593       2.82431300       9.42938618      -0.41355050      -0.27542027      -1.16286738
O        0.42638613       7.91765954      10.57611099       0.05541786      -0.46527067       0.72714497
O        2.55808535       0.51740571       2.54788544      -0.80749053      -1.12372315      -0.14504112
O        0.64182998       2.03574057       9.61300180       0.71691159       0.42485465       1.58506975
O        7.76000199       9.35322234      24.45774341      -0.21511072      -1.27328359      -1.36113679
O        9.62148868       8.76238142      21.97835678      -1.65047808       3.71576209       2.72169803
O        1.94615193       0.66092968      11.39929017       0.88409363      -1.31178471      -0.22018414
O        0.94804490       1.21581009       4.87765624       2.20992187      -2.53029603      -1.39925399
O        8.67585934       9.17822346      15.47269319       2.62182822       0.57059848       1.10700658
O        3.40586244       3.85731169      11.62808627      -0.29057737      -0.46661605       0.78106976
O        5.77922545       6.55531019       9.24255885       1.01857560      -0.71949383      -0.63703682
O        6.67648523       5.67047339      15.74523823       1.58438615       0.47377843      -1.00966075
O        4.62420971       3.41059620      18.41149981      -0.07692741       0.67768885      -1.79061334
O        9.00470111       3.08033373      11.68852627      -1.21519336       2.00300387       0.51515115
O        6.86922476       1.33399592       8.61787930      -0.79285857      -1.09553165      -2.16197434
O        1.56848203       6.85838804      15.53978862      -2.16605502       0.50450262       0.03277462
O        3.59496831       8.28918930      19.27577032      -0.86771203       0.80341233      -0.53458616
O        8.73083396       4.02934713      15.90809613       0.80878506      -2.00794104       0.41883793
O        6.58228085       1.80145672      18.58957743       1.45824591      -0.42471279      -0.55905665
O        1.65485767       5.79810441      11.64217267       0.73992738      -0.92982482      -0.02432241
O        3.99732517       8.23012072      22.27546759       2.47746538      -1.33583176      -0.43216554
O        7.69869620       4.69368640      13.49419679       1.10924827       1.05375112       2.17149322
O        5.17517994       2.46350079       6.77728727       1.06269389       0.62061666       3.21900729
O        2.29213654       4.74057122      14.05337237      -0.23049508      -0.60172194      -0.27758439
O        5.49555583       6.93938344      20.38715968       0.03789699      -0.86889963      -0.48394512
O        0.33277189       2.34373763       7.19488516      -0.39850673       1.04535258       0.37820870
O        7.26900084       9.47808089      13.23521222       0.57149176       0.87229200      -3.09179581
O        0.44731660       7.32219902      13.13257174      -0.14843165      -0.54435632      -0.46858717
O        2.74626670       0.49754669      13.88927412       0.16825414       1.79381793      -1.56976833
80
Lattice="9.77192453 0.01751879 6.90363604 0.24348012 9.76890588 6.90363604 0.01370155 0.0133883 13.86910312" Properties=species:S:1:pos:R:3:forces:R:3 energy=-574.64749959 source_file=vasprun.xml step_index=0 time_fs=42000.0 time_ps=42.0 file_index=21 pbc="T T T"
Na       7.38206287       6.49626317      18.48955637       0.14549433       0.30096278      -0.18983390
Na       4.29436057       2.59213451      15.86646515      -0.27604827       0.15573072       0.37649964
Na       3.53721931       5.61908399       9.59522763       0.40483721       0.31946461      -0.17790344
Na       5.43109188       8.93623243      12.79620348      -0.09923440      -0.93279290       0.27824112
Na       8.54726943       3.68350336      20.91152754       0.41077302      -0.04535742      -0.18164705
Na       8.57873909       1.09352713      12.73565925      -0.32357539      -0.16804535       0.05219660
Na       0.29426208       8.41527482      18.04021154       0.53217712      -0.09916000       0.28842682
Na       2.51302697       1.97192284       8.94600659      -0.28067678      -0.32279492      -0.23456550
Al       7.18775862       5.32830747       9.18843386      -1.53030234       2.35380912       2.64961888
Al       4.62711220       2.60097537      11.46404521      -0.46028031       0.39270889      -0.55331936
Al       3.19854856       4.73630306      18.42350578       1.80305941      -2.58725437      -2.72438062
Al       5.51559810       7.16983545      15.80741999      -0.29891957       0.84765434       0.91187537
Al       0.64218027       2.42238598      11.52290493      -0.64019156       0.39565516       0.54427232
Al       8.33418520       9.66091623      22.83732645      -2.24811436      -1.71144791      -1.80734627
Al       9.88072270       7.83248465      15.89382445      -1.61477515       1.90218316       1.01217681
Al       1.99139122       0.45925880       4.77689672       1.59132015       1.32317529       0.07962223
Si       3.00241713       5.74184884      15.08766025       0.83085397      -0.43747212       0.68782794
Si       4.48097756       7.38254141      19.04655937      -4.73697499       0.85532486      -3.44204502
Si       7.25385271       4.44285553      12.32746728       1.46022746       0.41985452      -4.26650302
Si       5.71180030       2.56423022       8.53182558       1.38651292       2.48877279      -4.83536171
Si       0.79293724       7.48712874      12.07224504       1.67774176      -2.50698331       2.08216595
Si       2.75658008       9.39604183       8.65694862       2.18941503      -0.03133955       0.17883946
Si       9.24832562       2.80349714      15.37695432       0.99221431      -0.53726345       4.00211024
Si       7.66450423       0.89830835      19.01106015       3.64116894       0.91071822      -3.76883963
Si       0.54551000       3.29364957       5.59501284       0.43625183      -0.25239079      -0.23289899
Si       7.60261078       9.68001304      14.81071189      -2.61861599      -2.29637574       0.56045369
Si       9.71491250       6.89113782      21.82903895      -0.23434966      -2.12865388      -1.13820711
Si       2.96688520       0.28021127      12.77571583      -1.95833435       3.67342413      -2.27698044
Si       8.03198531       5.57384853      15.20473883      -1.37730747       0.64219801      -1.13562022
Si       4.74820354       1.98675587       5.57245434      -0.77814132      -0.44761770      -1.72346925
Si       2.54154363       4.77829484      12.32137896      -4.77395838      -1.32248025       2.14711725
Si       5.56788673       7.97425054      21.78709979       3.96882321       0.67876111      -0.15940374
O        8.63973374       5.70168313      22.24867084       2.32206208       0.60855449      -0.73705313
O        4.37916453       0.99089632      12.27985844      -0.34153029       1.39641760      -0.34043010
O        1.60193833       4.43526932       5.13910981      -1.16719197      -0.87003314       0.56254490
O        6.34789628       8.55218805      15.09419311       0.51768873       1.41108740      -1.40336249
O        0.99212215       3.97117722      12.46118327       1.74601758      -0.68263141      -0.72354409
O        6.75478060       9.20583752      21.95352727      -0.06140240      -1.40153210       0.62522151
O        9.06719933       6.80126336      14.81407808      -0.54381049      -2.67545353       0.28693081
O        3.64595794       0.72606054       5.54901207      -0.11647215       0.80250837       0.49770710
O        3.71323386       6.01557898      19.39148451       0.85598701       0.31268576       0.10043578
O        4.01481425       6.97983130      14.75568736       1.56118855       0.02667565       1.45034411
O        6.61219121       3.91810134       8.47518524       0.00520059      -1.67205677       0.69156956
O        6.05501558       3.41249318      12.03133895       0.08863740      -1.14401753       0.49987855
O        1.65652661       8.26958169       8.36964847      -0.03934233      -0.33350842       0.94824051
O        1.58021520       8.82336299      12.54620338      -0.33423981       0.29091158      -1.34001298
O        8.77002644       2.12101156      19.17068540      -0.79991465      -0.23771810       0.32092068
O        8.30487900       1.49964713      15.38802164      -0.01464602       1.10582383      -2.27386929
O        3.44040645       4.81989239      16.42658893      -1.00458645       0.87240284       0.57933697
O        5.18046794       7.51526575      17.58637269      -0.67416212      -0.28677358      -0.19528711
O        7.22686017       5.57093815      11.08740845       0.02065966      -0.98319495      -1.08734665
O        4.53644630       2.52964535       9.51932838      -1.33713375      -0.84693617       3.68828818
O        9.67434371       7.36365033      17.69552363      -0.50343998       0.82377068      -3.17066497
O        2.50538537       0.61939922       3.04941194      -0.81850196      -1.40914089       0.27285592
O        0.54010542       2.54978783       9.72047512       0.50183696      -0.14276458       0.97151771
O        8.19434050       0.12507533      17.59219021      -0.71673648      -0.05094463       2.95784156
O        9.42841190       8.26531192      22.50262711      -0.38734945       2.64885683       1.69167937
O        1.71290381       1.03145107      11.77734697       1.22610490      -0.30753087       1.09238058
O        0.90708708       1.82582391       5.01981946       0.08622905      -0.88921844      -0.42725653
O        8.76113375       9.28804594      15.75771340       2.69937803      -0.38738038       1.40649221
O        3.48368076       4.06981028      11.31082664       1.69371267      -1.93687686      -1.85491168
O        5.95200996       6.46142418      22.35927451      -0.69662056       1.38717197       0.12554415
O        6.83016615       6.00659916      16.23713651       0.06089853       0.16964177      -0.92901592
O        4.45585915       3.17717686      18.41545213      -2.11552631       2.11791970      -1.00756155
O        8.77332430       3.58678644      12.06590204      -1.59486318       0.40922184       0.62651478
O        6.72917814       1.39116700       8.28046166       1.77433074      -2.23618879      -0.01947791
O        1.50511306       6.45911114      15.28728040      -0.10787591      -0.84794177      -0.57862981
O        3.01335502       8.52390869      19.29246741       2.20995656      -2.56476319      -0.46997769
O        8.56081037       4.19014370      15.90991517      -0.06479174       0.35105628      -1.26811058
O        6.14009299       1.27101113      18.80989202      -1.50969891       0.24357407       0.51667481
O        2.03255407       6.21921618      11.83539589      -0.61089314       2.99684298      -0.27173458
O        4.28951063       8.54921733      22.57765101      -2.27127028       0.33004722      -0.07047839
O        7.29708626       5.16576780      13.71766314       0.38228316       0.53441521       2.53474201
O        5.06484154       2.71985291       6.94490718      -0.47972879      -0.41576694       2.31628801
O        3.32118047       4.73454135      13.74243589      -0.86999652       0.56607829       1.83739806
O        5.54016830       7.83896400      20.04272556       2.56435298       1.01248059       4.77881074
O        0.48334021       2.85432366       7.23512103       0.61183393       1.18502730      -1.65393555
O        8.04685315       9.54669776      13.18024436      -0.63645725      -0.64862023       2.34859646
O        9.44572483       7.09602049      20.17450471       1.20222537      -0.24728469      -0.13148649
O        2.64601515       0.69010193      14.36395535       0.45763177      -0.23016287      -0.78337616
80
Lattice="9.77192453 0.01751879 6.90363604 0.24348012 9.76890588 6.90363604 0.01370155 0.0133883 13.86910312" Properties=species:S:1:pos:R:3:forces:R:3 energy=-575.12586559 source_file=vasprun.xml step_index=500 time_fs=43000.0 time_ps=43.0 file_index=21 pbc="T T T"
Na       7.72752637       6.63247372      18.50538794      -0.10577102       0.32663379       0.25207075
Na       6.57354527       3.52901008      16.84194590      -0.72224559      -0.46868351       0.39958797
Na       3.76700247       5.30832168       9.73026200      -0.19350674       0.61307787       0.07883311
Na       4.22056554       8.76829420      13.65633538      -0.20473529      -0.52061733      -0.33301318
Na       9.26534112       3.29759069      21.77093049      -0.11160074       0.05183130      -0.46633717
Na       8.41055366       0.89033961      11.34660305      -0.23486526      -0.29670078      -0.42422436
Na       1.53586263       9.09899779      16.90205356      -0.21613910      -0.35922935       0.35445269
Na       2.41715173       2.60561375       8.13046469       0.16781858       0.26634416      -0.03731691
Al       7.10153328       5.46871212       9.12946080      -0.95799909       0.81655282      -1.05037524
Al       4.72591304       2.70871560      11.21641267       0.31475344       2.01386373      -0.32298144
Al       3.06772874       4.69530844      18.45356321      -0.14597027      -1.84660576       0.11825172
Al       5.44398153       7.20724859      15.97873434       2.17672114      -0.41782720       1.15043948
Al       0.51797462       2.30722841      11.70516513      -1.45439401      -0.51427675      -3.05938959
Al       8.15596638       9.58805489      23.29102957       0.00257472       0.36001992      -2.96409203
Al       9.61575170       7.81667912      15.85150951       0.91438482      -0.04075739      -0.47018903
Al       2.29093149       0.52202756       4.58975051       1.35059416      -2.87606692      -1.35087315
Si       2.60416871       5.88195577      15.44044125       2.24800751      -1.20182693       1.87443691
Si       4.54817765       7.47575226      19.08427099       1.27686736      -0.60131802      -1.44308702
Si       7.58221418       4.19117436      11.82604022      -1.58384707       0.06763257       2.91680641
Si       5.54952204       2.73803801       8.32432467       0.32224842      -2.65060492      -1.54112340
Si       1.10296171       7.34845171      11.88258613      -0.67828183      -1.55306485      -1.93039347
Si       2.73864179       9.27678500       8.41367367       0.11719465      -0.09875212       2.95380360
Si       9.25344043       2.83594779      15.58414900      -0.55745653      -0.70057529       3.95848538
Si       7.83959921       0.96299493      19.16062792      -1.00511310      -0.20172675      -1.67788763
Si       0.47307027       2.96242192       5.59680639       3.03531876       1.74694612       1.16459728
Si       7.27102871       9.60762310      15.00617941      -1.07413590       2.32005143      -0.43335794
Si       9.60618151       7.14221849      21.67469993      -1.37544833      -0.17892395      -0.62339654
Si       2.76536219       0.48155168      12.52529844      -0.77476862      -0.62416776       2.55382222
Si       7.71267359       5.46418290      14.81864283       2.72855752      -1.46166059       1.01579761
Si       4.81225276       1.95455217       5.30888555      -1.49055771       2.33802834       2.50286718
Si       2.46057780       4.52570823      12.48092429      -5.38897741       4.51858073       2.48872029
Si       5.63664897       7.90268935      22.08320460      -0.39070739       0.99956726      -1.44588750
O        8.33705844       6.13157717      21.92194845       0.49860622      -0.06112086       0.05853103
O        3.91454470       1.41349076      11.95254770       0.37301020       0.17460117       0.06030057
O        1.59616174       4.18143232       5.52534076      -0.35655613      -1.40581365      -0.73835461
O        6.14704878       8.42385576      14.77553280      -0.19322984       0.22809002       0.50892501
O        1.18750809       3.52752614      12.56619234       1.53234979       1.90411750       2.19057145
O        6.53645446       9.13690021      22.71681148       0.57276890      -1.25410893      -0.86761865
O        9.01653787       6.42902112      14.79863711      -0.57081275       2.02527929       0.94018803
O        3.98988901       0.62442034       5.27751200      -3.56871521      -1.56806837      -0.80941786
O        3.70624114       6.07127278      19.21888580       0.88943100       1.92608796       0.12673319
O        3.80080787       7.10732404      15.61614254      -2.89697494      -0.92043892      -1.09795722
O        6.67987498       3.84834373       8.60786419       0.40612404       0.15562981      -1.40713150
O        6.45743681       3.08599106      11.62640099      -2.87539524      -1.94096718      -0.34703915
O        1.55016488       8.20460914       8.42428953      -2.25224723      -0.51232490      -0.15781170
O        2.20111302       8.48448322      11.96325571       0.57320357       2.41205075       0.61374733
O        8.55357128       2.42871474      19.02411246       1.31701339      -0.91174069       0.10361453
O        8.22258499       1.58667353      16.09774924       0.87667775       0.54603524      -1.63976115
O        2.76069119       4.80074457      16.74860661      -0.43375924       1.80225239      -2.53082905
O        5.66538706       7.48604134      17.75520915      -1.37236064      -0.08865867      -0.08554054
O        7.42296277       5.30777018      10.77258538       0.96495087       1.78525413      -0.26183670
O        4.35886974       2.90145910       9.36826974      -0.94339040       0.33906836       2.68139586
O        9.66502643       7.54169434      17.61057020       1.20728457      -0.39650824       0.55626779
O        2.40741018       0.46085458       2.85189814      -0.14257357      -0.11775446       0.91374636
O        0.75159421       2.77011800       9.91369362      -1.27208255      -0.49282470      -1.74817294
O        8.43153001       9.52527680      24.95122264       0.04819115       1.02639614       2.53659512
O        9.45522551       8.62487040      22.24606534      -1.20553110       1.86954332       1.76781579
O        1.22269287       0.74093976      12.01180092       0.91369740      -0.31513664      -0.54876298
O        1.01678236       1.45822476       5.26022778      -0.91408521       0.75642358      -0.02078798
O        8.34210345       9.14615195      16.05901963       1.84472948      -0.96558009       0.88222049
O        3.64591800       4.12377656      11.69097174       5.71615629      -2.77503845      -2.90136013
O        5.64949835       6.51318270       9.06341232       0.95928871      -0.75180596      -0.38792264
O        6.41275198       5.64608479      15.74994122      -1.41044950       2.08571076      -0.13585514
O        4.30742705       3.30916739      18.51336155      -0.23679342       0.99108771      -1.83163437
O        8.89824516       3.27064901      11.67076907       1.26076603      -0.89664555      -0.56810808
O        6.35518989       1.30295914       8.75675227      -0.05459027      -0.96901714      -1.08327228
O        1.13510356       6.53632184      15.47893465       0.86915835      -0.18096871       1.14616515
O        3.44112346       8.75526802      18.75485379       0.34628492      -0.58974030       1.51328448
O        8.31884345       4.17297988      15.76908569       0.63464650      -0.52684066      -0.02275053
O        6.27706027       1.46435362      19.05257055       2.52536583      -0.38752786      -1.42729339
O        1.99149607       5.95546873      11.62033981      -0.62090596      -0.48595452       0.23772048
O        4.10042359       8.35340702      22.19055726      -0.79675568       0.42794095      -0.27423212
O        7.50176221       4.76137290      13.40126712      -0.40977473      -0.24376889      -2.16839024
O        4.57081779       2.46183584       6.91216013       1.89535924       0.54857934       2.58395633
O        2.72829673       5.22287853      13.95531024       0.50066501      -0.69607520       0.67875480
O        5.76575631       7.52170046      20.24420159      -0.60314027       1.11875974       2.58597427
O        0.17029265       2.94439754       7.22638445       0.12096017      -0.98503412      -0.00936640
O        7.89460687       0.42069738       6.79471889      -0.09273937      -1.30647724       1.45108643
O        9.86383835       7.21262065      20.06473412      -0.29715678      -0.21679005       0.37049074
O        2.57221151       0.73445513      14.34743183       0.67017113       0.03496662      -5.65190125
80
Lattice="9.77192453 0.01751879 6.90363604 0.24348012 9.76890588 6.90363604 0.01370155 0.0133883 13.86910312" Properties=species:S:1:pos:R:3:forces:R:3 energy=-577.16075089 source_file=vasprun.xml step_index=0 time_fs=44000.0 time_ps=44.0 file_index=22 pbc="T T T"
Na       9.26432045       0.57189803      10.32089899      -0.05708590       0.15740229       0.37784734
Na       5.95331636       4.06832051      17.38094987       0.71323552       0.12078535      -0.33384962
Na       7.68831529       7.31809259      11.63360304       0.01226032       0.11402599      -0.23642386
Na       1.80104783       8.63590050      16.42893756       0.18019088       0.25714872       0.22935530
Na       8.99514988       3.33674363      21.26831267       0.11944198       0.02192171      -0.48515807
Na       6.22685029       1.49979935      14.01398749      -0.51484454       0.23979262      -0.58091696
Na       1.55046296       5.93564031       7.31923608       0.12762507      -0.21714206       0.01179036
Na       4.59860723       8.18119453      13.40597885      -0.30475653       0.59764693      -0.06291430
Al       7.37521195       5.46455736      22.79119325       0.40330760      -1.59416487       0.45994841
Al       4.76951682       2.94755694      11.57960087      -0.61771574      -0.94305738       2.22234725
Al       2.92424986       4.90659745      18.48488815      -1.98032880       0.26371307       2.44017822
Al       5.13224634       7.01728266      16.20538952       1.84984236       0.81102875      -2.18325644
Al       0.45099794       2.09175899      11.67070126       0.94703551      -0.33526157      -0.60634603
Al       7.89117902       9.68536162      22.88416470      -2.21252422       0.20646848       0.65409901
Al       9.80137845       7.74962127      15.90126812      -2.01249330      -1.20740526       1.58756205
Al       2.42111991       0.60696051       4.73653444       0.88489941       0.32671615      -0.26964388
Si       2.40897274       5.92630845      15.41500345       0.39970831       2.73243906      -1.62841024
Si       4.49021473       7.25997717      19.34200071      -0.57955806       1.75476008       1.04127121
Si       7.67194035       4.22688703      12.01978054      -2.02989594       2.92789112      -2.17377778
Si       5.86940667       2.53611325       8.65616218      -1.22577766      -2.10267816       1.29899844
Si       1.26610167       7.69403080      12.01948273      -2.98950183      -1.49140765      -0.82589805
Si       2.76208184       9.23016484       8.53621748       0.19813827       0.28542979      -0.04745778
Si       9.09194711       2.56049876      15.47391943      -0.49290577       2.29148350       1.18309738
Si       7.47711879       0.85659389      19.19118176       0.96582938       1.11744996      -0.05202672
Si       0.53674170       3.00256367       5.78897269       1.57455448      -0.22139861       1.37469701
Si       7.11430501       9.40282780      15.22782980      -0.93065853       0.77804614      -4.08258325
Si       9.31982674       7.21031630      21.44657422       1.22580826      -4.44026715       1.23907963
Si       3.04635588       0.55763396      12.61419348      -0.43022347      -1.04121770       1.68322690
Si       7.66491897       5.36104037      14.80170911       2.13582165       1.25055011       2.65623432
Si       4.80910241       2.43049437       5.72301130      -0.42552804      -2.25016009       1.05935948
Si       2.14285265       4.64841619      12.48493572       1.18219388       0.12328571       1.24658838
Si       5.56603409       7.86334899      22.13051971      -1.68990114       3.09159349       0.50254154
O        8.59173050       5.66246345      21.43571369      -1.21693404       1.81323086       1.10016932
O        4.34099572       1.49117243      12.61745266       0.95879433       0.78851859      -0.58997448
O        1.35455816       4.39532006       5.60133239       1.47260700      -0.55502738      -1.60943285
O        5.84954242       8.50600766      15.44749126      -0.90606527      -0.82037989       0.57445241
O        1.03089322       3.49831944      12.45593347      -1.17697328       1.38770729       0.90539470
O        6.27296537       9.42263688      22.17281466      -0.74060672      -1.59167433       0.35068010
O        9.07725604       6.15723481      15.42391525      -0.87312365       0.76619264      -1.28946981
O        3.88209467       1.08591489       5.64217426      -0.47752903      -0.03271348      -1.46738915
O        3.22730165       6.27678589      19.62535541       0.72504372      -1.02131978      -0.57166193
O        3.69185025       7.14023511      15.23425393      -2.32126753      -1.58089163       0.66330662
O        6.95560911       3.67045966       8.64238842       0.87102507       2.64861094      -0.49470419
O        6.25110749       3.50537253      12.35227233       0.78658204       0.11739995      -0.44460512
O        1.53639020       8.10145026       8.31063265       0.62620993       1.15145712      -0.54422091
O        2.33719639       8.81950343      12.35666540       0.69820534      -0.60551026       0.26843594
O        8.98521891       1.46827917      19.60098308      -2.35440963      -0.41872827       0.26716549
O        8.18936698       1.27910813      15.13879931       0.41065765       0.71849885      -0.96901876
O        2.42720008       5.54645681      16.95008058       1.10013988      -1.69141719       1.08492741
O        5.11419784       6.98748439      17.88064566       0.39283864      -0.88129046       1.02053705
O        7.95236844       5.17081681      10.60812965      -0.61943405      -0.64248007       1.43330696
O        5.01807278       2.34700868      10.05638406       0.77042882       0.14095482      -3.33302153
O        0.23973595       7.90962399      10.76326397       0.90612782       0.90828589      -0.96627231
O        2.58178985       0.45887192       2.97251520      -0.93510971      -0.70063306      -0.47870016
O        9.74662859       2.45098662      16.94101471      -0.34538243      -0.08807852      -0.65524486
O        7.61475979       0.18471786      17.69708516      -0.21898635      -0.62494468       1.06653287
O        8.65374130       8.30478714      22.34875343       1.14113864      -0.84736364       0.56409625
O        1.78683049       0.95205826      11.68735386       0.39922863      -0.83607368      -1.06629262
O        0.98803818       1.57881599       5.09406950       0.27649763       0.92273904       0.14753630
O        8.49418331       8.92501420      15.69727569       2.80071655      -1.18684462       0.61355536
O        3.42298378       3.92644269      11.85911487      -0.15659639       1.78792336      -0.45992390
O        6.27712472       6.81483083       9.22885573       0.70078133      -1.15650243       0.31553863
O        6.25628321       5.72690737      15.59312108      -0.00944850       0.31897043      -0.38057471
O        4.16501410       3.68484687      18.78888424       0.40957628       0.47906133      -0.87515053
O        8.83241393       3.17378711      12.10268391      -0.36527325      -1.16914491      -0.25630213
O        6.88485338       1.16781944       8.67358284      -0.92841857       2.47152499       0.57758074
O        0.95884942       6.67994254      15.31920453       0.30437295       1.34818586       0.63423682
O        3.80389053       8.74068348      19.31824086      -0.54825974       1.18860124      -0.46908705
O        7.98967133       3.89270254      15.39683631      -0.11659254      -2.43670172       0.10689150
O        6.39522471       2.17117892      19.11961930       0.03840699       0.21243076      -0.89592587
O        1.77908648       6.14992047      11.88966084       0.91653089      -0.89021322       0.13019337
O        3.94657847       8.01599862       8.89938543       1.40556144       1.23019028      -2.01619505
O        7.71325001       5.48244871      13.14799367       0.02713728       0.06652171       0.66236285
O        4.88178284       2.54300078       7.33652070       0.49115662       0.99859974       1.42726893
O        2.55794914       5.00452626      14.13128672      -0.19519582      -1.35733021      -0.93007656
O        5.62442992       7.34470196      20.57622791      -0.65495054      -0.73660545      -0.94410810
O        0.41755489       2.99045179       7.46977971       0.57010372      -0.90975963      -1.23683860
O        7.09767789       9.59606241      13.34848733       0.15154327      -1.32654617       1.03645392
O        9.83211954       7.65730799      20.05869979       0.43218304       1.34330357      -1.38689856
O        2.39543622       0.63063297      14.18340332       0.95498378      -2.31215220       1.68049413
80
Lattice="9.77192453 0.01751879 6.90363604 0.24348012 9.76890588 6.90363604 0.01370155 0.0133883 13.86910312" Properties=species:S:1:pos:R:3:forces:R:3 energy=-576.25789977 source_file=vasprun.xml step_index=500 time_fs=45000.0 time_ps=45.0 file_index=22 pbc="T T T"
Na       9.39008521       2.13878799       9.79257833      -0.15670272      -0.41825629       0.36871963
Na       5.61304094       4.04928297      16.50434310       0.14344814      -0.09392909       0.11011975
Na       4.06516641       5.85905091      10.46464442       0.63346356      -0.17534706      -0.42390680
Na       1.16927979       8.87228629      17.52105772      -0.29936341      -0.19421771      -0.19944785
Na       8.66189868       4.00142038      20.30813544      -0.37271914       0.54672957       0.26145295
Na       6.46844850       0.34278570      13.42208979      -0.11512106       0.93165922      -0.81060010
Na       1.35518828       6.06719329       6.86985034      -0.20592901       0.36253741       0.20790432
Na       3.94069149       9.20193223      14.35539437      -0.25226325       0.08218248      -0.58436433
Al       7.33899288       5.52386258      22.81424675      -0.73378136      -0.47151900       1.62812933
Al       4.88142884       2.67355962      11.51937636      -1.79327378      -0.57348818       0.47300334
Al       3.16943015       4.52697873      18.60521107      -0.10795910      -0.43744731      -0.39973922
Al       5.47025001       7.32290918      16.05291500       0.02729696       1.07534736      -0.75666468
Al       0.58951320       2.39546724      11.67656648       0.60206848       0.89040130       1.78094991
Al       8.11832528       9.53382055      23.04010368      -0.63783992      -0.36182818       1.53573416
Al       9.72196730       8.00679235      16.30914446      -0.02533447      -1.54843466      -3.31149277
Al       2.22039591       0.41512076       4.72669215       3.06941898       0.36951840      -1.51252515
Si       2.80262844       5.86309618      15.78879840       0.47011495       0.16956981      -2.37002955
Si       4.26344819       7.36455638      18.92865601       0.85616871       1.95071220      -0.59534981
Si       7.54274623       4.06828807      12.12639773       0.37202362       0.10136140      -0.76142879
Si       5.70899956       2.87177830       8.56661780       1.29771040       2.35991378       3.87630242
Si       1.47151881       7.17160093      12.05954732       0.84211849       2.80165091       1.81018865
Si       2.78753214       9.06326761       8.52013911      -1.83126518       2.81181513       2.93036242
Si       9.07306267       2.66073923      15.70929101      -0.21671558       1.22087398      -0.67000434
Si       7.64461887       1.05176859      19.11253388      -2.31143326      -3.65741457      -0.56385422
Si       0.50692088       2.82809255       5.82246814       3.21163188      -1.14187843       1.87332641
Si       7.13889510       0.14314719       8.31570239      -3.19338275      -0.83573299       0.29396345
Si       9.84465556       6.95145555      21.95457669       6.15291097       6.22228123      -0.03210390
Si       2.81722911       0.31368608      12.61778887       3.36527854      -0.59377735      -3.02716449
Si       7.87593470       5.56274984      14.86800120      -0.53813787       0.61954909       3.47983482
Si       4.77596617       2.22138520       5.73601890      -0.17210544      -1.27516332       1.15161147
Si       2.50673327       4.52994815      12.87509563       1.19573155       0.25652272      -0.00105867
Si       5.46867851       8.00505876      21.84387009      -0.10736959      -0.98923444       0.69235157
O        8.88356606       5.82480713      21.88231343      -5.72068479      -4.43128791       1.25720875
O        4.33967040       0.96460097      12.15217203      -1.23496637       0.95648494       0.12988145
O        1.47076246       4.14967948       5.42362217       0.91392516      -1.01707627      -0.04028218
O        5.96968274       8.90040962      15.27018740       1.56490241       1.02755310       0.45743816
O        1.05172017       3.84282766      12.83111997      -0.80168262      -2.49156336      -1.55159558
O        6.51741562       9.16155555      22.29936637       0.42987616      -0.14205902      -0.89748078
O        9.04084595       6.70353358      15.05546768       0.02318690      -0.62360964       0.44443916
O        3.62789977       1.14981398       5.73415215      -2.74131278      -1.59518472      -1.31616256
O        3.44238254       6.08982177      19.26840460      -1.05715922      -1.73912134       1.54849378
O        3.82879406       7.06177593      15.40288093       0.47219301       0.65456562       0.29221505
O        6.85722130       4.01739213       8.16978662      -0.78078300       0.04102434      -0.19703658
O        6.41146781       2.88630793      12.32631231       0.29247270       0.76657712      -0.61996423
O        1.49096673       8.11604203       8.46651194      -0.51881804      -0.38582788      -0.25764864
O        2.46675345       8.59491655      12.18112785      -1.44721292      -3.91228241       0.76873311
O        8.66188309       2.22045839      18.89877965       0.08274742       1.36954641       2.08024084
O        8.16255518       1.30782871      15.50275273       0.17605894       2.35386799      -0.45725684
O        3.43161223       4.88242874      16.89964719      -1.14069950      -0.17896690       0.24710535
O        5.35662717       7.36128515      17.78124261       0.29628179      -0.36370515      -0.36631479
O        7.58153270       5.09205427      10.82122928      -0.39450240      -0.76376568      -1.41116876
O        4.58293479       3.29994423       9.82158700       2.85055354      -1.21035261      -1.03763712
O        0.39440312       7.37304553      10.90479650      -0.45213654      -0.21768548       0.76569227
O        2.41540774       0.35654985       2.91583152      -0.44266115      -0.21441687      -0.02161190
O        0.29869891       2.59070163      10.06526084       0.31876186       0.66458022      -2.73329133
O        8.27507301       9.66296649      24.83233079      -0.62702586       0.66792234       0.69527998
O        9.42585811       8.47941042      22.54936362      -0.24937657      -1.98655735      -0.99993231
O        1.53803694       0.96988747      11.93167935      -0.46226367       0.33985401      -0.41999932
O        0.93715160       1.38267429       5.15674555      -1.35555621       2.08085958       0.32103945
O        8.53610218       9.24087719      16.07874352       0.96863117       0.71143945       1.25728219
O        3.83935636       3.88701865      12.22164984      -0.90306608      -0.32062440       0.49435699
O        5.90574247       6.63163780       8.75660830       1.82729767      -1.39335575      -0.50754571
O        6.42901864       6.00137199      15.54824529       0.88757580      -0.27124789      -0.50684770
O        4.67082927       3.52356024      18.69659504      -1.90151243       2.04828336       0.26638841
O        8.85992050       2.97752769      12.13200374      -3.81724820       2.22579828      -2.09520790
O        6.80007073       1.71477818       8.98429723       0.82475272      -2.78162033       0.13507476
O        1.39479536       6.73130427      16.11106574      -0.20148067      -1.52411308      -0.23737148
O        3.12017944       8.50965540      18.75077289      -1.70572607       2.37721597       0.41000892
O        8.08066839       4.18178610      15.86034671       1.71605590      -2.39051070      -1.11923142
O        6.05825714       1.58452682      18.91596573       3.80665294      -1.36154160      -0.26866733
O        2.39665341       5.85016428      11.85737079       0.05240613       0.57845384      -0.22466978
O        4.09131197       8.18509329       8.84828692      -0.13962955      -0.15469533      -0.71788038
O        7.58907311       5.15562808      13.36278313       0.36426564      -1.05315064      -1.57737527
O        4.86413408       2.35154318       7.40210460      -1.38172984      -0.15882113      -3.32202737
O        2.81746758       4.83808656      14.43225480      -0.58148045       1.02249053       1.37861328
O        5.02945281       8.01434429      20.19461582       2.49044822       0.31922983       4.15092366
O        0.30480413       2.66764744       7.46396324       0.07651019       0.92200412      -0.23071450
O        7.64192679       0.27729665       6.78400713       0.35379001       1.24723096      -1.74909108
O        0.77898856       6.84396119      13.53244154      -0.46851504       1.09528407       0.19571309
O        2.56657291       0.32523767      14.18333712       0.57233417      -0.79129421       1.15146060
80
Lattice="9.77192453 0.01751879 6.90363604 0.24348012 9.76890588 6.90363604 0.01370155 0.0133883 13.86910312" Properties=species:S:1:pos:R:3:forces:R:3 energy=-575.04931948 source_file=vasprun.xml step_index=0 time_fs=46000.0 time_ps=46.0 file_index=23 pbc="T T T"
Na       7.68317493       7.23999679      19.08975335      -0.33980512      -0.05451231      -0.29900557
Na       3.52690390       2.73418795      15.27869607       0.23350513      -0.08002933       0.31416612
Na       4.12261018       6.49936590      10.45508851      -0.44978059      -0.15190755       0.18495202
Na       4.17131339       8.70403489      13.54149910      -0.27736701       0.04872486      -0.08035678
Na       8.95478134       4.19071228      20.78236742      -0.10825960      -1.39036738      -0.73235738
Na       8.10099578       1.20812091      10.54688941       0.32477066       0.25286908       0.28440015
Na       0.72514331       7.23330673       5.60982205      -0.10196791       0.08458522       0.43726394
Na       2.26057131       3.17496397       8.66307981       0.56231937      -0.04715059      -0.10422812
Al       7.36356139       5.46255756       9.03076305       0.53461550       2.79689509       1.06527673
Al       4.74336413       2.78259930      11.37890364      -0.42893603       1.08048173      -1.17145471
Al       3.20046713       4.41290463      18.19806628       0.26596421      -0.03789926       0.57728105
Al       5.56224367       7.32973082      16.02448966       0.23101303       0.48110891      -0.38412215
Al       0.59590343       2.13720975      11.62156385      -0.43785357       0.94484725      -0.04233598
Al       8.01791385       9.47164141      22.81475490       2.45157363       1.46012989       1.32784399
Al       9.68321567       7.96779365      16.00869660      -1.01232213      -0.67476790      -1.63826127
Al       2.19041481       0.51362447       4.43047901       0.17046436       2.25037672       0.80148882
Si       2.87296437       5.71775262      15.38080345      -0.46122196      -0.04891752      -1.39002238
Si       4.54808231       7.39125673      19.16654278       0.26637418      -1.58649791      -2.08031737
Si       7.49942653       4.31018450      12.07911581       1.95158868       1.74113857      -0.78121458
Si       5.75692524       3.01671811       8.32225302      -1.43371708      -4.38655920       0.23428338
Si       1.12272523       7.45143977      11.89470012       1.93266605      -0.33090563      -2.99822918
Si       2.75130679       9.50868350      22.27772639       0.28273346      -2.45474665       2.62967003
Si       9.08239243       2.59099988      15.67365568       4.86178388       1.88450428      -0.61604125
Si       7.74473508       0.71784533      18.96903442      -0.58396753      -2.11167631       1.02440380
Si       0.48322167       2.64449787       5.79322456       1.05616156       2.04875799      -1.24373046
Si       7.01572100       0.02665382       8.03625840      -1.38609945      -4.97697289      -4.05929951
Si       0.25375103       7.08875542      14.82133136      -4.47017852       1.47434861       3.14003841
Si       3.10035943       0.43062297      12.58500932       1.08778189      -0.36366046      -1.07134995
Si       7.99584681       5.44119061      15.00357018       0.12351762       1.72088433      -0.08044182
Si       4.83626405       2.01951949       5.44640991       0.03005213       1.51597022       1.24020370
Si       2.28070583       4.66759241      12.50611173      -0.76790438      -3.01305655      -1.20717364
Si       5.66490215       7.89698338      22.13295301      -3.63846615       0.84503894      -1.28959447
O        8.77634025       6.04762826      21.73881287      -2.06733229      -0.61517497       0.85577337
O        4.40151681       1.17569895      11.84627618      -1.37076436      -1.56125513       1.34604287
O        1.85346277       3.62612609       5.19583662      -3.03857218      -1.23199486       0.92003095
O        5.88109682       8.70118792      14.81171211       1.53930629       0.99070803       2.50192197
O        0.80115774       3.79169625      12.35344187       2.66733693       1.21892188       0.70999051
O        6.38047410       9.39012789      22.27035325      -0.68440538      -2.65363225      -0.61357025
O        9.19070826       6.58078180      14.97718746       0.57230299       0.14443686       0.99439775
O        3.66192330       0.92067123       5.39745816      -0.89093442      -1.64417521       0.38941655
O        3.67984565       5.97339902      18.91869508       0.81541508       1.39766937       0.26927731
O        3.96584366       6.86179561      15.33697437       0.82804086       0.98758378      -0.35706753
O        6.92117361       4.04156905       8.26555351       1.04410152       0.69613268      -0.65386096
O        6.11969172       3.53264671      12.09221804       0.07747705      -0.73009734       0.16101456
O        1.38281842       8.46217450       8.21431551       1.37393518       2.22161021       0.63601373
O        2.14683889       8.62670510      11.50373010       0.34824401      -1.34288998       0.35558025
O        8.76728514       1.97635737      19.23648687       0.13179954      -1.30572460      -0.49163578
O        8.31843190       1.32488505      15.39840021      -2.75725258      -3.08105971      -0.17437339
O        3.16927335       4.59760848      16.41513072      -0.19228279      -1.34051026       2.75401864
O        5.50178590       7.87079090      17.74883576      -0.94396746      -1.20099218       2.33021606
O        7.63099940       5.27127038      10.72243461       0.42520295      -1.01947204       0.79074515
O        4.63879814       2.97317403       9.55007573       1.64468109       0.08744034      -0.27397684
O        9.66342862       7.44850306      17.73245871       0.17200766       0.16542113       0.56179560
O        2.44728428       0.96322543       2.73173286      -0.39639610      -2.43984659      -1.02085712
O        0.53849492       2.47203046       9.89363723      -0.82454624      -0.20629199       0.14368002
O        8.17610294       9.39478049      24.61349952      -0.04598687       1.58104194       0.53900618
O        9.37458535       8.50746917      22.20381280      -0.08423170      -0.35104800       0.11790847
O        1.66583027       0.79902184      12.00013441      -0.48810361       0.97189433      -0.07890898
O        0.64924863       1.08719281       5.23234033       0.34097738       1.34899515      -0.26117862
O        8.40611625       9.23497552      15.89503330       1.20057269      -0.39014565       1.87326077
O        3.49648355       3.89993862      11.75888524      -1.31664691       0.50931912      -0.43535063
O        5.90335407       6.61135085       9.21231659       2.24204451      -0.43038208      -0.41527070
O        6.78249280       6.04480890      15.97216279       0.09595590      -0.19962116      -1.19396845
O        4.39031859       3.19122711      18.37188615       0.67790551       0.91400182      -1.56995112
O        8.76046576       3.23933388      12.12433165       0.84287782      -1.31857690      -0.67429417
O        6.80427670       1.53893132       8.33115385      -1.58800334       3.39730738       1.53352847
O        1.38000424       6.37503227      15.63153509       2.26307474      -0.81246126       1.48904569
O        3.30016824       8.50536957      19.29051138       1.44669365       0.82976316       0.94141261
O        8.37905245       4.00584709      15.70868267      -1.36972717       1.53460864       0.17938633
O        6.30662426       1.46137835      18.99366945      -0.87088758       0.22320383      -0.63551409
O        2.15786287       6.13798057      11.86240934       0.23975870       0.39272268      -1.63884283
O        3.93001314       8.07026520       8.65469109       0.22563193       2.60410147      -0.66768533
O        7.88370618       5.33816619      13.31191879      -1.36281406      -0.62668428       1.24873421
O        4.91876681       2.86786707       6.96793668      -0.56311161      -0.97472361      -1.17055878
O        2.89568675       4.71026005      13.99894164      -0.74291667       1.35831596       1.60456843
O        5.68075930       7.15146419      20.52851459      -1.05499928       1.92509248      -0.87363125
O        0.36825113       2.85539568       7.41584222       0.54744058      -0.51855850      -0.55075102
O        7.76737851       9.45791263      13.36409021       1.07963578       1.42471779      -0.37399431
O        0.78320146       7.24142288      13.38979286      -0.50217453       1.05596553      -1.18527882
O        3.13034819       0.76769911      14.25805863      -0.15465014      -0.88070465      -1.95569604
80
Lattice="9.77192453 0.01751879 6.90363604 0.24348012 9.76890588 6.90363604 0.01370155 0.0133883 13.86910312" Properties=species:S:1:pos:R:3:forces:R:3 energy=-574.17110703 source_file=vasprun.xml step_index=500 time_fs=47000.0 time_ps=47.0 file_index=23 pbc="T T T"
Na       7.31475634       7.88653840      19.49220801       0.12735372      -0.08000279      -0.01920304
Na       3.23351718       2.35291549      15.79028812       0.27528267       0.52588706      -0.33073464
Na       5.05557501       6.66569583      12.52540004       0.03375210      -0.40487120      -0.10764541
Na       3.54564637       9.34810220      14.55077650       0.02031092      -0.07343294      -0.29213886
Na       8.42014548       4.06917399      20.39995258       0.26544318      -0.25495177      -0.55102721
Na       8.73617582       2.15328086      10.27856476      -0.58386779      -0.72758531      -1.01261756
Na       1.00785614       8.19073857      19.05793750      -0.50495116      -0.20192509      -0.15583823
Na       2.48491037       3.68735305       8.62588972       0.46459042       0.09083714       0.25716088
Al       6.98569529       5.18985622       9.02386484       1.06281306       2.33544617      -0.55111690
Al       4.71592644       2.94800043      11.28593256      -1.17127401       0.16109556      -0.73382390
Al       3.26759706       4.64397001      18.34475873      -0.89703208       1.30617591      -0.80927014
Al       5.54031873       6.94470074      15.88142148       1.68822302      -0.68697480       1.78972724
Al       0.47469099       2.45641582      11.40706662      -2.29829102       0.31045403       0.69434682
Al       8.41865883       9.54931768      22.89868122       0.54208733      -1.86422760       0.41422447
Al       0.23974608       7.75564966       8.95558197      -0.74854209      -2.11194913      -0.49713433
Al       2.03295268       0.44418274       4.49699588      -0.31827287       1.65513091       0.17491956
Si       2.93053841       5.45877707      15.23079126       1.46695172       0.83015628       2.54897107
Si       4.23693085       7.55608212      18.93798391       2.34118479      -2.96009930       1.47670076
Si       7.30643118       4.33474972      11.98125647       3.71450807       2.82544623       3.96818819
Si       5.84625759       2.39374746       8.25710784       1.11071108       2.35366224       1.69217206
Si       0.95992217       7.36603866      12.06759184       3.75504640      -0.84982150      -3.18758661
Si       2.95123040       9.21096328       8.46562668       3.04340353       1.48814187       1.68972937
Si       9.35882363       2.50064934      15.14591655       1.33132926      -2.71004972       0.90273746
Si       7.58631195       0.85353112      19.04459739       0.64687396       1.21880520      -0.81008981
Si       0.61311268       3.07424953       5.48958003      -1.34086524       1.89785660       0.30024780
Si       7.51595343       9.32845283      14.86380850       4.07989681       2.34390596       0.76408990
Si       9.80459581       6.79396983      21.95041827      -2.24118497       1.60531836       0.68326919
Si       3.01027672       0.60328016      12.43353221      -0.58575298       1.57932683      -0.74802038
Si       7.94195826       5.33058795      14.88991526      -0.33336181      -1.02745524      -0.76492003
Si       4.65223123       1.98604208       5.47454007      -1.38181145       0.42148072       2.68346408
Si       2.23253936       4.72298961      12.55265513       4.34262015      -1.99372344      -2.17981452
Si       5.59573518       7.85047431      22.06257048       0.48209333       0.67435532       1.61135975
O        8.65923507       5.64694594      21.88428684      -1.11727466       0.26573248       1.38460124
O        4.24394486       1.40243025      11.80395778      -0.46416027      -1.65699970       0.87152017
O        1.52801162       4.18196709       4.68869130       0.19945440      -0.46915028       1.21861939
O        6.30222848       8.47447521      15.16903982      -4.37430625      -3.97462692       1.09566170
O        0.91949261       3.94994196      12.26697758      -2.24663902      -0.60294262      -0.48581575
O        7.03944716       8.63944294      22.28961178      -1.62520338      -0.06417578      -1.02244231
O        9.11399591       6.42725934      14.93418380       1.43776941       0.93625252       0.70404885
O        3.48676365       0.79863524       5.59377716      -1.00240191       0.51268288      -1.65231893
O        3.40357886       6.17363270      19.24393754      -0.26276317       0.97217300      -0.63639273
O        4.09404075       6.65288439      14.88799943      -0.76255734       0.28637696      -0.01813253
O        6.81555972       3.80954557       8.04885708      -0.67899807      -3.50217023       0.14659079
O        6.15670521       3.35297530      12.02662167      -1.29876991      -2.08790019       0.94455541
O        1.77997960       8.23654449       8.14722728      -1.54417783      -1.68568346      -0.73776814
O        1.63592385       8.83010729      12.12768025      -0.33521392      -0.59335643       0.24312441
O        8.62761056       2.14636979      19.17198569      -0.35234369      -0.31652851       0.67618078
O        8.79315796       0.99802669      14.88941855      -0.13317621       0.40314237      -0.17722911
O        3.73213853       4.65756340      16.56077161      -2.80940075       0.98138709      -1.24424003
O        5.37379296       7.14056683      17.77868484      -1.00220290       1.75322913      -0.54013774
O        7.26893457       5.30710584      10.76292223      -0.09786224       0.91786917      -2.75166962
O        4.92261785       2.78209106       9.56027718       0.30124618      -0.54203269      -0.62774187
O        0.50512189       6.91679987      10.52843605      -0.49956684       1.50688348       1.37819087
O        2.17788117       0.48937043       2.72928696       0.63615830       0.21525466       0.00124255
O        0.19154897       2.56404320       9.71423597       1.86878773      -0.09971617       1.43426808
O        8.09279729       0.20524115      17.69362623      -0.00833284      -1.02857454      -1.22856812
O        9.55097632       8.07194066      22.99061972       0.19066430      -0.15621168      -1.55301555
O        1.59533372       1.32248478      11.95219725       1.92199883      -2.37686815       1.01801015
O        0.67596888       1.74375567       4.59328994       1.93812457      -1.99163870       0.76944616
O        8.90976528       9.11736593      15.75573140      -0.85749404      -0.01160611      -0.42579706
O        3.56029784       4.18447633      11.63617685      -1.69603070       0.66569430      -0.01514871
O        5.67353473       6.28487158       8.59873654       0.44593098      -0.33252798       0.54709084
O        6.71762012       5.58592638      15.91793442      -0.50638198       1.01412202      -0.18912610
O        4.37049016       3.49997778      18.90264691       0.17912508      -1.16781909      -1.30530821
O        8.69664408       3.42778626      12.04454975       1.70926916       0.25617261       0.80586283
O        6.88556565       1.07803257       8.43758423      -1.41535509       2.92889742       0.33766132
O        1.43269105       6.21004281      15.54414697       3.91251450      -1.92732572       0.01744654
O        3.20096060       8.81488221      18.72528531       0.22063457      -0.19246814       0.03519102
O        8.44057587       3.70462989      15.06571663      -4.11167112       4.90399380      -0.70875611
O        5.98357658       1.27574166      18.88126210       1.71063976      -0.18211491      -0.58540260
O        2.28449579       6.28348929      12.34289403      -0.71430602       2.50395791      -0.12992956
O        4.42185787       8.58122502       9.31078745      -1.22742652       0.04616493      -3.91025251
O        7.31886078       5.49170124      13.33012874      -0.30127899      -1.77027838      -1.29851209
O        4.74857048       2.43934981       7.09237030       0.14089268      -1.72651687       0.03327089
O        2.85910292       4.36021825      14.02491842      -0.46729785       0.01981597       1.91263436
O        5.25322436       7.78287733      20.42696270      -1.38712719       0.92960561      -1.78233750
O        0.83794582       2.97977741       7.27121939       0.78845544      -0.54360621      -4.05127965
O        7.79343524       9.48316137      13.28005885       0.71015561      -0.10071180      -0.97969121
O        9.93782041       7.13764687      20.28424744      -2.66705794       0.20077440       2.08776661
O        3.19782108       0.43883689      14.07518997      -0.75540002      -0.76338719       1.49464202
80
Lattice="9.77192453 0.01751879 6.90363604 0.24348012 9.76890588 6.90363604 0.01370155 0.0133883 13.86910312" Properties=species:S:1:pos:R:3:forces:R:3 energy=-576.48753772 source_file=vasprun.xml step_index=0 time_fs=48000.0 time_ps=48.0 file_index=24 pbc="T T T"
Na       6.07610994       1.46544799      13.87752003       0.26258915       0.18876555      -0.17518230
Na       3.08386539       2.51041854      15.96115257       0.13520419       0.58966052      -0.36051317
Na       3.83919861       6.33410549      10.50635841       0.27757604      -0.23657655      -0.41528539
Na       4.61634098       8.61259156      13.22483549       0.43273958       0.01881906       0.41184087
Na       8.11159927       3.96055584      19.73823576       0.18061241       0.16027438       0.27559494
Na       8.35593667       1.65582310       9.70557768       0.60113184       0.52336755       0.84747424
Na       0.87834354       7.23837081       6.13769732       0.09651702      -0.45831098      -0.11688333
Na       2.71202500       0.98924391       9.32647717      -0.13425786       0.14950263      -0.03610775
Al       7.39559448       5.51332734      22.76173788       1.79356163      -0.42110471       2.31313285
Al       4.86561045       3.02371366      11.49242935      -1.10302468       1.04671495       1.81189129
Al       2.91449889       4.69741305      18.45508093       0.48587889       1.85988705      -3.12557319
Al       5.76988240       6.96226499      15.90815760      -1.09166905      -1.29585095      -1.54896713
Al       0.57018710       2.20751557      11.44149185       0.41245145       0.88016778      -1.42922392
Al       7.99508501       9.44471569      22.62832653      -1.07934034       0.26828824       2.07462163
Al       9.87345507       8.00195596      16.13956430      -1.13480194      -1.43422452      -1.13494845
Al       2.47025511       0.45993087       4.47034167      -0.44206436       0.02298945       1.72330317
Si       2.71014963       5.75175027      15.46634036       0.41980413      -1.35341274      -0.34083578
Si       4.53217577       7.32685113      18.79411663      -2.63878306      -0.29121321      -1.65770947
Si       7.65816549       4.24840126      12.15503269      -0.80805550       0.01372038       1.64578875
Si       5.83846873       2.66460655       8.50056820      -0.05649596       0.37128878      -1.28563997
Si       1.44638289       7.59065724      12.16502126      -3.24782073       2.91049693       0.12065224
Si       2.83427608       9.12633082       8.42397751      -1.46838010       1.70085142      -0.78723506
Si       9.38331692       2.34964461      15.32725154      -0.80334373       0.27450646      -1.70318137
Si       7.56966948       0.92187557      18.96391557      -2.86625910      -1.42893116       2.83503064
Si       0.61996348       2.83436797       5.58912454      -1.62577711       2.30891120      -1.43107967
Si       7.44237183       9.43957906      14.94090701      -3.00555157       0.80306183      -3.38403021
Si       9.76956029       6.92505200      21.73465085      -0.01072143      -0.55236469       3.43146319
Si       3.08154947       0.53761593      12.34155257       3.55323444      -4.11497862       2.88804377
Si       8.32321230       5.24824351      15.08092833      -2.54367925      -0.49136387      -1.25371979
Si       4.75238244       2.45042749       5.64032247      -0.45370610      -3.58219516      -2.16266337
Si       2.26764468       4.61999952      12.52722573       0.06759190       1.00395859      -1.53015005
Si       5.43515323       7.76245401      21.76906509      -0.28435487       3.43131049       0.20581588
O        8.86050543       5.56715273      21.66322585      -0.70093839       0.09349226       0.31129981
O        4.20635796       1.65706656      12.34607978       1.08438343      -0.03524260       0.22427088
O        1.50797489       4.21145572       5.30934992      -3.48503699      -1.83204898       0.95503209
O        6.15977337       8.39489510      14.92082996       0.52995903       0.54135071       1.15590218
O        0.96072311       3.81713708      12.03904287      -0.70892146      -0.82239506       0.30854461
O        6.35354251       9.16457960      21.81613201       0.10738644      -0.73509802       0.69641449
O        9.41135486       6.32314201      15.57821762       0.85125305       1.07833787      -0.01378192
O        3.81743821       0.93288122       5.49416403       2.12530556       2.84052570      -0.20354053
O        3.11321213       6.36766309      18.96103771       1.91194046       0.69093700      -0.41376504
O        4.09799291       6.51125826      15.32714999       0.74592625       1.08646018      -0.64277124
O        7.01749978       3.86275630       8.45563935      -2.15786996      -2.31122243      -0.11207096
O        6.09293233       3.70653634      12.49644283       1.65061355      -0.48000081      -0.21480605
O        1.35154030       8.50508343       8.14554253       0.59253889      -0.17839375      -0.42722429
O        2.59041962       8.71725573      12.39019272      -0.06913013      -0.28584092      -0.54466870
O        8.90013030       1.69708369      19.03447249       1.56722840       2.25892575       1.31950805
O        8.36725113       1.11459247      14.90380429       0.26613331      -0.17285550       0.58421500
O        2.71677797       4.55933373      16.52553240       0.20793335      -0.22213911       2.92241191
O        5.55587650       7.01026477      17.57297814      -0.56466362       0.44387970       3.04411875
O        7.65922539       5.25588886      10.96197054      -0.40049633       1.14170069      -4.91339628
O        5.10096057       2.36142992       9.95371610       0.50226515       0.45636663      -2.94862467
O        0.71066218       8.07793007      10.77295669       0.62975436      -0.25737207       2.48913918
O        2.51129061       0.53548529       2.71502638       0.58892773      -1.76034737      -0.41467324
O        0.59769916       2.10579876       9.64240071       0.74068743      -0.56867395       1.48314475
O        7.40750534       0.19701618      17.64402100      -0.06477108      -2.92759002      -5.56805099
O        8.87720950       7.94827719      22.63363318      -0.23898783       0.55686455       0.08631339
O        1.77115407       1.04203874      11.75112094      -1.58205799      -0.19377208      -1.20074926
O        1.21276966       1.59464031       4.85367806      -0.02011299      -1.22985209      -1.24501489
O        8.56124787       9.22629639      16.03150597       0.82433070      -0.47784753       0.36392356
O        3.55171252       4.20914421      11.60187685       0.04841937       0.12051543       0.10179746
O        6.03528858       6.54479995      22.50056261       1.12828603      -2.13133897       1.76191840
O        6.83955903       5.64799298      15.61876108       0.72030035       0.04623869      -0.13226851
O        4.23098669       3.65660109      18.59115359       1.18807114      -1.17518177       0.28958192
O        8.58999559       2.84445774      12.02723886       2.18512180       0.85489102       0.05684705
O        6.67986309       1.29430160       8.15849599       0.19683332      -0.50372723       0.89351162
O        1.43417551       6.70558074      15.69398427      -1.38411180       0.82893838      -0.72196135
O        3.87159503       8.81110814      18.49524749      -1.13417431       3.19957839       0.47072614
O        8.43050176       3.63877913      15.58336963       0.17367464       1.49829854      -0.10219011
O        6.29689945       2.04166416      18.99074033       0.19759920       0.41251527       1.28292356
O        2.06558817       6.18985076      11.90096948       1.17069959      -2.52773823       0.16095679
O        3.92189490       7.95365829       8.71407857       0.97899007      -0.16208652       0.11266870
O        8.17033290       5.29948607      13.34572786       1.05245086      -0.92868676       2.14136331
O        4.70029423       2.85267367       7.18015220       1.41851949       0.28443054       3.91598056
O        2.35736122       4.77708998      14.12213380       0.37338338      -0.12203320      -0.49414641
O        5.13126893       7.41012141      20.26530216       0.74647614      -0.47500003      -0.43718825
O        0.60539490       2.73653338       7.15657723      -0.31825484      -0.85247102       2.43543855
O        7.78456596       9.49483648      13.31466665       0.55676854       1.10575686      -0.93242811
O        0.31737550       7.54795170      13.44799118       1.80852513       0.90126315      -3.92678988
O        2.99972662       0.20485611      14.02430793       0.03611239       0.06493789      -0.60186921
80
Lattice="9.77192453 0.01751879 6.90363604 0.24348012 9.76890588 6.90363604 0.01370155 0.0133883 13.86910312" Properties=species:S:1:pos:R:3:forces:R:3 energy=-574.13959558 source_file=vasprun.xml step_index=500 time_fs=49000.0 time_ps=49.0 file_index=24 pbc="T T T"
Na       7.67759148       0.95669122      12.64321302      -0.11507154       0.36771109       0.16101806
Na       3.90951274       2.48827307      15.48961020      -0.46895274       0.59389283      -0.16183951
Na       1.56448926       5.84759229       7.20035716       0.18865160       0.28157775       0.06979977
Na       3.93156509       8.00532445      13.41377156      -0.05796247      -0.52406777      -0.33729196
Na       9.11978257       3.38712640      21.57224711       0.35962192      -0.16736928      -0.46882159
Na       7.36228619       6.40612652      18.38559249       0.41921014       0.02853615       0.10542652
Na       0.84629805       8.29712557      17.76574832       0.13090112       0.04918550       0.12916133
Na       2.94763300       1.70905175       8.13828964      -0.18688909       0.58906682       0.19458631
Al       7.40572289       5.35371482       9.18232078       0.94175548       0.67043647       1.91119668
Al       4.93074332       3.03042555      11.34824448      -0.80123234       2.79850237       5.99684031
Al       3.04049488       4.67930980      18.43228559      -0.84219646       0.10112255       1.46092375
Al       5.51991522       7.22871487      15.99271951       0.62386709      -2.26410237       0.09580399
Al       0.54042269       2.36180453      11.48097549       2.18791934       1.24238797       3.99139623
Al       8.28356064       9.57854286      22.63889849      -0.69918185      -0.22940587       1.31776680
Al       9.86078361       7.97247341      16.14474685      -0.02481761       0.99448496      -0.58376830
Al       2.49815688       0.80924316       4.63811761      -3.71177886      -1.52837147      -0.30580890
Si       2.78143800       5.59786384      15.57048280       0.40792202      -5.15289392      -1.94015453
Si       4.10640570       7.59429110      19.01344608      -1.17944839      -2.10950788      -3.52562827
Si       7.78805126       4.50859069      12.29545114      -5.30983490       0.04411210      -2.02338832
Si       5.90514459       2.59630830       8.59932269      -3.20999772      -1.01386435       0.31746553
Si       1.02650321       7.58531721      12.05332080      -0.06854950      -2.42077415       2.61180309
Si       2.98871680       9.45554660      22.30926901      -1.28268895      -0.81831592       0.82303518
Si       9.24942949       2.49406262      15.47205324       3.33914272       3.73806983       0.18476851
Si       7.62308923       0.95212269      19.02961855       2.03272001       2.47398002       0.83638459
Si       0.52396164       3.10840355       5.92146388       5.85543686      -3.28882950      -1.50981293
Si       7.28776926       9.48274562      14.82154823       0.52566395       0.01419681      -0.36911249
Si       9.78745055       6.96851034      21.80541127       1.13451026      -0.04169590      -1.69596132
Si       3.19539427       0.70038456      12.43511195      -1.55566903       1.52155514       0.83599963
Si       8.21803794       5.37348719      15.20919019      -1.16654056       1.63595980       0.54719782
Si       4.99649798       2.40257338       5.64135036      -3.32750919       2.26100245       0.22639305
Si       2.37959934       4.70403147      12.56284275      -1.54466864       1.83189913       2.64879580
Si       5.72396973       7.81214728      21.66645274      -1.15782476      -0.16440018       2.11644231
O        8.92432855       5.68284925      22.16873761      -0.84854901      -1.07326311      -0.01711597
O        4.47468666       1.56665707      12.15662527       1.80564803      -1.60496639       0.91432231
O        1.43694900       4.32281123       5.43085336       0.97821146       0.79579638      -0.06423698
O        5.97280443       8.52600890      14.87271678      -0.80649733      -0.36444184       0.46662207
O        1.12224095       4.08486642      11.82232783      -1.69550601      -1.57291871       0.47053545
O        6.92201569       8.98080745      21.57722313      -0.82824323      -0.14880307       0.44882810
O        9.54284629       6.40830501      15.50184557      -1.09042659      -3.27877221      -2.27609658
O        3.74765864       1.35944501       5.65497704       0.42437602      -1.72737699      -0.11135234
O        3.07794467       6.35879637      19.01778047      -0.82362738      -0.66370808       0.66797022
O        4.26968084       6.15069876      15.27122828       0.00972983       1.56374821       0.00037981
O        6.93509384       3.75746906       8.71737699       1.61441240       0.94875450      -0.10973483
O        6.33259048       3.61256584      12.22548828       1.96052453       0.06504569      -0.73561499
O        1.65023527       8.49435269       8.38397449      -1.69167687      -0.32057964       0.52283292
O        1.96213614       8.85087784      12.02587733       1.57008977       2.37158089       0.12011506
O        8.94076126       1.93405323      19.40652213      -0.37732291      -0.27315061       0.35890262
O        8.59850125       1.24980613      14.86705410      -1.95288414      -3.88264756      -0.82157466
O        2.67957231       4.45215408      16.79484352       0.23912372       1.54845605      -1.79972173
O        4.78850238       7.50356544      17.56352049       2.12086898       0.40006923      -1.37061773
O        7.76699337       5.48729962      10.96037566       0.92073843      -1.17215772       0.02498940
O        4.71574075       2.64055056       9.81161113       1.46960482      -1.01850445      -6.15453714
O        9.71067725       7.33375522      17.83929331       0.10103922       1.44185300      -2.72526656
O        2.70387412       0.52102204       2.94029748       0.91142498       1.08625341      -0.83586643
O        0.28951841       2.49170928       9.90805180      -0.81661942      -1.06454530      -2.96467539
O        7.97084996       0.29605364      17.65483429      -0.11312088      -1.86493906      -4.20332740
O        9.48055122       8.29739259      22.64832644      -0.46739893       1.15847522       0.90411122
O        2.04452482       1.39449408      11.59126612      -2.13113796       0.10810745      -0.18633284
O        0.99912999       1.70644471       5.04840137      -0.23809227       1.51633844       1.06589647
O        8.54544988       9.16641770      15.73093853       1.56536454      -1.79085556       0.93464492
O        3.73324488       4.22719950      12.03034174       2.80552411      -0.82114811      -1.91031221
O        6.31288567       6.58021114      22.64544918      -2.01279784       2.30851566      -2.19502366
O        7.04370261       6.12655713      16.14267091      -0.57582675       0.06638931      -0.23231144
O        4.47897186       3.70847367      18.67487489      -0.10772640       0.23414063       0.36781120
O        8.78534967       3.30557581      12.68959913      -2.73045868      -0.24240294      -1.46055156
O        6.69601384       1.19079196       8.48463944      -0.65997642       1.05071152       0.25913853
O        1.55092116       6.58989076      15.50919754      -1.17682691       2.11947344       0.01836497
O        3.23935815       8.91196697      18.92230534      -0.49194456       0.71959634       0.60560530
O        8.21274653       3.70587769      15.47801502      -0.85502699       2.80912189       0.37522063
O        6.40762919       2.11072586      18.90460447       2.23397740      -2.17974524      -0.46031929
O        2.09699845       6.40833387      12.56613021       0.85287390      -0.68334911      -0.78636216
O        4.16213628       8.33418066      22.44374305       3.96275450      -0.86210185      -1.80945818
O        7.71875922       5.40416253      13.61727514       0.94966590       1.53532622       1.57026510
O        4.94564611       2.71002957       7.23887340       0.93409925       0.39714561       1.32443963
O        2.46635201       4.43014435      14.29238267      -0.15624109       0.93397912      -0.31972272
O        5.20407086       7.35520836      20.08128882       3.54547753       0.52384983       4.38481671
O        0.76840017       2.95681796       7.53842446       0.00870143      -0.61941494       0.33585298
O        7.73327003       9.59414841      13.23358556      -0.88713170      -0.07052493       0.16310129
O        9.59364181       7.32432557      20.14676422       0.68304705       0.38815431       2.78212584
O        2.89489038       0.71636884      14.09999666       0.41709836      -0.28906509       0.80555186
80
Lattice="9.77192453 0.01751879 6.90363604 0.24348012 9.76890588 6.90363604 0.01370155 0.0133883 13.86910312" Properties=species:S:1:pos:R:3:forces:R:3 energy=-576.02379793 source_file=vasprun.xml step_index=0 time_fs=50000.0 time_ps=50.0 file_index=25 pbc="T T T"
Na       1.85937480       2.58173409      15.75936841       0.54893126       0.18370372       0.00684360
Na       6.91172132       4.65987781      17.75559118      -0.16615798      -0.02263202      -0.02174887
Na       9.87695779       5.79838953      11.48624228      -0.14507623       0.69186221      -0.37760348
Na       3.97894381       7.98873924      13.29274239       0.23556587       0.24395166      -0.11628354
Na       8.53587162       2.88602676      21.25291205      -0.01495418       0.18660135       0.01739267
Na       6.93361778       0.88566831      12.80561765      -0.27998222      -0.06953991       0.45380944
Na       2.04802435       9.48897338      16.68266034      -0.29997002      -0.15251268       0.23757605
Na       1.90043463       5.61726014       8.94335835       0.43889253      -0.12147177       0.01067893
Al       7.34467316       5.24320100       9.17987779      -0.95633009       0.75294210      -1.17616851
Al       4.60714493       2.78719270      11.31512837      -1.29304717      -1.22078149       0.47700722
Al       3.04298981       4.40462788      18.58992774      -0.63664393      -1.66236850      -2.97509560
Al       5.69392933       7.09639667      16.31153770       0.02645101      -2.46553461      -0.70437053
Al       0.36441370       1.90553534      11.82189983       1.71466074      -0.68016039       1.03522501
Al       8.12233517       9.42415478      22.89040876      -2.78494052       0.97843040       1.93421027
Al       9.88801473       7.94245242      15.84812555      -1.58905192       1.91490714       1.41521614
Al       2.13429679       0.45339302       4.67350652       1.15167664      -1.25997834      -0.35792382
Si       2.74482339       5.67385191      15.43344147       0.86990016      -1.10453638       2.42356468
Si       4.45090796       7.14632903      19.17261534      -1.18594592      -0.22688983      -2.59793886
Si       7.41629073       4.14174179      12.12730815       0.30803358      -0.02221104      -0.30145724
Si       5.60913454       2.51022277       8.43850111       0.67260017       2.00567198       0.48375485
Si       0.79697430       7.47291572      11.98734247      -1.14927439      -1.41265227      -0.46012464
Si       3.08010581       9.13643507       8.66462996      -1.21880737       2.11864805       1.00837845
Si       9.29460609       2.37166636      15.70529040       1.29325622       2.05946951      -1.70693396
Si       7.45908814       0.42607106      19.15035144       1.28756922      -1.19984871       1.43577895
Si       0.40771943       2.89187262       5.77189511      -0.43188221      -2.65548056       0.55222275
Si       7.25250239       9.45730032      15.10364329       1.11573757       1.42691575      -1.32752297
Si       9.68462784       7.05285468      21.77265562       1.48001472      -0.90206305       2.88921554
Si       3.20111246       0.14749589      12.60044481       1.75471440      -0.54071870       0.79298229
Si       8.32326504       5.39016873      15.06073244      -1.55645235      -0.33427211       0.33636747
Si       4.71922449       2.02853352       5.65018933       1.17672922      -3.56141780      -3.97384520
Si       2.02579896       4.44577787      12.44528414      -2.62198635       1.16715534       4.54410586
Si       5.50998134       7.77915206      22.14738362       2.72179794       2.58163289      -1.50588477
O        8.76536091       5.78537162      22.16320617       0.96196795      -0.39901054      -0.32938072
O        4.51206407       1.01112212      12.12468406      -0.28094262       1.77627321      -1.20218095
O        1.33655751       4.19570577       5.39370414       0.15134655      -1.54738841       0.13809605
O        6.18233424       8.54214538      15.75325191      -1.06376039       1.98802203      -0.28981462
O        0.75106958       3.38341729      12.76509531       1.15846231       0.68811955      -0.70068001
O        6.56336825       9.19172123      22.01252169      -0.57334153      -2.21951122       0.91580142
O        9.66120725       6.35363546      15.19568557      -0.98723682      -1.85849226      -1.38038936
O        3.65224023       0.79735813       5.51625106      -0.63356494      -0.10610805       0.56442034
O        3.43153282       5.84062514      19.27882164       1.83518316       2.67491208       0.83043243
O        4.21707034       6.45057296      15.65614126      -1.82453718      -0.28520869      -1.25590489
O        6.70334867       3.78365137       8.47377198      -0.59359553      -0.90621940      -0.14271705
O        6.02283741       3.36598781      12.21565802      -0.86759968      -0.29020178      -0.83583699
O        1.76399221       8.18984186       8.49250516       0.40841849       0.34079654      -0.02162248
O        2.07001322       8.44458386      11.95321038       0.88469705       1.14346039       0.49035084
O        8.56555152       1.65187195      19.43787412       0.38173931      -0.80214175       0.07523666
O        8.27926160       1.22762165      15.30614755      -0.64013081       0.07528592       0.26529873
O        2.43060629       4.64726507      16.77314494       0.79845673       0.39878896      -0.06444696
O        5.64253722       7.06894679      17.97414993      -1.74027767      -0.67355346       3.88166378
O        7.71210947       5.06256074      10.82939008       0.14368798       0.14726172       1.10460268
O        4.43668632       2.53854681       9.52255504       0.41369711       0.32089860       2.51385570
O        9.55584904       7.71538807      17.65099264       0.85862956       0.13399508      -0.81918181
O        2.52968650       0.64586319       2.94893262       0.05648089      -1.84805915      -2.39580635
O        0.49285922       1.96676284      10.05881842      -0.34433426       0.05650765       0.15208176
O        8.26638947       9.25303999      24.89879875      -0.26440156       0.13412447      -2.67006682
O        9.36484358       8.42480987      22.50039718       1.45874667      -0.70411515       0.90460120
O        1.78130498       0.74131270      12.32986100      -3.06337633       1.97379273      -1.27407137
O        0.79762409       1.40058234       5.10619646      -0.44557211       2.24601902       0.58747983
O        8.81865706       9.30348615      15.33956555       1.77715979      -1.07392014       1.59183425
O        3.21267955       3.93976370      11.62421086       2.62393144      -1.62494213      -1.96699609
O        6.23889119       6.53783598       8.92599684      -0.32740189      -0.35412712       0.37716905
O        7.14753107       6.15170684      15.94606839       0.85181760      -1.87324254      -1.08496476
O        4.47947491       3.24079115      18.48447902      -1.61509252       1.76752813      -0.33239371
O        8.58391572       3.00588739      12.07353848       1.96143235      -0.78234353       0.79705313
O        6.62497423       1.27521626       8.51558185       0.47662486      -0.81003117      -0.08815429
O        1.53703130       6.78617309      15.45108631      -0.77391781       0.33719937      -0.84636149
O        3.33970902       8.40112189      18.81000326       1.19851241      -0.32511328      -0.22019375
O        8.60401864       3.92418682      15.90082185      -0.13100437       0.03103810      -0.07465192
O        6.17338492       1.27006163      18.91856792      -4.02768990       3.07234084      -0.01261499
O        1.36645457       5.87390518      11.93726057       0.67290768      -0.20977891      -0.28948368
O        4.21457683       8.13564918       9.20714389       0.48224758      -0.71172774       0.66079782
O        7.76797822       4.97865647      13.45619706       1.15011156       1.81755838       3.08057186
O        4.70624289       2.61587320       7.09183134       0.67330255       0.53581034       1.51148978
O        2.71631469       4.70667090      14.11534408      -0.87133258       0.01644406      -1.78160102
O        5.11179795       7.48922640      20.54912565       0.96868900      -0.20039936       2.22626822
O        0.51813785       2.66618831       7.45240223      -0.58483489       0.30840315      -0.46714547
O        7.21930685       9.23661756      13.50134885      -0.09312028       0.23042140      -1.92522707
O        9.69286813       7.51864707      20.29463046       0.50572441       0.20075885      -3.71960430
O        3.76617615       9.71027213      21.12031624      -1.55395624       0.48836189       1.09674904
80
Lattice="9.77192453 0.01751879 6.90363604 0.24348012 9.76890588 6.90363604 0.01370155 0.0133883 13.86910312" Properties=species:S:1:pos:R:3:forces:R:3 energy=-576.88390806 source_file=vasprun.xml step_index=500 time_fs=51000.0 time_ps=51.0 file_index=25 pbc="T T T"
Na       2.87462309       2.54727605      16.05829680      -0.54600769      -0.45418675      -0.01837211
Na       6.07847420       3.60640262      17.29507680       0.34133760       0.09695248      -0.12333113
Na       1.65547063       6.04821358       7.27764534       0.05203433      -0.21468129      -0.11449240
Na       4.29002224       9.74564910      14.61708935      -0.33081923      -0.35133129      -0.16744470
Na       9.12611828       3.97930401      20.49380794      -0.63911711      -0.26974245       0.38107950
Na       6.95339666       0.61887584      12.96297855      -0.04192637       0.23407754       0.05320632
Na       1.26389793       8.40325948      17.41627384      -0.37308266       0.14331427      -0.06874981
Na       4.70479719       5.91094470      11.83388937       0.46329119       0.75757288      -0.11382854
Al       7.25878316       5.14057001       9.15357012      -0.62804385      -0.99616343      -0.27547146
Al       4.65042062       2.81663483      11.41548459       0.04821932       0.45816421       0.18236425
Al       3.16127720       4.53108414      18.65095920      -2.51558236      -1.63686921      -0.10676302
Al       5.49763162       6.83565579      15.93341873      -0.48865724       1.05391339      -0.91116959
Al       0.44392977       2.28094487      11.37361097      -0.95020150       1.81569140      -0.32623090
Al       8.01348766       9.32715422      23.08890398       1.39885508       0.56417625      -0.42441185
Al       9.50116987       7.65762412      16.01786385       1.78753497      -0.35313692       0.88616031
Al       2.10722676       0.41984034       4.46500296       0.08486873       2.67561845      -0.89427341
Si       2.75774087       5.62358009      15.53490457       0.49966492       0.36516128      -1.12211076
Si       4.43020691       7.30233665      18.98324469       0.17255814       1.04049367      -2.14214205
Si       7.31209694       4.24805805      11.98846760       1.46858946      -1.90958498       0.66076749
Si       5.79995069       2.41672908       8.67167788       0.53684776       2.29541361      -2.47952795
Si       0.84847077       7.47868584      12.14332384      -0.40468731      -0.09729301      -2.01985004
Si       2.79850222       9.09674575       8.40191426      -1.94116409       0.97717056      -0.63755442
Si       9.16724376       2.18530742      15.28633828      -2.69687950      -0.71275722      -3.11515078
Si       7.67183262       0.79955765      19.01731053      -0.39887474      -0.03430646      -0.06505935
Si       0.38828981       2.89557298       5.35104627       1.43212960      -0.63318861       0.62953899
Si       7.22890003       9.44008789      15.05176403       0.89703791       0.51743554      -1.39336226
Si       9.65571746       6.81641199      22.00415337       2.69731638      -3.41105695      -0.49520566
Si       2.84027196       0.28035211      12.27684176      -1.95302746       4.67589042       2.51791726
Si       7.73991071       5.02018100      14.95553508       1.26454703       0.07428138      -2.55652710
Si       4.80105439       1.80960884       5.57073164       0.02059391       1.97904929      -1.36130392
Si       2.14793547       4.78363524      12.58156891       0.75332959      -1.80005287      -1.44959385
Si       5.56550329       7.63323053      21.87981970       0.63025798       1.55819950      -1.10007666
O        8.92505108       5.31421148      22.30612102       0.18063350       2.40926677       0.08427601
O        4.09744244       1.25278754      11.92750621      -0.15476084      -0.71690722       0.06512867
O        1.66285487       3.88282975       5.70940477       0.61032637       1.39956917      -0.80405427
O        6.08198416       8.31625334      15.14642153      -0.34854758      -0.16858734       0.04223999
O        0.89795547       3.98428801      11.90536241      -0.31111205      -0.95749979       0.46844621
O        6.48620725       8.85850041      22.54918817      -1.79419443      -1.76971065      -1.34450295
O        8.91561115       6.11556473      15.26421458       0.97059685      -0.00359855      -0.80805233
O        3.67939953       0.69734740       5.35896019      -1.49370126      -0.66818986       0.48942225
O        3.46476621       6.06434572      19.25705582      -0.47220337       0.60932937       1.79456270
O        3.92632860       6.69265893      15.14141918       0.93144577      -1.27027510      -0.24520752
O        6.96579234       3.52735358       8.40745026       0.09811622       0.31633641       0.68776275
O        6.42425483       2.90883349      11.89292987      -2.09258472      -0.99272181       0.06019063
O        1.42527206       8.26036752       8.50975867      -1.34659177      -1.93673784      -0.25303475
O        1.42545267       9.04208385      12.13105943      -1.10485188      -3.41603007       1.48266607
O        8.70378451       2.02382212      19.16730631       0.02973416       1.31414982       0.67041828
O        8.13937852       0.87633238      15.02519612       0.47355812       0.16834033       1.24335697
O        3.01540743       4.69105934      16.86193345      -0.22216567       0.05268908      -1.12667361
O        5.15985679       7.06382306      17.56651195      -0.05213714       0.29578340       1.52217637
O        6.88569996       5.34207247      10.94907774      -0.08112840       1.22183535      -3.03787278
O        4.67934609       3.02503330       9.65239399      -0.35066109      -0.84961069       0.57495892
O        9.57277716       7.29899384      17.76262104       1.39439345       0.14334616       0.72568867
O        2.70592257       0.19647013       2.85056448       0.32381542       0.94329598      -0.57708283
O        0.31328554       2.09674968       9.64313674       0.47148210       0.65765073       0.49603441
O        8.54569127       9.71789454      24.70546668      -0.70669939      -0.61512882       0.14307694
O        9.16173539       7.97778550      22.89364275      -0.83270285       1.52710152       0.70303918
O        1.35226217       0.97307047      11.78896460       4.08110100      -3.41059256       0.70883253
O        0.84105765       1.91468302       4.08557256       1.41922061      -1.09264453       1.94350745
O        8.64035463       9.07524302      15.69791467      -0.83608988       0.26825214      -0.46624091
O        3.54887390       4.07948592      12.13596244       1.23114429      -0.65905516      -0.79278475
O        5.96796246       6.14949027       8.49405501      -0.06288325       0.79817653      -0.30727420
O        6.49875374       5.45988322      15.75413419      -2.49620849       0.05457794       2.53512116
O        4.29936796       3.28443699      18.76685588       1.74327250      -1.71572244      -0.41697906
O        8.85004643       3.71610898      11.70323999      -0.07047751       0.47566607       0.68249234
O        6.48413459       0.99795946       9.01951817      -0.52201207      -0.89210175      -0.24121620
O        1.60291201       6.71424944      15.60067179      -4.46110152       1.25599071       0.61123979
O        3.27626980       8.57395765      18.71095737       0.66568802      -2.90693224      -0.95027942
O        7.99606136       3.44487818      15.26126115       1.56277846      -0.69929236       1.02822372
O        6.17161403       1.34421862      18.62713310      -1.01958046       1.76831334      -1.44297818
O        2.19562646       6.30229233      12.00879132      -1.43740210       2.43133887       0.38191752
O        4.04649611       8.13496289      22.18140600       1.53369140      -2.40918267      -0.06258964
O        7.04422029       4.95107328      13.40160294       1.22066257       0.97944709       1.74372070
O        5.10709324       2.23041646       7.08112774       0.11586211      -0.81106324       2.49446822
O        2.23124465       4.70325221      14.19733052       0.05980505      -0.34051286       2.13211525
O        5.57182698       7.69037729      20.04791427       0.34632866       0.31186786       3.05303762
O        0.15714061       2.16305122       6.92152418       0.27800952       1.04089889      -1.65968482
O        7.32525682       9.76382824      13.34043157       0.87047247      -1.05439708       3.26281294
O        9.68857262       7.00565288      20.35783075       0.71941872       0.45311623       0.08193924
O        2.61927639       0.24041233      13.94531263       0.30701802       0.06767773       0.81750892
80
Lattice="9.77192453 0.01751879 6.90363604 0.24348012 9.76890588 6.90363604 0.01370155 0.0133883 13.86910312" Properties=species:S:1:pos:R:3:forces:R:3 energy=-575.84930552 source_file=vasprun.xml step_index=0 time_fs=52000.0 time_ps=52.0 file_index=26 pbc="T T T"
Na       2.88279809       2.73040405      16.39310271      -0.03853049       0.05868586      -0.10006164
Na       6.97731957       3.51578349      19.52052075      -0.08642659       1.25794128       0.57013784
Na       1.37199600       6.31920876       6.68387391      -0.07798464       0.35050673      -0.14655700
Na       3.44345156       7.84057860      13.26285910       0.62408027       0.38887049       0.17796123
Na       0.22811863       1.17268700      14.33759963      -0.55314799      -0.33453222       0.09708626
Na       6.33081705       1.73407657      14.10864613       0.17754152      -0.78006175       0.20427604
Na       1.71706809       8.83775083      16.78314788      -0.05977193       0.00325921       0.22173431
Na       3.32062511       6.08944953       9.97695929       0.30967193      -0.11355537       0.19180926
Al       7.19103025       5.18052403       9.03384917      -3.40988029      -0.58881409       0.23234759
Al       4.58667794       2.76218901      11.66690538       2.40551968      -0.24077055      -0.57441354
Al       3.04960756       4.77934129      18.63399148      -0.26171308      -0.49483462      -1.62767593
Al       5.70386258       6.79995448      15.92985156       0.16657900       0.64038152       0.00261032
Al       0.38809499       2.13178981      11.45555977      -1.86967825       1.82598053      -0.96050496
Al       8.11128669       9.38399982      22.77038406      -1.12719789       1.03818255      -0.09890150
Al       9.90657160       7.64236835      16.06416819      -1.69695340       1.12688901      -2.65232079
Al       1.82211942       0.52101564       4.35611400       0.86451346      -1.82671844       1.09103570
Si       2.73608558       5.67282524      15.47155720       2.19385164      -1.41773188      -0.29396819
Si       4.41344222       7.54713046      18.78661754      -1.82891444       1.34889309       1.80151844
Si       7.26447476       4.28313883      12.04602872       0.77410342       1.41018245       1.88823020
Si       5.64498636       2.30237426       8.56130044      -0.99731069      -0.70335949       2.10250849
Si       0.65657267       7.23292859      12.06738032       3.03733191       1.32710435       2.52516343
Si       2.91195169       9.04230602       8.55287511      -0.33521914      -0.56735624      -1.12026195
Si       9.42748684       2.50662667      15.20877291       1.98421726      -4.01147751       1.41049909
Si       7.26898649       0.73119580      18.86839956       2.21817628      -0.03772351       0.25371671
Si       0.53189343       3.17048675       5.43937561       1.43870304      -2.07920299       1.80695714
Si       7.44242622       9.36362045      14.86868338      -1.12181477       0.49292673       1.37263975
Si       9.68111478       6.77108674      22.00586417      -1.27390327      -0.94860346       2.54153617
Si       2.75227627       0.41836191      12.48490843       2.08669122      -2.19978704      -0.52847305
Si       8.11226316       5.33354507      14.83129717      -2.52934318      -0.31721765       0.61941309
Si       4.38050689       1.76521599       5.62560218       0.93101812       1.92566454       2.64522956
Si       2.31227784       4.62601210      12.64249592      -2.84944353      -2.81637269       0.50839631
Si       5.55835160       7.96144802      21.77260679       4.24936644      -1.02824764       0.29851821
O        8.75395239       5.42163401      22.29982968       2.58961473       0.97322713      -0.46785980
O        4.04495718       1.36195668      12.48446025      -1.00565862       0.39520991       1.45269411
O        1.48150192       4.49723095       5.47679620      -0.21147223      -1.04581114       0.40297756
O        6.31729346       8.24831537      15.12050773      -0.25262848      -0.55619875      -0.32762608
O        1.13400097       3.54917320      12.17165268       0.05553508       0.60895435       0.94615577
O        6.79720948       9.02719848      21.62245197       0.00789527       0.39376037       0.73157344
O        9.40712321       6.28453599      15.07200012       0.31313423       0.01166332      -0.96930545
O        3.35623526       0.48287544       5.46217345       0.25754938       1.98736394      -1.33477265
O        3.18636364       6.47431056      18.95183061       0.52657078      -0.35073843       0.98476785
O        4.09203435       6.53840839      15.09541860      -0.22911149      -0.65223804       0.54091569
O        6.41244332       3.63035334       8.24012915       2.37663941       3.51693917      -0.03912692
O        6.17656436       3.12584014      12.50042697       0.71497466       0.65537675      -0.74097056
O        1.86543801       7.83901999       8.95568097       1.07109196      -0.40175071      -1.08248820
O        1.82711232       8.54461385      11.92946841      -2.82930319       0.42419435      -0.08667767
O        8.32905695       1.99782070      18.89424336       3.33803036      -0.12479379      -0.34793716
O        8.30206669       1.23698171      15.19206175       1.11225662       0.32235474      -0.13016381
O        2.63533591       4.88742508      16.85970880       1.16998054      -1.05227793       0.71704062
O        5.36390692       7.20213669      17.62807678       1.49358328      -0.89375366      -1.67757410
O        6.83898336       5.17298891      10.78836410       0.49324533      -0.80558990      -1.04442567
O        4.86301962       2.45202875      10.02487092       0.31651341      -0.36941202      -2.08704088
O        9.71759790       7.14818098      17.60544209      -1.88588402      -1.08817348       2.16007744
O        2.28101235       0.51735327       2.54968553      -0.74134910       1.69088673       1.82673367
O        0.53796078       2.31409599       9.73874241      -0.51579372      -0.33637746      -1.74391040
O        7.69086789       9.58351493      24.48033753      -0.50717009       0.11554840       0.10303933
O        9.11861770       7.99115324      22.94838566       1.71167065      -0.35826630      -0.93606804
O        1.26893440       0.74137989      11.98487941      -0.26408456       0.01415718       0.08391538
O        0.82422875       1.95214731       4.36603680       1.15702919       0.05015365      -0.03129899
O        8.83860166       8.99662643      15.59718583       1.77072320      -0.12498820       0.26322962
O        3.63858185       4.09464797      12.01324996       0.53012250       1.96590464      -0.79982686
O        6.11006133       6.56075567      22.43284686      -0.93149009       0.31634409      -0.25558366
O        6.87264775       5.48253480      15.93145482       0.10737810       0.93283893      -0.71792497
O        4.05622327       3.31108746      18.82185719      -0.63268275      -0.91887656       0.07285021
O        8.88744950       3.72028803      11.95518772      -3.93899552       0.80876709      -0.05129675
O        6.64823368       1.04075220       8.52858307       1.05348247      -0.87394454       0.72405794
O        1.55580292       6.70662787      15.48934326      -3.01327850       2.29879690      -0.42283944
O        3.59142553       8.95556023      18.45547135      -0.79589434      -0.27907780      -0.84825627
O        8.59464722       3.82546149      15.37160733      -0.68822204       1.86813893      -1.65951420
O        5.97960015       1.70357712      18.96092062      -2.64364184      -1.31630628      -0.57257224
O        1.94582853       6.12972022      12.14100401       0.08561649       0.04416275      -0.02062769
O        4.48391013       8.71558616      22.72269336      -1.34270642      -0.48929927       0.63806249
O        7.34516674       5.52984886      13.29601723       1.62618172      -2.15575998       0.74189584
O        4.71185522       2.02425865       7.28745233      -2.53150045      -0.60180198      -2.68359128
O        2.40367739       4.52435332      14.29813506       0.26257073       0.46633226       0.25648109
O        5.04601953       7.77038639      20.28586529      -0.79637781      -0.65814010      -1.59871855
O        0.74556744       2.31604792       6.96598707      -2.03245316       1.77494142      -0.03675704
O        7.83163289       9.71762048      13.34132703      -0.15001479      -0.33209738      -1.91082858
O        9.57883819       6.98034140      20.43852906       1.02236563       1.26161484      -4.35774572
O        2.73371888       9.43352353      20.81962493      -0.58507018       0.20657945       1.86544406
80
Lattice="9.77192453 0.01751879 6.90363604 0.24348012 9.76890588 6.90363604 0.01370155 0.0133883 13.86910312" Properties=species:S:1:pos:R:3:forces:R:3 energy=-576.89518927 source_file=vasprun.xml step_index=500 time_fs=53000.0 time_ps=53.0 file_index=26 pbc="T T T"
Na       5.20174175       3.77329840      16.55026680       0.57996560       0.19201899       0.33764606
Na       8.71296255       3.94974119      20.23666198      -0.75540553       0.49131119       0.44563112
Na       1.54870755       4.39108639       8.28161705      -0.34747307       0.30959857      -0.45308519
Na       3.92570037       9.03975924      13.83167909      -0.26663517      -0.38202634       0.07758609
Na       1.49784487       2.41982129      15.56378524       0.15301944      -0.47829685       0.29141613
Na       5.91854612       0.64165675      13.55758239       0.14939542       0.37676854      -0.50011337
Na       0.75775749       7.95694947      17.81198333       0.12161728       0.24572642       0.10599998
Na       4.03124976       5.85542469      10.43597655       0.96748876       0.28240070      -0.30106607
Al       6.89432455       5.10062232       8.89831605       0.97240496       0.76200445       0.55812871
Al       4.66664995       2.66006803      11.34383608       1.15748058      -2.39395407       1.16571310
Al       2.95546072       4.58911564      18.53545460       2.03401811       1.62568304       0.64601402
Al       5.36893306       7.21629012      15.90274191      -0.33125785       1.13794838      -0.52592526
Al       0.23844025       2.27534832      11.27022218       1.47633726      -1.00920744       0.07235664
Al       8.09209617       9.57413795      22.60518215       1.99795318      -1.00938029       2.94145345
Al       9.62311293       7.38174514      15.97609308       0.42461011      -0.04933283      -2.21720153
Al       1.83230088       0.51407570       4.49678694       0.91065518       1.71941951      -2.11971407
Si       2.73998838       5.52204650      15.45956293      -1.23181673       4.52458701       2.73235722
Si       4.49224823       7.61928547      18.91276292      -1.97049322      -2.70780496      -1.77001377
Si       7.08711258       4.30378676      12.05538352       0.39083226      -3.19827848      -3.87013459
Si       5.70597622       2.35531785       8.28293483       4.80162799      -0.11101149       2.44907097
Si       1.15407344       7.33618848      12.01183215       0.70616068       0.84233922       2.61828738
Si       2.52416295       8.90296663       8.33290565      -1.50853419      -1.34852554      -0.46578790
Si       8.82251421       2.52558556      15.09610634       0.37307073       2.67425756       2.71573318
Si       7.50009338       0.83123977      18.87897248       0.46448159      -0.43404318       0.22215699
Si       0.32652546       3.26118365       5.46464674      -3.38813888      -0.51835128      -2.46002796
Si       7.31346990       9.27912839      14.72213677       1.41919757       1.88572432      -0.52866675
Si       9.68457946       6.82156961      21.88298388      -1.47215041       0.27750832       2.97627795
Si       2.66077323       0.39471101      12.45203484       1.74289288      -1.27903379       0.19079949
Si       7.54169757       5.26827717      14.79817477      -0.28518599      -0.87981378       2.84003284
Si       4.52123406       1.88112584       5.50926251       3.01086561       5.31762196       0.83309241
Si       2.38312486       4.54795331      12.56511955       1.17821835       1.15190113      -2.27830968
Si       5.50524226       7.76083636      21.81522353      -1.28457603       2.33035565      -0.44368664
O        8.49195867       5.64249282      21.92241983       0.48169315       0.63034791       0.61808003
O        4.14811372       1.08361285      12.21939630      -0.73903299       1.11765478      -0.24084050
O        1.42916448       4.33828427       5.48640545       3.02174692       2.41930664      -0.16158379
O        5.91102143       8.53433449      14.77374248      -1.76097278      -1.87582150      -0.50783303
O        1.09999424       3.69179745      12.13966764      -1.87847542       0.13115862       0.33498909
O        6.53296826       8.91040397      22.41074272      -1.09378664      -0.68799013      -1.46197677
O        9.05396682       5.85062403      15.11149115      -0.66081202      -0.08608245       0.10778804
O        3.47687664       0.80514722       5.24765512      -3.09238302      -2.25403216      -0.74805371
O        3.95040326       6.00937099      19.01496100      -0.29071140       1.60780536       0.15936173
O        3.70715983       6.85230907      15.29091902       0.21491749      -1.12373685      -0.18406220
O        6.55374426       3.71106223       7.95471357       1.02837894      -0.89814448      -0.39485282
O        6.07856832       2.96952587      12.35290678       1.75477820       1.12342550      -0.17652775
O        1.35972814       7.67833336       7.98677204       0.64817652       1.47618184       2.00391503
O        1.81509399       8.81504457      12.10176340      -0.64754836      -2.11296462       1.85158685
O        8.50429555       2.09636589      19.06264296       1.45440220       1.13904316      -0.22279616
O        8.28982990       1.17490825      14.59328843      -2.34663458      -4.18063387      -0.42488001
O        2.93543472       4.63039334      16.78101648       0.18883357      -0.96965776      -1.15690252
O        5.32659250       7.75082541      17.52290603      -0.31595078       0.62884625       1.35802627
O        6.57835440       5.17426964      10.76206749       0.03476927      -0.12748285      -2.05390334
O        5.14031293       2.64249179       9.70937261      -2.01253577       0.11874630       1.64248098
O        0.28377528       7.21299866      10.74529038      -1.64448605      -0.70048936      -1.78692113
O        2.04733723       0.06429020       2.73363279      -0.57897016       1.12336854       1.01375954
O        9.79988639       2.17511786      16.42178210      -0.52091307       1.83238473      -0.63726402
O        8.08727762       9.78119326      24.47339780       0.15824114       0.19206744      -2.40074545
O        9.33551156       8.23430611      22.77332456      -0.27543542      -1.00623668      -2.01739038
O        1.55461543       1.06739144      11.54947275      -1.72987677       0.63819490      -0.33201324
O        0.79132838       2.00486947       4.54494946       0.82865418      -1.57528078       0.36560356
O        8.32813193       8.48909278      15.68360929       0.42653686       0.39462276      -0.10806370
O        3.58653835       3.91557875      11.66648574      -1.30348206       1.77233189       0.59052687
O        5.77200734       6.23434891      22.05011859      -0.24036736      -0.17172006       0.99312544
O        6.37069764       5.83329790      15.83419177       1.04187168      -1.04585588      -1.15946175
O        4.23010324       3.39537838      18.67045629      -0.02736563      -2.58693894       0.68348957
O        8.71196332       3.89391356      11.59221034      -0.84578462      -0.29854226       1.60775677
O        6.62450027       0.97591754       8.45703585       0.73881782       0.67358496      -0.68315399
O        1.23128596       6.23693117      15.80797684       0.49581200      -0.65991299      -0.64805382
O        3.09501155       8.55406158      18.91606982      -0.37020033       0.32084847      -0.32109813
O        7.51237568       3.60555856      15.41273842       1.66124461       0.04932623      -1.07806078
O        6.04522111       1.53290648      18.87169208      -1.10446914      -0.26313091      -0.08363357
O        2.41732082       6.23710499      11.88912357      -0.73023834      -2.25781086       1.82093284
O        3.97953994       8.16819997       8.52760607       0.28316472      -0.47262772       0.35417093
O        6.91148765       5.25394604      13.27696683       1.02303774       1.95213071       3.11924785
O        4.68629036       2.16736800       7.17843806      -4.21820660      -1.38677513      -4.56901904
O        2.70336629       4.57105252      14.19315216      -0.56627182      -1.55714932      -2.28645875
O        5.27631556       8.16599461      20.21268571       1.56577602      -0.15725327       0.68461232
O        9.76245398       3.21257907      13.94608129      -0.08531856      -0.84242580       1.27959205
O        8.05040560       9.56718486      13.14429148      -1.54220070      -0.87719698       2.68600233
O        0.32000916       7.08734818      13.47817694       1.01997541       0.07705582      -3.19812484
O        2.24238471       0.30504588      14.08556651       0.37632780       0.43072231      -0.49425939
80
Lattice="9.77192453 0.01751879 6.90363604 0.24348012 9.76890588 6.90363604 0.01370155 0.0133883 13.86910312" Properties=species:S:1:pos:R:3:forces:R:3 energy=-574.8502257 source_file=vasprun.xml step_index=0 time_fs=54000.0 time_ps=54.0 file_index=27 pbc="T T T"
Na       6.17312427       2.56766010      16.53107199      -0.22607970       0.19051926      -0.05747548
Na       7.16519996       4.18343951      19.80896516       0.37673971       0.03805563       0.23497129
Na       0.63780081       6.21768194       5.75953962      -0.66741244       1.43740571       0.97696135
Na       4.57238701       8.56989126      13.36981935       0.15309908      -0.61531777       0.16153311
Na       1.68160711       2.45732829      16.05933605       0.26969827      -0.18746267       0.15259138
Na       7.10896117       0.56742505      13.22830626      -0.29750312       0.29430095      -0.89315419
Na       2.38345719       1.53695357       8.60849415       0.44581966       0.11320626       0.06538294
Na       3.68599681       5.84991490       9.68192287       0.00492466      -0.04787056       0.16038378
Al       7.17114178       5.38318346       9.13277969      -3.27012813      -1.38656401       1.58175537
Al       4.59138068       2.72449026      11.55210120      -1.12429561      -0.28952957      -0.76931706
Al       2.73464010       4.69764695      18.47827285       2.03722352      -0.37542336      -1.15543054
Al       5.32583491       6.76167196      15.97854897       0.09914383       0.57212520      -0.92924671
Al       0.28648747       2.14586713      11.63916954       0.17281781      -1.27026948      -0.09572363
Al       7.78306280       9.51301116      22.88083283       1.36816800      -2.28847501      -0.83273536
Al       9.63519537       7.54871342      15.76463267      -1.14500424       0.69424765       1.00468885
Al       2.04367635       0.29281594       4.67738929       0.22682314      -1.57329504      -0.50305326
Si       2.50544679       5.49162335      15.22490424       1.07503362       1.24384165       1.89966933
Si       4.29674927       7.26646014      18.93858570       0.68008532       2.88805095       0.99497223
Si       7.31400161       4.08570895      12.17753305       2.14775853      -0.76372573      -1.43230962
Si       5.63278359       2.45135726       8.44576466      -2.56681153       1.64673679       1.76616292
Si       0.53133576       7.34743613      12.00898804       0.31006081       1.63914567      -1.08661739
Si       2.68103371       8.70068568       8.57549542      -0.24279971       0.03250743      -0.66542898
Si       9.20808420       2.34569798      15.62021396       0.62416274      -1.26123178      -4.27828061
Si       7.09043875       0.80128532      18.91424647       2.07966938      -0.32279671       2.83977588
Si       0.57945001       2.83239853       5.71493475      -0.70557491       4.06847784      -0.77690951
Si       7.11106785       9.37737147      14.92336812       1.57388878      -0.34598174      -2.55856283
Si       9.59132789       6.91807943      21.91300832      -0.18111380      -0.48593635      -1.87548957
Si       2.81294015       0.36617922      12.82912272      -0.09188439      -0.97443437      -0.20925065
Si       8.00306221       5.14120622      15.14482764       1.15928343      -0.65703457      -2.74720651
Si       4.28159893       2.03271977       5.62552022       0.95925829      -0.33005546      -0.19853020
Si       2.03429747       4.53859815      12.27935208      -2.64531514       3.41540014       0.27250401
Si       5.69102199       7.82375058      21.69838096      -5.28517851      -1.34956130      -0.24288237
O        8.55963387       5.69098176      22.17933772       2.22302014      -0.16539616      -1.05400253
O        3.97850363       1.40541337      12.48287632       0.36950596       0.22173949       0.01224958
O        1.39542625       4.33785143       5.59951686      -1.76951712      -1.86893349       0.46085245
O        6.02517405       8.26900238      15.30662080      -1.46476491       0.09037308       0.05724897
O        0.67119692       3.80976362      11.88933888      -0.41776314      -0.65541993       0.42335823
O        6.30966146       9.28020020      21.79475349       1.79404999       0.69478064       1.55597075
O        9.36854922       5.99603547      14.98486663      -0.98836986      -0.32494947       1.15794208
O        3.57470812       0.60230967       5.50172999      -1.31621017      -0.73465127       0.61037792
O        3.38282891       6.07213327      19.40753427      -1.46428329      -1.27856767      -0.48216013
O        3.79640704       6.46221260      15.07768500       1.44354927       0.15915474      -0.44234612
O        6.39300516       3.86415963       8.24256829       0.64845963       0.80368876       0.20318472
O        6.11272785       2.94778879      12.36750319       1.67309804       1.44227752       0.02316734
O        1.39730416       7.70910123       8.12980132       2.08783797       2.10159839       1.14970065
O        1.47347139       8.68776444      12.41090866      -0.00856807       0.69351706      -0.96223320
O        8.33545841       1.94027048      19.08222811      -0.62770763      -0.41291116      -0.45186484
O        8.08570543       1.19225574      15.15172462       0.71219034       1.50980833       1.09008454
O        2.75068819       4.58676714      16.58212064      -0.74592640      -0.46875935       0.78581349
O        5.18607165       6.79599258      17.67867073      -0.79583108       0.58308360      -0.02741388
O        7.12921835       5.09519092      10.86988273       0.15319003      -1.38739900       0.91268619
O        4.73628635       2.25609547       9.83270527      -0.21908450       1.30935406      -0.00716072
O        9.34176955       7.67323958      17.54761124       1.75125003      -0.92676050       0.87767943
O        2.86952364       9.67025706       9.90086434      -1.93538456      -0.27126860       1.03942810
O        0.54171804       2.08643978       9.78742080       0.46380992      -1.20236486       2.35269068
O        7.52084963       9.69680690      24.54899162       0.42371655      -0.90476641      -2.42958144
O        9.12882804       8.25635343      22.56682305      -2.00917572       2.82365237       1.38839157
O        1.38545770       0.92617499      12.32988628      -1.13181601       1.02409088      -0.16753034
O        1.49969923       1.97469795       4.76406414      -0.60163914      -2.26155384      -1.29081081
O        8.60414871       8.80466733      15.10193872      -0.25987298       0.67856112       0.92715840
O        3.32983075       4.08471785      11.55577161       2.87539045      -1.06894024      -0.96295291
O        5.97987263       6.73275312       9.01919006       1.91262671      -0.69286591      -1.15494183
O        6.61158169       5.61918554      15.67469645      -0.65991892      -0.45316995       1.05432633
O        3.78888286       3.33598339      18.72564709       1.24651800      -0.34613685      -0.01482249
O        8.88679334       3.17895930      11.98481936      -2.53184777       0.04675068      -0.17913464
O        6.46990736       1.14434584       8.50677129       2.83750341      -3.15669702      -0.51107493
O        1.32115885       6.54013507      15.62436224      -1.70375180       0.33898760      -1.00811169
O        3.25427501       8.68054683      18.95437488       1.67377772      -1.81091482      -0.57882974
O        8.41299401       3.68230792      15.97088720      -1.66997045       1.89874626      -0.73032666
O        5.70429702       1.56468148      18.71836562      -0.58290933       2.68494295      -0.19544935
O        1.72460001       6.18698158      11.76887466      -0.00115634      -1.17869613       0.34127996
O        3.89813219       7.68570213       8.41001655       3.04160162      -0.89892825      -0.44864372
O        7.72919633       5.00030488      13.44507071      -0.50568144      -0.65263507       1.25185898
O        4.49604021       2.26884436       7.24509056      -0.06621398       0.27740392      -0.34470690
O        2.08873140       4.63193650      13.92500279       0.39874664      -0.87725190       0.20002366
O        5.57211869       7.59814937      20.02108506      -0.22038425      -0.48452208       1.70638499
O        0.48134207       2.38295152       7.25081585      -0.86764901      -0.44048580       2.49474253
O        7.12765599       9.44988613      13.15626723      -0.72761062       0.84897933       1.45791195
O        9.29343404       7.17311422      20.20656796       1.24044915      -1.00292571       0.88840339
O        2.90770796       0.05039327      14.44876226      -0.96711753       1.97105425      -1.79447599
80
Lattice="9.77192453 0.01751879 6.90363604 0.24348012 9.76890588 6.90363604 0.01370155 0.0133883 13.86910312" Properties=species:S:1:pos:R:3:forces:R:3 energy=-575.96855049 source_file=vasprun.xml step_index=500 time_fs=55000.0 time_ps=55.0 file_index=27 pbc="T T T"
Na       7.47284208       6.32680836      18.51901101       0.00243771       0.26203657      -0.25163055
Na       8.39686347       2.98879997      20.99733757       0.54727809       0.60641708       0.41055972
Na       0.87594321       6.23125127       6.11896933       0.04916335      -0.20101087       0.12550125
Na       4.05078522       8.94826066      13.56057904      -0.00044915      -0.46578626      -0.19682705
Na       4.67900785       1.81792572      16.49585407      -0.20183392      -0.40285907      -0.07195379
Na       6.73538134       0.77920443      12.95168833      -0.06459508       0.23360409       0.18326981
Na       2.32877131       1.16664935       9.35656392      -0.00040633       0.40841928       0.09963125
Na       3.49365720       6.19530598      10.09274771      -0.08496162      -0.88155971       0.90458793
Al       7.18331490       5.30235772       8.96833249       0.79539646      -0.74842825       0.66570740
Al       4.56964613       2.81442880      11.46028685       1.45489885       1.38874924       0.23278952
Al       2.80089979       4.42521670      18.18848951      -0.32568082       0.74445901       0.50092247
Al       5.35887990       6.89499292      16.01533539       0.09408980      -2.19324534      -1.25914388
Al       0.24524317       2.02904842      11.39863841       0.43443945      -0.09976585       0.48684101
Al       7.36371343       9.22174459      22.99899351       1.18975702      -1.24607272      -0.96573148
Al       9.36564671       7.58106350      15.81189346       1.18177244      -0.50581950       0.18165237
Al       1.98594972       0.27847070       4.36052702       0.89353306      -0.69628976       0.43202022
Si       2.43318568       5.47319222      15.38887561      -0.53660252      -2.27971525      -0.42071131
Si       4.34709239       7.16177535      18.89718653       1.59464759       2.52687397      -1.40556247
Si       7.54538609       4.53136824      11.92120842      -0.79212670      -2.00689067       0.91089397
Si       5.58380338       2.39211163       8.52329583      -1.12196386       1.84212017       0.47628426
Si       0.62220873       7.33650586      11.85008937       2.14427930       0.54636736       2.47033761
Si       2.57668542       8.87049952       8.25096278      -1.59957281       2.02564195       3.76227519
Si       8.75086335       2.16727976      15.23905706       0.15525951      -2.53196162       1.93486493
Si       7.19911706       0.94491829      19.02182519      -2.45149694      -3.52231140       0.18103192
Si       0.39900333       2.68962837       5.61927572      -1.05906113      -2.39294265      -2.92504288
Si       6.96666712       9.32100705      14.72715316      -2.08943633      -2.87088551       3.82585246
Si       9.40924498       6.76859469      21.61664931      -1.08792521       1.54577524       2.36407409
Si       2.83274171       0.29644274      12.51256666      -0.04313580       0.73528154      -2.62838612
Si       8.00244829       5.25264639      15.01732834       0.97579167      -1.33108325      -0.78662243
Si       4.45902579       2.25857952       5.62101667      -1.02062782      -4.30020854       3.24173764
Si       2.06970743       4.52797026      12.36728576      -0.94846058      -1.64189324       0.60438062
Si       5.10704926       7.48430017      21.87695296       3.20785932      -0.42798293      -1.96697751
O        8.60066366       5.37972882      21.69966658      -1.21759778      -1.07154534      -0.55704557
O        4.03295792       1.35779708      12.24536784       1.21537965      -0.28408843       0.36355005
O        1.52981103       3.82685802       5.38870925       0.06515506       0.05978233       1.69727760
O        5.66798488       8.20949107      15.03871049       0.05400950       3.68556549      -2.26670777
O        0.75123651       3.48208054      12.21011142       1.09870627       0.90709950       0.01213060
O        5.79358816       8.92764877      22.06974209       0.88970081       0.74965862       0.24238609
O        9.59568727       5.82795333      15.33532509      -2.73538864       0.46903218      -1.29009954
O        3.53338723       0.94022114       5.17184161       0.15547126       0.31603226       0.48083038
O        3.23961437       6.12899962      18.66459552      -2.78851164      -3.98556471      -0.53907576
O        3.98190558       5.96406620      15.19261742       0.34445510       1.68959922       2.35624785
O        6.71670772       3.55379270       8.73212408      -0.30039405       0.45707778      -1.58501142
O        6.23502371       3.48848491      11.83780299      -0.57894068       0.03407166       0.48275059
O        1.06662109       8.22951927       8.24427308       1.67179899       0.76150302      -1.19873812
O        1.74035851       8.49823012      12.03759518       0.95603287       0.51236983       0.06273067
O        8.56742024       1.61882700      19.22314832       2.29581908       1.25064833       0.58604522
O        7.54198802       0.96583774      15.29069962       1.17307747       1.65288723      -1.31979299
O        2.03672174       4.35553677      16.62426330       1.70360676       1.72775337      -1.20134386
O        5.47656156       7.26930424      17.67899544      -1.14976672      -0.07805298       2.12563738
O        7.77962631       5.42695648      10.61105256      -0.27928000       0.08699321       0.79518846
O        4.62027606       2.47470959       9.78681759      -0.99333754      -1.02519859      -0.40962216
O        9.49560470       7.52300169      17.51853090      -1.71796683      -0.14410461      -0.54516327
O        2.91039676       9.72264480       9.70875559      -0.28007020      -0.88809699      -2.32278621
O        9.69626374       1.98644262      16.60257067       0.06445708       0.01356475      -1.16674238
O        7.03444643       0.05222195      17.72451580      -0.58492339      -0.44674831      -1.25140227
O        8.52224167       7.75337532      22.65036611      -0.28843655       1.27448212      -0.64463726
O        1.59259314       0.89342437      11.58383168       0.40370968      -1.01378739       0.63815629
O        0.70941987       1.35172913       4.54022719      -1.12707074       3.06351250       1.86229835
O        8.03863860       8.62007073      15.67991548       0.55090640       0.82668617      -0.88518616
O        3.40533506       4.12002627      11.45569407      -1.65676675       1.02507528       1.05581789
O        5.84413036       6.43901108       8.97054730      -0.64711338      -0.99476990      -0.20999647
O        6.90103016       5.98889864      15.91357633       0.27947253      -0.77937622       0.51106517
O        4.21059170       3.49249563      18.65378005      -1.57338955       4.09435271      -3.25744943
O        8.80745839       3.46758601      12.04190391       0.11463837      -0.17194644       0.44302352
O        6.35801215       1.01119072       8.43016778       0.88633953      -0.85899828      -0.28365455
O        1.14476275       6.51939157      15.31818868       1.07249796       0.46730274      -0.25581945
O        3.38097299       8.51279584      18.85288621       0.24960003       1.77138590       1.10766584
O        8.07641463       3.60192858      15.34193427      -0.70830532       1.54666369      -0.30929102
O        6.02512307       2.08178877      19.16225109       2.51298454      -1.15896548      -0.23961345
O        1.48096287       5.93249505      11.71569502       0.60101415      -0.07018023       0.33454777
O        3.57266625       7.54078247       8.45428379      -1.99123455       0.44471454      -1.13819234
O        7.52580815       5.33149370      13.42404093       0.57725013       0.26559042      -0.84193885
O        4.40879730       2.36529204       7.28585090       0.46971572       0.29913791      -0.22914471
O        2.43312648       4.57205605      13.99321086      -0.98990196      -0.12931036      -1.69513621
O        5.24255006       6.93300073      20.23271786       0.11506013       0.78342601       2.17133508
O        9.71780578       1.84438560      13.92905518       0.63052160       1.38907415      -0.25181761
O        7.20114430       9.39679931      13.19535513       0.51703915       1.80265802      -2.80892953
O        9.39138130       7.40170656      20.10114560       0.28739852      -0.60595959      -0.71645439
O        2.69059061       0.32183971      14.12145618      -0.69019249      -1.81449371       1.00249061
80
Lattice="9.77192453 0.01751879 6.90363604 0.24348012 9.76890588 6.90363604 0.01370155 0.0133883 13.86910312" Properties=species:S:1:pos:R:3:forces:R:3 energy=-575.94053772 source_file=vasprun.xml step_index=0 time_fs=56000.0 time_ps=56.0 file_index=28 pbc="T T T"
Na       7.52939389       7.56585309      18.16836455       0.20788598       0.17424562      -0.24610104
Na       8.65659589       3.62443128      20.35289147      -0.30505888      -0.19536357       0.21463120
Na       7.22087933       7.14733248      11.70525693       0.31403563       0.83639436       0.35038043
Na       3.60030051       8.04431216      13.93326971       0.53384107       0.51317750      -0.38214400
Na       2.03580501       2.23567618      15.76902595       0.13586694       0.08489485      -0.04435696
Na       5.93840032       1.90787649      14.06645434       0.08537172      -0.07239560       0.07256542
Na       0.85151039       0.12109328       7.29434511       0.09445957      -1.02031140       0.07057442
Na       3.47016855       4.75007379       8.82631062       0.20725599      -0.03038732       0.19143420
Al       7.18837450       5.14333980       9.08005736      -1.63643834      -0.97943754      -0.86188876
Al       4.71873001       3.06784225      11.43361595      -1.77239942      -1.08707669      -0.21319022
Al       3.21729425       4.44355641      18.36692175      -1.57200205      -0.80588257       0.43878409
Al       5.37329399       6.96004206      16.04296468       0.22539074      -1.64983952      -4.00047931
Al       0.53759848       1.91643665      11.31479400      -0.44329947       0.54910884       1.47060467
Al       7.50332636       9.33916355      22.99388920       1.50786707       0.01408464       0.24856234
Al       9.70176872       7.53471704      15.80477791       0.58564587       0.45321501       0.07266575
Al       2.08265574       0.04861235       4.67611171       2.03122942       2.10605201      -2.01340040
Si       2.59959420       5.39967175      15.40560956      -0.46697858      -2.21075909      -0.93714433
Si       4.54169650       7.26385361      18.97078756      -3.13214332       1.21865278      -0.00053511
Si       7.61886113       4.24077585      12.06879146      -0.23942416       0.46623438       1.93629589
Si       5.77179310       2.25042331       8.54436193       1.23562920       2.51964930       0.17425402
Si       0.69741370       7.44668385      12.21411620      -0.10257141      -1.62478235      -2.23480827
Si       2.62598761       8.99952202       8.36966923      -0.36566876      -1.10803662      -0.19190031
Si       9.00784218       2.13891263      15.30971556      -0.70597107       4.47305704       1.06574292
Si       7.47458781       0.67975881      19.09066278      -0.15040397      -0.55923890       0.21258427
Si       0.65933303       2.80949349       5.71344177      -0.77929211      -2.89456874      -0.20136009
Si       7.07042579       9.20532564      15.00044468      -1.77759339      -0.65963902      -0.24372795
Si       9.37282020       6.90199203      21.90162407       1.11692258      -0.88622624       2.25381900
Si       3.17130218       0.48592474      12.55411108      -1.24974244      -0.39455275       0.29828366
Si       8.00355067       5.20728638      15.02101644      -1.17028749       0.17356321      -2.01096612
Si       4.56087777       1.74227697       5.66244529      -0.62556686       0.53685902       1.74154920
Si       1.93454331       4.43415254      12.34994871       0.30259302       0.05698851       2.11339773
Si       5.36395696       7.58950844      21.71606501      -0.29381459      -0.02100268       3.07914846
O        8.48333686       5.49920382      21.82196658       1.84775404       1.99908243      -0.60695720
O        4.35916280       1.55995091      12.31786098       0.33336089      -0.45024327       0.51164488
O        1.70058780       3.92741553       5.46170124       1.57877599       1.60903458       0.02016356
O        5.56954912       8.41822915      15.10291466       1.40068610       0.90787064      -0.32919308
O        0.68518201       3.49129601      12.06784974      -0.15925604       0.31189418       0.22020593
O        6.14223569       9.16971723      21.94602692      -2.07007247      -3.21975353      -0.03039300
O        9.36377991       5.79689482      15.62332683       0.90127168       0.93077041      -0.47571881
O        3.58513970       0.36013884       5.66935036       0.51745625       1.44279101      -1.03274615
O        3.33292947       6.17702332      18.81309689       1.44690454      -1.27695392       0.57036039
O        3.96893144       6.23626224      15.08735737      -0.35765219       0.16009717       1.48409145
O        6.92256517       3.52988139       8.38079470      -1.36352064      -1.59994016      -0.06401727
O        6.11908783       3.56154609      12.26109425       2.01245348       0.11455379       0.57786674
O        1.25395217       8.24824131       7.86525206      -0.67363112      -0.19296650       1.79857028
O        1.91164168       8.43967854      12.46103833       0.65861091       0.13292647       0.79776346
O        8.92551535       1.41934187      19.10447132      -2.84836694      -0.49100804       1.23349523
O        7.96077235       0.96604726      15.29856984      -0.31009915      -0.55370161      -1.30607060
O        2.82128938       4.19812701      16.63412252      -0.64720111       2.54536176      -1.46307650
O        5.38170515       7.27909260      17.64875560       1.35964478       0.17049074       0.74855967
O        7.52526931       5.19191868      10.79674044       0.19825699       0.26176399      -2.34625521
O        4.79247316       2.73993172       9.73501320       0.24482915       0.18382453       0.55081989
O        9.80717657       7.79123477      17.61612178       0.58275413      -0.58389432       2.46439793
O        2.23988979       0.11968709       2.87481350       0.49944306      -1.45218960      -0.33821241
O        9.76052288       2.23237464      16.68476352       0.40669207      -0.19467613      -0.83374811
O        7.63029377       9.44624570      24.71196015      -0.84563249      -0.12512417       0.36836721
O        8.63638477       8.00046810      22.88175226       0.96573263      -1.74796667      -0.98148657
O        1.79669826       0.98648643      11.89063239       1.53914267      -1.01056501      -0.28303075
O        1.11137727       1.43423408       4.88346866      -1.26133134       1.04484309       1.14688095
O        8.19827727       8.42289899      15.79952558      -0.00591959      -0.20730082      -0.07195788
O        3.21946003       4.02972196      11.47422108       0.47363791       0.86830205      -0.33631737
O        5.67384184       6.12089349       8.71623604       1.20651249       1.69619710      -0.52166173
O        6.72367616       5.89714005      15.69069170      -0.28579796      -0.15710726       0.38481768
O        4.33589046       3.07408944      18.55775880      -1.48006524       0.10747615       1.29367955
O        8.89789463       3.16953484      12.07007206      -0.75360897       0.47818295       0.56470650
O        6.66037329       0.91834746       8.68631249       0.06623976       0.69731731       1.35744795
O        1.28221945       6.45858620      15.50297848      -1.29974530       0.13678428      -0.48392227
O        3.67823921       8.69616644      18.97948824       0.98218610       0.18394055       0.73405321
O        7.93910248       3.58754156      15.19396544       1.32849239      -2.49548310      -0.57858379
O        6.08924146       1.59886683      19.05727506       2.89888762      -1.05502504      -0.25640338
O        1.31922231       5.94157675      12.23162128      -0.19532041       0.97145858      -0.36489809
O        3.71159353       7.60939603       8.44116178       1.04827703       2.26047401      -1.27424238
O        7.78238672       5.48829883      13.20168534       0.70330962      -1.34874572       2.36404247
O        4.66577828       2.02275415       7.39362744      -0.75688958       0.23158308      -3.09433675
O        2.33397220       4.37831353      14.00723791       0.01943217       0.50475753       0.98289605
O        5.73075035       7.24861499      20.13950265      -1.09209200      -0.09333926       0.05342354
O        0.56260738       2.18214008       7.39705565      -1.18621901       1.42747795      -2.44421166
O        7.47803048       9.47340798      13.46850898       0.56439731      -0.42761240      -1.63417515
O        9.60804935       7.76189115      20.52046721      -0.61695639      -0.41141597      -1.51090350
O        2.83853517       0.41023085      14.23229576       0.59141671      -0.23508896       0.03636351
80
Lattice="9.77192453 0.01751879 6.90363604 0.24348012 9.76890588 6.90363604 0.01370155 0.0133883 13.86910312" Properties=species:S:1:pos:R:3:forces:R:3 energy=-575.94642862 source_file=vasprun.xml step_index=500 time_fs=57000.0 time_ps=57.0 file_index=28 pbc="T T T"
Na       7.21273669       6.44328751      18.76489489       0.44161286       0.18016686      -0.04965544
Na       8.22678538       3.48943565      20.41124539       0.32734217       0.14497469       0.40352180
Na       9.67218341       6.39800040      12.81113720       0.67520571      -0.11691670      -0.81440092
Na       4.08234213       8.03003666      13.48299958      -0.09654924       0.24678591      -0.05041401
Na       2.25891710       2.34167060      15.73822364      -0.03051843      -0.19340362       0.01744477
Na       6.31968539       1.31145568      13.22534887       0.52084187      -0.18393740       0.54388366
Na       2.60971689       1.93023649       8.67461696      -0.76067923      -0.09368420      -0.71300390
Na       2.57391463       5.84009163       9.55203819       0.54909986       0.11612172      -0.15285265
Al       7.08651868       5.32988179       8.92519792       0.23903998      -1.77301259       0.75030995
Al       4.37293619       2.53937366      11.45190216       0.36897244       3.30292460      -2.24865812
Al       2.87794468       4.40996590      18.32872925      -1.25045312      -0.44954155       2.22434589
Al       5.59861110       6.96495224      16.03480402      -0.12462089       0.46100302       0.94330733
Al       0.53598674       2.21838318      11.48242193      -2.48374019      -0.09503718       0.04167443
Al       8.05068802       9.24522970      22.98239827      -0.15244407       3.24863080       1.73974928
Al       9.53961455       7.14339210      15.74556079       0.44913371       2.22766868      -0.74913936
Al       1.88919483       0.42153907       4.75567628       0.81683197      -3.44264451      -0.82671862
Si       2.73364264       5.61852551      15.26187624      -1.59797904      -0.97201385       1.51727373
Si       4.24049859       7.17822023      19.09493239      -1.22664509      -1.80883773      -2.09422071
Si       7.33246023       4.12014096      11.95554476       0.06342999      -1.19904487      -1.11981874
Si       5.64981632       2.41891501       8.52152558      -1.88090205       0.77394747      -2.14219473
Si       0.73794970       7.27114123      11.93920212       2.05763912       0.79288595       1.29247150
Si       2.36320747       8.92202012       8.49077537       4.67515157       1.20403065      -1.34831721
Si       9.23760584       2.32067437      15.36228401       3.42324009      -0.37289507      -0.43435886
Si       7.30744336       0.81511646      18.99441247       1.42802607      -1.43026055      -1.15572183
Si       0.48174028       2.81911609       5.52760431      -0.66770243       3.60425832       3.68219203
Si       7.14980039       9.42562270      14.94625404      -0.49816276       0.37398713      -0.01653336
Si       9.53895228       6.85798655      21.61702615       1.45351725      -0.90348272       0.54825961
Si       2.77352722       0.17884561      12.55354448       0.23461568      -0.60713020       2.60649228
Si       7.83591367       5.02693833      14.90862926       1.05671063      -1.15111897      -0.10219749
Si       4.34157569       1.78280421       5.58794149       3.70986446      -0.26199275       2.24272454
Si       2.00605509       4.56328497      12.42574378       0.79626658       0.59721272       0.99210475
Si       5.38832818       7.81918017      21.80997168      -0.26067877      -1.73995401       4.07231388
O        8.72426333       5.44850499      21.93765411      -1.03768802       1.14823978       0.24605061
O        4.14963992       1.17055866      12.41735246      -1.00320770      -2.30621682       0.19099483
O        1.33666985       4.27791275       5.51443934      -0.59917420      -2.29755155      -1.14347399
O        5.82496871       8.40978659      15.00294659      -0.14948305       0.35777412       1.03011204
O        0.57638382       3.84018344      12.34764143      -0.24762200      -1.03791817      -0.37015305
O        6.50717284       8.90886100      22.32992891      -1.94021178      -0.60501085      -1.97526714
O        9.41687850       5.58328782      14.85122957      -1.06447668       2.00117909       0.60576325
O        3.32422298       0.59896592       5.87068751      -2.00891320      -2.10607782      -1.72934097
O        3.35809991       5.80532373      19.14798513       2.46081389       1.85001673       1.12118421
O        4.21604012       6.23365425      15.29272383      -0.53418671       0.38552977      -0.83871133
O        6.52843868       3.72697126       8.13385716       0.15447165       1.02706954       1.06546978
O        5.91100120       3.29186803      11.94578722       0.19095172      -1.17546782       0.00832232
O        1.45657834       7.73507846       8.07940868      -4.21049947      -2.28085704       0.49611760
O        1.35777224       8.72581122      12.34004051       0.30490503      -0.54611015      -0.52973448
O        8.70613244       1.67709791      19.10798846      -0.56373962       1.43517260       0.10365120
O        8.48532617       0.98843996      15.24157822      -2.62826470      -3.64406097       0.49957086
O        2.43212586       4.97632848      16.80541923       0.18994853      -0.53665124      -3.95764108
O        5.32709400       7.13026427      17.83265116      -0.56790279       0.44818360      -1.17986998
O        7.42091507       5.12783110      10.70271677       0.16530157       0.02363121      -0.57310154
O        4.48673635       2.22459825       9.64636907       0.27304924       0.84207746       2.12536818
O        9.78767223       7.11382344      17.46222902      -0.38857541      -0.61123760      -1.90044066
O        2.02824100       0.03267832       2.89166120      -0.20355843       0.85045797       2.19811785
O        0.45781174       2.48264114       9.73911185       0.64969175      -0.06779942       0.87444285
O        7.88077209       9.50819849      24.75553729      -0.07242283      -0.63022687      -1.91185597
O        9.21243525       8.12103303      22.60534092       1.24950087      -2.99631542      -1.86617264
O        1.51570518       0.85352407      11.87842117       0.32906769       0.50916609      -0.84834872
O        0.83021960       1.67338536       4.55122353       0.60132685      -0.12754697      -1.49446140
O        8.35308415       8.49431123      15.47259573       1.14467312      -0.46302685       0.54086269
O        3.09471013       3.90055586      11.47963485       1.36781590      -2.19644792      -1.11155173
O        5.67172032       6.30138062       8.69515466       0.52603968       1.68496055      -0.93054797
O        7.01192703       5.88278781      16.05343330       0.33198191      -0.71705577      -1.09492088
O        3.76901697       2.88440208       4.67266065      -1.74442689       2.62899481      -2.05850913
O        8.69131331       3.07603001      12.01480916      -2.66524555       1.45289986       0.31136691
O        6.72207320       1.27556871       8.71278084       1.81990500      -4.44752419      -0.18161159
O        1.44267264       6.57714655      14.95005288      -1.04169308       1.00907500      -0.31552180
O        2.98722738       8.25954688      19.10562290       1.24028669       2.93897281      -0.01155642
O        8.19564344       3.47510525      15.30107648      -2.89849643       2.45242332       0.13976844
O        5.83549325       1.47272324      18.74326606      -0.48482279       0.65523370       0.21304231
O        2.07671761       6.14800707      12.01008269      -1.88073503       1.83944233      -0.81212092
O        3.83512272       8.05010074       8.50437274       0.55103727       0.34845598       0.02699940
O        7.20458123       4.91868999      13.36782147       0.60611330       1.54160605       1.87464446
O        4.61749435       2.15251747       7.18512975       0.76865491       0.64236927       0.34665569
O        2.60013578       4.59724773      13.94395000       0.61099134      -1.03156441       1.97735617
O        5.36240067       7.48736304      20.22003953       0.72755611       0.66536366       0.42424188
O        0.56308946       2.28753698       7.18149992       0.03699814       0.80685170      -1.42720840
O        7.34257569       9.70135188      13.37575558       0.13279617      -0.07486421       0.56394594
O        9.29099314       6.90640383      19.87188827       0.06343827       0.24840726       2.51416151
O        2.56129409       0.31109076      14.26277721      -0.78802324      -0.33026978      -0.87024062
80
Lattice="9.77192453 0.01751879 6.90363604 0.24348012 9.76890588 6.90363604 0.01370155 0.0133883 13.86910312" Properties=species:S:1:pos:R:3:forces:R:3 energy=-575.29911238 source_file=vasprun.xml step_index=0 time_fs=58000.0 time_ps=58.0 file_index=29 pbc="T T T"
Na       7.32171962       8.26387487      18.81130728       0.31108524      -0.39338335      -0.31228177
Na       8.21892736       3.02927647      20.41229154       0.11899418       0.85805649       0.21868467
Na       9.34572291       7.40432593      13.13489537       0.18693707      -0.20839688      -1.05491347
Na       3.49752802       7.73920431      13.73319934      -0.12410998       0.46592121       0.11504124
Na       2.37996493       2.12616844      15.57252109      -0.31013360       1.36963465       0.89050433
Na       5.65388159       1.61628508      14.28597781       0.41988602      -0.01857675      -0.15918187
Na       2.40014107       2.13274321       7.60649870      -0.22997630       0.23495801       0.21101418
Na       4.83228110       6.38259193      10.53467826      -0.07416462      -0.43858882      -0.11037071
Al       7.26514874       5.01695975       9.02616339       0.79996370       2.22898996      -1.23382370
Al       4.51800502       2.55973023      11.30462512      -0.44945814       0.16395160      -1.25581569
Al       2.93296904       4.41268778      18.31120514      -0.29257468       0.62251332       2.06494504
Al       5.45874840       6.72408171      15.92414781      -1.21653843       2.36525155       0.17150958
Al       0.15021620       1.93439390      11.70476388       0.82012195       0.25893292      -3.84409436
Al       7.94163143       9.03152818      22.92760461       3.49117438       1.47173881      -0.76826765
Al       9.59545492       7.57878995      15.93109628      -0.69843752      -0.76970749       1.54551766
Al       1.97509982       0.32619615       4.74976710      -0.21778856       0.12748920      -1.32002142
Si       2.64742937       5.25857496      15.31535222      -0.46718722       0.08433309      -0.68973709
Si       4.32884450       7.37344924      18.90884175      -0.78743181      -0.71995029      -1.71437973
Si       7.18927983       4.20319905      12.02346803      -1.00675513       1.53469367      -0.53869395
Si       5.65902363       2.46989718       8.24691276       1.11405873      -1.65282121       2.19262784
Si       0.78399368       7.18847421      12.01627014       1.35783523      -1.50746454      -0.78135229
Si       2.69987400       9.08878317       8.60356308      -1.56803820       1.16034328       1.73541464
Si       8.68381939       2.19395075      15.19859384       4.48872119      -0.61824893       2.28765913
Si       7.30288767       0.11014671      18.97366809       0.97386323      -2.31665427      -0.64588226
Si       0.16218882       2.88479890       5.45216481       4.80767365      -1.82222576      -0.57050006
Si       6.94512663       9.17951007      14.85178326       2.15991560      -3.00540335      -0.26580957
Si       9.74312130       6.83683093      21.69434741      -1.42720045      -0.30664406       1.53576445
Si       2.78391286       0.38593337      12.73056963       0.27518198      -1.30503045      -1.91212950
Si       7.88276509       5.19351448      15.01073431      -2.61336087      -3.51749590      -2.76716118
Si       4.63638951       1.92712562       5.38903874      -2.70968276      -0.26032816       1.77693130
Si       2.14096226       4.37032055      12.40783425      -1.25365897      -0.51397209      -1.67053391
Si       5.40590639       7.66965172      21.74452053       0.45514025      -1.68237491       1.20344901
O        8.86329613       5.53470474      22.07797855      -1.90848696      -0.94470655       0.85336232
O        4.01970535       1.32522776      12.39069541       1.56271126      -0.11544994       0.60633845
O        1.50539463       3.91985801       5.45690857      -1.09269079      -0.51276693       0.13397729
O        5.58369221       8.40886360      15.15140289      -0.49689539      -1.85729147      -0.56767410
O        0.64831502       3.63312117      12.14924019       0.35782315      -1.12912795       0.38122117
O        6.42040052       8.79218146      22.34402547      -3.85279564      -0.65363332      -1.38938866
O        9.19487410       6.04127989      14.87993265       1.82542077       2.34385785       1.79915425
O        3.27275994       0.84477604       5.80487060       2.41697615       1.25444363      -0.09603828
O        3.50772140       6.00162707      19.06379458      -0.30407417      -1.34555955      -0.54198334
O        4.07693894       6.02277806      15.16132449      -1.01262147      -0.41691599      -0.58916823
O        6.91025647       3.54971783       8.13924576      -0.83492587      -0.77314067       1.88021514
O        5.94814347       3.13940592      11.99832066       2.45940765       0.25925868       1.29467430
O        1.28929507       8.33848244       8.47563057      -1.40681225      -0.30027392       0.07123927
O        1.77885083       8.42667308      12.15512624       0.74340989       2.19200702      -0.31213435
O        8.44453275       1.16117990      19.27917575       2.43888517       2.43371332       0.49188332
O        7.81382002       0.87592334      15.13716008      -1.01881281      -0.95294624       0.27794356
O        2.48555211       4.37632831      16.64625045      -0.00482162      -0.06005209      -0.92329663
O        5.09908302       7.41631611      17.45394052       0.01383637       0.26934609       2.54717778
O        6.88664047       5.25928992      10.76010077       0.37941433      -0.92305134      -0.34718812
O        4.52888968       2.44133127       9.51426551       2.03496065      -0.26280974      -1.55560216
O        9.61350018       6.93893934      17.66968150      -0.26105019       1.23682668      -2.77464290
O        2.74029293       0.23096976       3.05758209      -0.86555584      -0.56941819      -0.42439035
O        9.61660367       2.35405674      16.64355788      -0.54940839      -1.13126733      -0.26989424
O        8.15082997       8.96085578      24.61105917      -2.03075192       1.24324858       2.57607981
O        9.42272385       8.17478808      22.51552409      -0.67203336       0.04343829      -0.43226837
O        1.52862511       0.85991497      11.92894898      -2.31038940       1.02308709      -0.33278872
O        0.73563836       1.54344843       4.62024234      -0.50101210       0.34393475      -0.35309928
O        8.22021154       8.72654532      15.81775979      -0.07320089      -0.64757048      -0.16989436
O        3.44268072       3.84768602      11.54517986      -2.56487001       2.04287435       0.75627827
O        6.10155166       6.23386199      22.22391525      -1.78277220       1.04304670       0.24634102
O        6.65306039       5.55705693      15.97954452       1.83590545       0.02079001      -0.23711474
O        4.12909408       3.09976131      18.26828887       0.73570259      -0.69284069       0.23523979
O        8.62200410       3.51770864      11.76836338      -0.84652677      -0.04153900      -1.32804739
O        6.47489386       0.93792118       8.05323160      -1.10032232       4.53481231       0.38372574
O        1.45230167       6.35508823      15.21548835       1.68606931       0.71933673      -0.38817301
O        3.34202375       8.64257443      19.13673309      -0.50001430      -0.10637710       0.02453126
O        7.81142606       3.49819268      15.11120059      -0.89408238       2.52070827       0.06616117
O        5.95002309       1.05950599       4.99536260      -0.33091848      -0.65067162      -0.43137170
O        1.95088977       5.99802611      12.18017162       0.23820895      -0.27547348      -0.37653209
O        3.72654420       7.91062118       8.50661478       5.32364722      -2.64442867      -1.20189781
O        7.47582675       5.17920944      13.29939032      -0.84471528       0.58624692       1.23211950
O        4.93677558       2.75047628       6.87339791      -1.81157571      -0.93161859      -2.80517790
O        2.35768576       4.25376552      13.99832028       1.16172791      -0.67574864       2.32863593
O        5.43695752       7.67639858      20.09622978       0.64873031       0.13883300       0.68452002
O        9.66628428       2.14759182      13.77244189      -0.36610022       0.55656283       2.52080709
O        7.54174537       8.70526893      13.27720837      -1.37482819       2.03519872      -0.08049866
O        9.49298811       7.17569749      20.10040420      -0.78833154      -0.06723313       1.33065130
O        2.58628650       0.42093196      14.33439877       0.23406266      -0.07165875       0.88550969
80
Lattice="9.77192453 0.01751879 6.90363604 0.24348012 9.76890588 6.90363604 0.01370155 0.0133883 13.86910312" Properties=species:S:1:pos:R:3:forces:R:3 energy=-576.9690213 source_file=vasprun.xml step_index=500 time_fs=59000.0 time_ps=59.0 file_index=29 pbc="T T T"
Na       8.30331147       5.54437721      18.09187528      -0.35795986      -0.20596945       0.04754072
Na       8.44891974       2.72336591      21.62352788      -0.00070167       0.20610331      -0.17312390
Na       0.68054685       6.37795409       5.84115900      -0.03043848       0.81326887       0.78887114
Na       3.35013415       8.12762898      13.38549830       0.87481763       0.72562714       0.50889041
Na       3.94415216       2.57518148      14.95527640      -0.34943918      -0.12381266       0.35699958
Na       6.50565468       0.67758597      13.32740803       0.13143664       0.09577340       0.06906589
Na       2.45313923       2.24465042       9.48242841      -0.03252573      -0.02621104      -0.83230194
Na       3.96132304       6.36062082      10.44458387      -0.17721057      -0.19723053      -0.13768906
Al       6.62459038       5.05795217       8.86347156       4.48099182       1.72964824       2.20688914
Al       4.55654507       2.83770006      11.52750577      -3.11373942      -1.42144963      -2.30746488
Al       2.64927625       4.55134250      18.45203093       1.17090427      -0.86614141      -0.57339340
Al       5.30842192       6.88580526      15.86365824       1.43104960       2.03884503       0.15349003
Al       0.33715500       2.05123659      11.70035598      -0.48359842       0.62699425      -1.35612114
Al       8.14758805       9.24074263      22.83224967      -1.65487062       0.29523845       0.33792509
Al       9.53611492       7.44068319      15.73896285       1.11426265       0.59860890       0.37881856
Al       1.83754225       0.43143938       4.51262073       0.66681263       0.23281114      -0.33276107
Si       2.62455187       5.48407348      15.19820610      -2.21611702      -1.30140437       3.06412624
Si       4.27908208       7.23686567      18.97944866      -0.46755112       0.02738961      -0.58986985
Si       7.22865463       3.97897556      11.99586856      -2.08597774       4.02380695      -0.83278590
Si       5.41979951       2.38425353       8.42463414      -3.08396640      -1.70273236      -0.76948834
Si       0.87372115       7.23962369      12.02038338      -1.15704600       0.72515198      -1.86642565
Si       2.41494374       9.10768423       8.46724227      -1.24296037      -2.50529217       0.35428794
Si       9.25656738       2.32882553      15.33273328       0.32378268       1.47271253       0.00754114
Si       7.26692350       0.83689535      18.94576570      -1.81604713      -2.00009381      -0.37429241
Si       0.26353044       3.00871252       5.61935936       2.47413783      -2.16338769      -0.30224176
Si       7.03457927       9.31609282      14.64801071       1.36410672       0.91044011       0.72192033
Si       9.34539802       6.51042846      21.65293070       0.40921539      -6.11463297      -3.42378776
Si       2.96067016       0.34637695      12.55707508      -1.85542129      -0.87264083      -0.01906976
Si       7.83136218       5.11069612      14.80101560       1.48669571      -2.20063922      -1.03833519
Si       4.27926656       1.96671688       5.65098638       1.60936820      -0.86408907       1.19547000
Si       2.09561320       4.57572048      12.47468450       0.26218476      -3.45535035      -1.66804121
Si       5.29941299       7.75724778      21.99046527      -1.06024232       1.66623422       0.35292998
O        8.39198331       5.14945561      21.99242283       0.15519421       1.39874570      -0.83539479
O        4.35731135       1.29477234      12.40374123      -2.78775815      -1.39103269       0.71958105
O        0.92114910       4.38768764       5.14674630       1.38249948       1.04750192      -0.59960096
O        5.72620324       8.56072327      14.99773546      -3.14693935      -3.46168119       1.76043002
O        0.67389178       3.75264527      12.27981251       0.89953623       0.07454928      -0.17894340
O        6.42382755       8.91846420      22.25314701      -0.40385759       0.40091466      -1.40164891
O        9.25861937       5.85596869      15.03864274      -0.12995959       0.12960406      -0.57693392
O        3.36986281       0.72698412       5.27705069      -0.12630206      -2.63841320      -0.01377017
O        3.27442808       5.98384207      19.35252984      -0.35401781      -0.02049280      -1.56329259
O        3.77430680       6.54972691      14.96540492       1.58819973       0.67025705       0.21719955
O        6.07021392       3.76576308       8.05511315      -0.09096854      -0.96529170      -1.43230016
O        5.90195525       3.14359839      12.30556870       3.44873967       0.67494739       2.37977372
O        1.23462080       8.04021184       8.06223155      -0.23292843       0.21945599       0.14511582
O        1.55687826       8.72651818      12.22825218      -0.81352690      -2.02204415       0.17246996
O        8.61769538       1.63360406      19.43657721      -0.31803684       0.28138543      -0.48042651
O        8.52443300       0.93920775      15.02527925      -0.84852690      -2.12009243      -0.14932957
O        2.85726217       4.61317967      16.63434414      -0.61819468       1.42567425      -1.60628380
O        5.29465300       7.15689901      17.66449589      -1.04124903      -0.69175458       0.25579187
O        7.13420899       4.73888621      10.56333381      -0.42035536      -0.75778798       0.25810083
O        4.55849514       2.48818366       9.83282592       1.50804911      -0.63516556      -0.98975946
O        9.86322054       7.02001150      17.49094955       0.60261746       0.67891976      -0.27116149
O        1.82965989       0.29239654       2.78537077       0.37973230      -0.36306299       0.17865454
O        0.32935554       2.21256916       9.82390239      -0.64786169       0.20800479       1.27780789
O        7.62685782       9.66403622      24.47597193       1.14667819       1.61814075       0.37216039
O        8.85602938       7.66455803      22.42394202      -2.04903188       6.35551850       3.27562385
O        1.48191689       0.76867808      11.86345693       2.35819922       0.83491837       0.52421642
O        0.95984719       1.84855539       4.65935580      -2.45277149       2.02358064       1.74821887
O        8.33135451       8.64762945      15.42718966      -1.03322704       0.98622190      -0.56284906
O        3.30652781       4.04438216      11.43727641      -1.25023940       0.12710858       1.08646815
O        5.73631999       6.49306501       9.02143480      -0.89331894      -0.17007218      -0.15431405
O        6.74382102       5.80701968      15.68090485      -2.58183604       0.97190455       1.37150765
O        3.70214275       3.14062676       4.82909787      -1.16592513       3.26604798      -0.90071228
O        8.45211533       3.11439802      12.30635868       2.36626165      -3.40132660      -0.05444545
O        6.51708950       1.20727918       8.21114461       1.34912993      -0.87255809       0.51945546
O        1.14617270       6.28706029      15.07196995       2.41525001      -1.04982240       0.30130361
O        3.35624472       8.61715789      18.74345417       0.53850911       0.52459943       0.82507837
O        8.04997677       3.48138541      15.33817657      -0.04506679       1.08885855      -0.14901732
O        5.91234769       1.81557007      19.12928759       0.81216067      -0.06811066      -0.64907437
O        2.17418564       6.11480791      12.07091415      -1.15743692       3.12590489       0.13354231
O        3.67079772       8.05423240       8.67751151       2.52576713      -0.17646520       0.61815513
O        7.39073408       5.07860755      13.21310425      -0.15299136       1.02254770       0.67642098
O        4.16844570       2.13184300       7.31172742       0.73375626       0.05161528       0.47096272
O        2.61655313       4.33437867      13.99735028       0.45449182      -0.11941359       0.77667027
O        5.02981721       7.47567061      20.41065400       1.43553926       0.21460419      -0.09203184
O        0.62709944       2.79035083       7.26333406      -1.29653781      -0.65405731      -0.21800273
O        7.05541273       9.36129269      13.02343575       1.42475799       0.36728457       0.14774429
O        9.41489633       6.77720096      19.90586750       0.11956302      -0.11756262       1.93747450
O        2.54551858       0.31975998      14.22619037       1.79453357       1.73495881      -3.21674513
80
Lattice="9.77192453 0.01751879 6.90363604 0.24348012 9.76890588 6.90363604 0.01370155 0.0133883 13.86910312" Properties=species:S:1:pos:R:3:forces:R:3 energy=-574.64706581 source_file=vasprun.xml step_index=0 time_fs=60000.0 time_ps=60.0 file_index=30 pbc="T T T"
Na       8.31668908       3.67025519      20.03990588      -0.50843631       0.14520613       0.22475525
Na       8.94723074       0.72199307       9.58324406       0.33769716       0.47020443       0.16808318
Na       0.96554309       7.19594721       5.76565648      -0.20154131       0.24388179       0.30513725
Na       3.77657753       8.30327749      13.62441669       0.01380752      -0.16575480       0.64129774
Na       4.02824853       2.47581731      15.65821259      -0.37342388       0.27306205       0.41098850
Na       7.14801187       0.13776246      12.93450698       0.18270726      -0.03315472       0.28975617
Na       2.37215188       2.63065216       8.45943818       0.03774735      -0.22273389      -0.06339242
Na       3.77029972       6.16539398       9.85571849       0.05325179      -0.31002589       0.32006786
Al       7.37545065       5.14234702       8.94003838       0.67664260       4.01516722       4.03711758
Al       4.27470874       3.13730540      11.32895254       1.44374119       0.78879471      -0.39035235
Al       2.28091837       4.59512274      18.17923773       1.84665645      -1.56269800      -1.61938969
Al       5.51106401       7.04589648      15.99547548      -2.70166244      -0.39625989       0.57721310
Al       0.14989564       1.50425236      11.50916011       0.53865138      -0.29901501       0.71824251
Al       7.79774964       9.29085856      22.76707503      -0.74214521       2.64840244       0.43158301
Al       9.65316494       7.52502574      15.79702021       0.11378836       4.01316729      -0.84385148
Al       1.97054076       0.16603379       4.65244369      -0.46292448       2.60276581       0.02438646
Si       2.36637986       5.52311592      15.09439648       1.85852732       2.81698244       5.32798035
Si       4.13354649       7.25897602      18.88121617       0.61267857      -1.78108186       2.26652011
Si       7.23681891       4.24739832      12.06368287       2.83987532       0.66648396       0.84706365
Si       5.53877407       2.76438182       8.15239363       4.30290388       0.54586560       0.75046916
Si       0.66674723       7.31397632      11.88553421      -0.77979910      -0.14722057       3.81607383
Si       2.76050008       9.13079667       8.51776904       0.37229683      -1.41265266      -0.46912109
Si       9.08642757       2.33892259      15.25597615      -2.77427146      -1.65239559       3.91432403
Si       7.00498891       0.50045778      18.92308970      -1.83170595      -0.96176462      -2.51351244
Si       9.71500128       2.44903860      12.40289456       3.32828395       2.34824558       0.47856837
Si       6.88447838       9.46547363      14.67676227      -0.98643470      -1.17264935       5.18511317
Si       9.52414707       7.39515251      21.65263099       1.78993924      -3.35423288      -0.83717722
Si       2.77948798       0.50377439      12.74587272       0.89788873      -2.28745544      -1.76165237
Si       8.04625528       5.32276728      14.97868236      -1.61544916       0.91785794      -3.08515197
Si       4.38888170       2.19821719       5.36331327      -0.86540859       1.71155829      -0.12961066
Si       1.73262423       4.33640244      12.43805220      -0.65614656       0.22120700      -2.40509489
Si       5.48186565       7.36026657      21.74581555       0.14011562       0.26949182      -1.31793058
O        8.57318701       6.04810182      21.94689047       1.05491929       1.43104015      -0.58072085
O        3.62738795       1.70555927      12.14443884       1.18333782       1.69006098      -0.45214703
O        0.98241547       3.66850540       5.00454470      -1.51057548      -1.05499372       1.04197033
O        5.52354841       8.68036938      15.31648291       1.47799403      -0.12225775      -0.89238673
O        0.53572618       3.10038051      12.27375232       2.77574403       1.78503828       0.53996225
O        6.73446187       8.49235306      21.60651963      -1.47668058      -0.75793728      -0.03420886
O        9.42948977       6.14104496      14.94781037       0.81188137      -1.00825139      -1.17149092
O        3.30232408       1.00388802       5.75775796      -0.97494242      -1.15935506      -1.21325162
O        2.78067261       6.22170447      18.67816408       0.71275689       1.10578843       0.71773076
O        3.84004500       6.40835425      15.31050137       0.14188352      -0.98733866      -0.60636228
O        6.90910585       3.80577419       8.22749763      -2.18876788      -5.91320081      -2.73410008
O        5.77321670       3.76340898      12.11575611      -3.82082789      -1.71583873      -0.83049024
O        1.51861881       8.16231099       8.16483895      -1.55382748      -0.77846893       0.27966810
O        1.87928707       8.33619320      12.03113581       2.66027836      -0.17369749       0.23214652
O        8.32819828       1.28532114      19.25455374       2.69838475       0.81502268      -0.24064663
O        7.78657736       1.25710029      15.12249614       0.92108774       0.18614485      -0.39121131
O        2.00858398       4.57161961      16.42827379       0.59533146       0.74455868      -1.14041807
O        5.23871590       7.09317700      17.75094119      -0.26342529       0.62162633      -0.67538577
O        7.84743678       4.85056077      10.73132754      -0.46201240       0.58872700      -2.32435349
O        4.61180527       3.07915938       9.40234059      -1.94327921      -0.33298455       2.54543019
O        9.64539508       7.56016915      17.50216073      -1.40024803       0.57170825      -3.03800705
O        2.19076839       0.21552295       2.91451783       0.65032548       0.53060639       1.35663984
O        0.07028446       1.86101528       9.84278583      -0.19978297       0.98934962      -2.84386583
O        7.12037912       9.49322861      24.37521965       0.72890246      -0.11725381       0.67607692
O        9.38326937       8.71028492      22.52111112       0.19175716      -0.37614215       0.82408990
O        1.49756293       0.24899609      11.83445476      -3.25185516       1.54344335       0.10094940
O        0.27570051       1.05708267       4.68143097       0.58146784      -0.17601208       0.67179310
O        8.37105709       8.93510336      15.20094943       0.41403484      -0.35174985       1.40911991
O        3.16243143       4.53407653      11.51464204      -1.58363932      -1.74900730      -0.67300964
O        5.83097762       6.08959416       8.84207400      -0.16317853       1.06046237       0.63576351
O        6.97950798       6.17788021      15.84640922       0.60513085      -1.06414892      -0.55753437
O        3.78848997       3.32810993      18.19921265      -0.56709794      -0.16440603       0.37460193
O        8.15774582       2.85312372      12.43469905      -0.07337200      -0.87086276      -0.29975252
O        6.22871054       1.23752633       8.20589600       0.48845130       0.58188594      -0.20283950
O        1.34862871       6.77880119      14.97229786      -1.61412856       0.78919586      -0.60814479
O        3.74437657       8.78978710      19.39472784       0.66150916      -1.01097844      -0.43905849
O        8.43644251       3.87525990      15.48597007       0.49533436      -2.60960740       0.42249494
O        5.86152071       1.71471504      18.74471535       0.32335765      -1.23234012       0.06222012
O        0.94577049       5.75586232      12.15176367       0.21140539      -1.09968518      -0.47678440
O        4.12790967       8.16192691       8.59375461       0.16344035      -0.09445826       0.06641779
O        7.55596181       5.26347183      13.30270044       0.36065725       0.23783694       2.25457695
O        4.84563955       3.02181986       6.75443527      -1.76484763      -0.20281547      -0.67195053
O        2.39825168       4.55944954      13.86424636       0.20276424      -2.28253793      -0.28600024
O        5.01512837       6.61148198      20.31034364      -0.90074040       1.91472379      -0.23391300
O        0.45994081       2.30080760       7.20756059      -0.43189689      -0.18038414      -1.77220465
O        7.03157464       9.14451313      13.18223062      -0.88558703       0.49014520      -5.01233924
O        9.48769079       7.82997017      20.04483542      -0.93299042      -0.15130747       0.62607567
O        2.75883556       0.55356201      14.36581079      -0.00610504       1.10378450       0.24707038
80
Lattice="9.77192453 0.01751879 6.90363604 0.24348012 9.76890588 6.90363604 0.01370155 0.0133883 13.86910312" Properties=species:S:1:pos:R:3:forces:R:3 energy=-575.9312365 source_file=vasprun.xml step_index=500 time_fs=61000.0 time_ps=61.0 file_index=30 pbc="T T T"
Na       8.62828208       4.20786154      19.70706486      -0.44971876      -0.20949772       0.31688682
Na       8.68072740       9.41628338      18.33929111      -0.25843155       0.34653595      -0.00029178
Na       0.67123108       6.95222791       5.36021953       0.17336302       0.01794656       0.29149739
Na       3.94922215       8.60405347      13.53842859       0.29294974      -0.25456137       0.32587058
Na       0.48793261       3.22071160       2.68270669      -0.13892916       0.43122318       0.01350187
Na       5.64905085       0.87164354      13.85431786      -0.26366353       0.98214359      -0.36794055
Na       2.71489359       1.96953378       8.34162603      -0.19422154       0.19857567      -0.00756667
Na       3.56667185       6.08500089      10.01039536      -0.15050448      -0.47047861       0.29935510
Al       7.09449698       5.32609381       8.68138411       1.09693901       1.00713335       1.59346036
Al       4.60109338       2.92101910      11.07185909      -0.70036150      -1.78968050       0.18338756
Al       2.86054568       4.46935407      18.29442181       1.03225861       0.25173363       0.06709867
Al       5.14198508       6.94823582      16.08069912      -0.52145885      -0.05502109       0.69909301
Al       0.44686935       1.76569963      11.48421381      -0.28698422      -1.07887210       1.19705422
Al       7.73215103       9.57485538      22.88236239       0.03434077      -0.86523473       0.20725907
Al       9.47333790       8.01311945      15.68021103       0.28696075      -1.89978212       0.39838318
Al       2.27144289       0.23597444       4.15702553      -0.20784980      -0.53946493       3.35360305
Si       2.40708180       5.69731899      15.17269081       0.98911459       2.91360069       2.05932284
Si       4.03722366       6.82993289      19.29560156       1.31421609       0.63947883      -3.89696766
Si       7.46796385       4.12647539      11.76398576       1.45542347      -1.71513330      -2.54579759
Si       5.80047812       2.70811203       8.16922296      -1.90887903      -1.61781969      -0.03457343
Si       1.01704786       7.44397915      11.72826327       0.80059070      -1.91735890       4.52870289
Si       2.58057493       9.12638303       8.23553677       0.06362116       0.19227787      -2.78235562
Si       8.89138161       2.42701212      15.40943057       2.44398787       1.76520886      -0.43001830
Si       7.42648374       0.70369180      19.07731294       0.34517247      -0.68958929      -0.18468662
Si       0.32410937       2.50711830       5.51211874       0.84628208       0.35802368       0.84384814
Si       6.84807346       9.41132979      15.05231464      -1.67447520       1.51376153       2.00608571
Si       9.42052886       7.21281953      21.40324598      -1.83544214       1.06255359       0.03652957
Si       3.09797332       0.09044671      12.28757389      -3.82480207       1.71158578      -0.64120702
Si       7.80221237       5.47852296      14.78255261       0.68385860      -1.01983158      -0.35099989
Si       4.74891571       2.08275625       5.19036325       0.82246156      -0.17975540       0.09776606
Si       2.10740257       4.37956742      12.50102496      -1.95459557      -0.92227328      -0.55586071
Si       5.15356298       7.67024185      21.96720787       0.53319504       0.29072432      -1.66358552
O        8.38780270       5.95507814      21.52194187       0.06232613       0.14585183      -0.98733721
O        4.08966322       1.17656769      11.66568300       2.01820150       1.07193957      -0.11261520
O        1.34275619       3.76305830       5.08981803      -0.91480013      -1.60790527      -0.42739641
O        5.54559119       8.57982782      15.52309727      -0.61594128      -0.10003418      -0.70161729
O        0.93454189       3.17743075      12.38583204       0.83801218       2.65785631       0.25577903
O        6.13507704       8.98271630      22.08054012      -0.10162784      -0.38551616       0.75715466
O        9.15167355       6.50301462      14.90572228      -2.32286208      -1.76785328      -1.45034393
O        3.72377047       0.77855404       4.90949482       1.82106420       1.43129566       0.99965126
O        2.81364594       5.82306770      19.56242711       0.33528946      -1.16822676      -0.50864597
O        3.72156015       6.70628608      15.09947883      -1.47606145      -0.66314080      -0.76487398
O        6.98691819       3.80276815       7.86977475      -1.77399608      -1.73348610      -0.28319854
O        6.15399456       3.15081083      11.77842378      -0.38309572       1.06765565      -0.17612070
O        1.07993892       8.60081587       7.98689686       0.65554761       1.17901462      -0.88774734
O        2.34530612       8.33658811      11.98143577      -0.00960164       1.80001734      -1.77901194
O        8.87466875       1.30926912      19.47560946      -0.44673371       0.22566664      -0.10214240
O        7.69127348       1.43200398      15.17372117      -1.43776289      -2.27457711      -0.13947734
O        2.42461064       4.94898830      16.63265041      -1.03619394      -0.43006945      -0.07785796
O        4.69087027       6.50728339      17.73590117      -0.29852484       0.43246105       2.12997550
O        7.99667894       4.86085154      10.23722297      -1.87158876      -0.71586023       2.15834384
O        4.60505292       3.17816032       9.30628490       1.15354513      -0.09683831      -0.86210248
O        0.34470850       7.39795834      10.33241423      -0.78696903       0.91261943      -0.75280745
O        2.54277974       0.32425868       2.53036686      -0.56660964       1.52769185       0.20009023
O        9.73848534       2.00926283      16.76105933      -0.60440921       1.06781725      -1.94470198
O        7.82423489       9.50452466      24.65871601      -0.72670869       0.38342505       0.00102101
O        8.90744371       8.41111642      22.31207829      -0.48757514       0.96793113       0.59285906
O        1.62311986       0.51754855      11.52149465       1.96562430      -0.93120489       1.23242365
O        0.86212747       1.09705951       4.79324240      -0.77472976       0.65132017      -0.12059711
O        7.99086462       8.79180178      16.05520073       0.73454773       1.37854497      -0.40208261
O        3.28649630       3.97680177      11.52418358       1.24956551       0.23385383      -0.61702171
O        5.65699300       6.41258524       8.96378183       0.86412986      -1.41381142       0.88780277
O        6.44758176       5.96671101      15.55478135       2.32923400      -1.08279844      -1.37278484
O        4.45050914       3.47412984      18.27689167      -2.65873253       0.52654484       0.49653845
O        8.54836714       2.72942699      11.82457337       1.08628334       1.03165569       0.47543745
O        6.17996408       1.19326031       8.67137102       1.79552031       0.08122876       0.57131874
O        1.07055909       6.71432930      14.93671003       3.34820748      -1.99890127       1.04874049
O        3.29602933       8.26701603      19.11427140      -0.05535414      -0.60833967      -1.15167794
O        8.26943297       3.95094154      15.33787494       0.13325101       0.68862215       0.15332300
O        6.41159527       1.96917243      18.74091969      -0.52031176      -1.14570572      -0.10367032
O        1.70704045       5.93587726      12.16100837      -1.54876576       0.77231359      -1.47965087
O        3.49763808       7.82602244       8.49373842       2.24021863      -1.86336876       0.48674420
O        7.53698247       5.05998027      13.05174044       0.50120793       1.54198880       1.99748147
O        4.86953989       2.15093823       6.85737733      -0.94363990       1.34555025       0.31085231
O        2.46245467       4.58201172      14.04799872       0.25728355      -1.76225874       0.34478567
O        5.22273263       7.05904549      20.37719499       0.09711825       0.42885027       1.32332203
O        0.37240027       2.38555967       7.20747665      -1.16883628      -0.32962132       0.15020062
O        7.02862420       9.57121666      13.45992412       0.89687542      -0.09351262      -1.68423679
O        9.59756210       7.91619168      19.89561385       1.09676318      -1.10385195      -2.54420968
O        3.23291911       0.09586188      13.97114881      -0.78836475       1.28617304      -0.19300031
80
Lattice="9.77192453 0.01751879 6.90363604 0.24348012 9.76890588 6.90363604 0.01370155 0.0133883 13.86910312" Properties=species:S:1:pos:R:3:forces:R:3 energy=-576.74530621 source_file=vasprun.xml step_index=0 time_fs=62000.0 time_ps=62.0 file_index=31 pbc="T T T"
Na       8.56396153       3.45571759      20.33550109      -0.04891964       0.12322743       0.47579685
Na       6.37151943       0.63038244      12.40465973       0.47377861      -0.15576232       0.54035010
Na       9.57260557       6.34605899      12.66111412       0.84649450       0.22632604      -0.52134981
Na       3.88565531       8.16917683      13.14587780       0.40830451      -0.05010156       0.37092707
Na       3.23114894       2.52959782      15.68801955      -0.14676332      -0.12762359      -0.08198333
Na       6.12236117       4.92346037      18.07852251       0.21802408      -0.29592767      -0.35776746
Na       2.24508378       1.36857924       8.72648589      -0.14572088       0.22962904      -0.09455989
Na       3.83659398       5.33827594       9.65147166      -0.43843899       0.24569147      -0.24142400
Al       6.91621954       5.14554465       8.66821850       1.74253850       0.32764357       0.32178993
Al       4.61752067       2.78932804      11.25974285       0.99059863       0.72526474       0.00732407
Al       3.01623767       4.59699080      18.44542959      -4.51518641       0.70099877      -1.34638032
Al       5.08553734       7.02043089      15.78968224       2.10331717      -0.42329315      -0.60550385
Al       0.32663797       1.87511312      11.43608956       0.86131629      -1.90992291       1.97039027
Al       7.79324262       9.48754375      22.63262476       0.99744044       2.24123838       0.65897546
Al       9.47787654       7.71925352      15.54233676       0.60722347      -0.82344321      -1.15383343
Al       2.06632065       0.21341887       4.42018454       0.51285440      -0.29937576      -0.62786307
Si       2.36295526       5.63877674      15.21641115      -1.48203445       1.41530163       1.32723652
Si       4.51271318       7.17310302      18.85819512       2.17312243       2.07596057       1.46880300
Si       7.56350596       3.93396618      11.78275829      -0.04956241      -0.36751962      -2.82597956
Si       5.38619228       2.55915903       8.04852039       2.09339868      -0.01479839       0.11407713
Si       0.89451403       7.26326073      11.70713982      -3.07848607       1.76224453       0.37346215
Si       2.49535931       8.92512819       8.03274438       2.71081747       0.83345447       1.28785395
Si       9.10177481       2.58917853      15.50182471      -1.28431407      -0.38083046      -5.25875883
Si       7.24227309       0.67541259      18.88953184       1.72730441      -0.72611218      -0.16831804
Si       0.62845407       2.90839226       5.65697997      -1.26945781      -0.53610408       2.72701999
Si       6.85716934       9.36606261      14.63240822      -1.53767757      -2.38666700      -0.96387935
Si       9.29243828       6.90623130      21.40064056      -0.47798266       3.59051628      -2.69923292
Si       2.99151318       0.21956768      12.22489010      -1.85910065      -0.23385969      -0.05591900
Si       7.73581331       5.20810869      14.57851615      -0.71022113       1.90271970       4.35489331
Si       4.50380948       1.93593367       5.30852691       1.99417832       3.61368494       0.27409047
Si       2.13463161       4.34052179      12.40771460      -1.71902129       1.99120755       2.06346540
Si       5.45159046       7.69386831      21.70892203      -0.66531034       1.19993126      -0.76445713
O        8.36335611       5.64262451      21.52367257      -1.97526063      -1.61876424       0.39325192
O        4.19428018       1.22028378      11.85841069       1.11276578       0.07118061      -0.23300506
O        1.38657781       4.43274571       5.59173276       0.91836402      -2.32923935      -2.08520854
O        5.42975512       8.46078605      14.81562185       1.43171423       0.76166196       0.78774152
O        1.02513363       3.20641073      12.35022569      -0.40974219      -0.31466384       0.67122473
O        6.23758742       9.12137755      22.01932458      -1.55105632      -1.33750140      -0.70263583
O        9.15962379       6.06237869      14.74810237      -1.45381686       2.64925719       0.37770541
O        3.82885218       0.57854889       4.98924150      -1.76361604      -1.82118946      -0.86595320
O        3.79517530       5.85757426      19.16726815      -0.70451588      -1.60479552       1.41014915
O        3.51218866       6.72401103      15.25026398       0.37732977       1.18712312      -1.31608515
O        6.45060731       3.81882749       7.65968469      -1.85404026      -2.37281641       0.06156980
O        6.25360548       3.07000002      12.06675147      -2.61472899      -1.58680478      -0.55192746
O        1.24360603       8.04453353       7.60829530      -1.60034148       0.34315267       0.54189779
O        2.04409898       8.37181624      11.97501029       0.97010037       0.12075944      -0.10949753
O        8.70330634       1.33630214      19.34853458       0.22056217       0.72682772      -0.45638527
O        8.32268451       1.24002259      15.01574479      -0.88213037      -0.35351983       0.99867306
O        2.48093461       5.00589471      16.68813392      -0.11890177      -1.90703246       1.62534054
O        5.33791783       7.01312657      17.51472674       0.49923594       0.48710062      -0.91054875
O        7.46910839       4.45766451      10.20511917      -0.30777026       0.93968089       1.18061362
O        4.55908317       2.78382310       9.44993335       0.40324801       0.11090669       0.40861633
O        9.96376397       7.63843721      17.17821270       0.57620300      -0.69496555       0.84567810
O        2.17509256       0.06006218       2.58280490      -0.14511186       0.00009787      -0.30365792
O        9.79278090       2.62920951      16.87031391       1.50295546      -0.41701422       1.47622130
O        7.74106899       9.77747511      24.36092926      -0.52369956      -0.10402807      -0.02636947
O        8.77522059       8.21831664      22.17118527       0.82830233      -1.60675587       0.20665570
O        1.71313599       0.67399028      11.27453777      -0.28742589       0.37573547       0.43884340
O        1.15379423       1.31078920       5.50126196       0.70945693       1.64538092      -2.14110631
O        8.16608537       8.89764209      15.38057906       0.82727081      -0.77211218       0.74900141
O        3.45975917       4.12058682      11.59504730       1.96465824      -0.84189865      -1.25216151
O        5.60507855       6.33294019       8.77042855       1.60355216      -0.09216784      -0.05989687
O        6.28376049       5.69515170      15.43606126       1.98953142      -0.33346013      -1.76785316
O        4.08181610       3.31593492      18.28317362       0.82081717      -2.86508799       0.13276663
O        8.88666477       2.97424825      11.76788628       1.62311775       0.14864828       1.00884844
O        6.27116228       1.12002988       7.97775652      -0.98644042       3.32359574       1.09118026
O        0.97036777       6.51089376      14.93040438       3.51438728      -1.76012795       1.21537787
O        3.48591362       8.38861447      18.87473622      -0.55693705       1.55627394      -0.58932902
O        8.29039031       3.98476169      15.44145435      -1.88667756      -1.53318741       0.62181835
O        6.21383219       2.01887329      18.80660001      -1.57808442      -1.15835671       1.07078270
O        1.39592865       5.75634557      11.89487609       1.65871264      -1.96123764      -0.04897637
O        3.84471006       7.86691272      21.96917000      -1.73008143       0.93953787       0.33893329
O        7.58400304       5.01155575      13.00641722       0.01595277       0.52230380      -1.75077571
O        4.19845596       2.38758768       6.94635690       0.01183083      -0.51860975      -1.68217492
O        2.61593289       4.54195894      14.05201839      -0.48691743      -1.14214180      -1.62200585
O        5.67889284       7.37307326      20.05842961      -0.19575171       0.36811814       0.62982421
O        0.43390608       2.80738875       7.34192667       0.33597283      -0.02870271       0.15347638
O        7.09979522       9.18763797      13.01311342       0.01935860       1.48266315      -1.58377421
O        9.49178267       7.51091627      19.78030792      -0.04625182      -1.15576091       0.62559462
O        2.87956390       0.31780836      13.87642581      -1.30075232      -0.01358823       0.45921068
80
Lattice="9.77192453 0.01751879 6.90363604 0.24348012 9.76890588 6.90363604 0.01370155 0.0133883 13.86910312" Properties=species:S:1:pos:R:3:forces:R:3 energy=-575.26458093 source_file=vasprun.xml step_index=500 time_fs=63000.0 time_ps=63.0 file_index=31 pbc="T T T"
Na       9.60035575       2.99969569      21.67182228      -0.39534973       0.23389573      -0.32259515
Na       7.60297967       5.93340214      18.09285484      -0.10459704       0.07342958      -0.28976075
Na       9.20497897       7.06822070      11.84280863      -0.30361368       0.07223452       0.10061461
Na       3.57892204       8.58602340      13.38612590      -0.12318917       0.30296258       0.27253038
Na       6.78814633       0.32007686      11.30275225      -0.14073154       0.05864939      -0.13261836
Na       4.21218375       1.47184785      16.29776866       0.51632263       0.39729228       0.23116433
Na       2.02053160       2.59564421       9.11278896       0.00057462       0.02922647      -0.30316295
Na       4.28714877       6.46318129      11.00772716       0.36026251      -0.27691954      -0.89991598
Al       6.95043936       5.27698778       8.69401228       1.16776041       0.53146260      -0.12098107
Al       4.64736830       2.55026132      11.17241489       0.73365712      -0.36759266       3.16502069
Al       3.02274193       4.63670312      18.45828104       0.94765733      -0.96592677       0.81146419
Al       5.05884453       7.30890532      15.98330216       1.88713916      -0.39680194       0.40126097
Al       0.27258248       2.29134374      11.52864067      -2.39978314      -2.44994336      -0.18858439
Al       7.73049107       9.48208392      22.73325654       1.64548819       1.75706783       1.23039811
Al       9.48628205       7.80850659      15.61251300      -0.30619278      -1.76401628      -0.21541206
Al       1.83861337       0.66269017       4.45120368       0.73555725       1.52453369      -1.03387306
Si       2.42438104       5.65400611      15.46815674      -1.99300613      -0.16082590       0.89490264
Si       4.46459438       7.47131033      19.08075957      -3.40498013      -3.66943266      -6.92124257
Si       7.37268886       4.20851111      11.74195680      -1.25535400       0.28792058      -2.91353341
Si       5.60111217       2.47345840       8.40444117      -0.19741207       1.00473333      -3.95181506
Si       1.03330152       7.48734192      11.69450417      -0.39087729      -2.00632160       1.30479611
Si       2.45390492       9.33404474       8.18263753      -0.12263981      -1.29764627       2.61906577
Si       8.58165539       2.66131462      15.33729817       2.65431380       1.84775613       1.78164221
Si       7.36631630       0.51430268      18.87149513       1.66090558       2.18539183       2.40924933
Si       0.36259139       3.17027433       5.71796082       1.81759630       0.85349657      -2.20490664
Si       6.84514542       9.18927150      14.70597584       1.18559787       2.28147230      -0.02218738
Si       9.41102204       7.01881715      21.49231312      -1.62625735      -0.94365597      -1.21891939
Si       2.69244379       0.21032874      12.10727915       0.01939473       0.56363800      -0.40642690
Si       7.55461275       5.52146915      14.68531698       1.06715060      -1.44341921       0.61190364
Si       4.53440628       2.01913627       5.40515499       1.67410785       1.42752988      -2.61774008
Si       2.28290117       4.54762582      12.62711809      -0.31282294      -1.63016824      -3.45283451
Si       5.25511090       7.97298558      21.85984253       0.17797949      -2.63092002       2.84520016
O        8.48883873       5.58541845      21.59618731      -0.92460410       2.04339904       0.05176382
O        4.18263962       0.92175609      11.85154134      -0.44803363       0.47863295      -0.80328259
O        1.74808521       4.14501937       5.74140476      -2.02411476      -0.93360900      -0.20275015
O        5.38698765       8.46076241      14.65898410       0.30174186       1.01514446       0.51757896
O        0.99262232       3.46312775      12.56904588       0.59217211       1.94356991      -0.01603672
O        6.06718292       9.27956280      22.37816209      -0.92454539      -0.35522025      -0.56042902
O        8.98679261       6.36959362      14.59956994      -0.81127387      -0.06719114       0.32959757
O        3.47624418       0.87788326       5.17784641      -2.21094259      -2.17270576       0.64143815
O        4.04271719       5.87772002      19.28824652      -0.35471073       0.55095444      -1.40467035
O        3.47711358       6.83552555      15.65660090      -0.13098604       0.03520055      -1.05681692
O        6.62920404       3.66657551       8.23166246       0.52089646       0.21314843       0.40372719
O        6.49886397       2.74967635      11.58784705      -1.67826160       1.49375708      -0.15058173
O        1.05915957       8.58301119       8.05974845      -0.05618819      -0.08758190      -0.72692132
O        1.93649786       8.80437126      11.83875533      -0.32782515      -1.50604628       0.16085161
O        8.51900475       1.65604356      19.32400038       0.68108855      -0.10200842      -0.57801087
O        7.84410491       1.33139289      15.07909972      -1.56213932      -2.63924637       0.56121956
O        2.31046702       4.84370093      16.88093115      -0.19865734       0.47672936      -1.44521825
O        5.33897303       7.78179045      17.65020906       0.21715317      -0.39275103       1.14336391
O        7.19480671       5.36470932      10.41566944       0.43336510      -2.22035474       3.84673376
O        4.45756043       2.65898461       9.50180348      -1.00944143      -0.26330989      -0.93167779
O        0.19839627       7.26866018      10.33679608      -0.23847350      -0.04349973       0.51829701
O        2.06127885       0.60071422       2.61852803       0.78638694      -0.44625578      -0.87879383
O        9.50343947       2.71439631      16.79592993       0.17320673       0.04851925      -1.18843027
O        8.06009244       9.43650691      24.54840755       0.14989160      -1.37150009      -3.04952197
O        8.94321234       8.44092616      22.10620721      -0.10625575      -1.58966431      -0.30808835
O        1.40032934       0.88545707      11.25708736       1.81878426      -0.21978621       1.06329038
O        0.58711174       1.72973301       5.02509852       1.26380244      -1.32708123      -0.79009161
O        7.94838368       8.59335352      15.73764817      -0.82175182       1.06533487       0.20261480
O        3.52468369       3.72490106      11.83630589      -0.86671690       1.85468538       0.26562394
O        5.74639084       6.52026775       8.78649613      -1.13310262       2.60771955      -1.88262978
O        6.43953057       6.21851979      15.63746668      -0.22451821      -0.40199621      -0.39757522
O        4.03098989       3.12410979      18.10758631       0.64136243       0.43515460       1.12600876
O        8.87160196       3.70568261      11.67405503       2.23512275       0.29309337       0.23926291
O        6.49968989       1.14254245       8.50973958      -0.15185900      -3.60137150      -0.88971691
O        0.98371352       6.40045495      15.09383180       3.59944749      -0.91957094       2.07870411
O        3.09731429       8.31634682      18.77174442      -0.93811842       1.85917059       0.61259565
O        7.67322878       3.99492920      15.43684682      -0.37163639       1.47393440      -0.25087664
O        5.95228592       1.24300486      18.67576698      -1.70699442       1.15855875       0.14224996
O        2.14391479       6.16643749      11.98435217       0.24438635      -1.11041277      -0.19811104
O        3.70150482       8.04116480       8.59906086      -1.68088244       2.59451186      -1.22138255
O        7.26410880       5.05629866      13.11626645      -1.24041985       1.05539016       0.51435905
O        4.79759752       2.66903553       6.83765586       0.10690616      -0.94914711       2.22798445
O        2.63546511       4.64056672      14.13802040       0.97460288       0.97149405       3.67564017
O        5.34947450       7.76036032      20.24692531       3.69202367       2.39622347       4.68120383
O        9.64954931       2.86962068      14.08334526      -0.20765008       0.16448546       2.54530737
O        7.45808417       9.14885455      13.14773695      -0.51571878       0.28419760       1.24754525
O        9.85104960       7.32540385      19.92015916      -1.18992134       0.40983302      -1.20457903
O        2.50041802       0.37037133      13.77084666       0.43822569       0.40208012      -0.10245668
80
Lattice="9.77192453 0.01751879 6.90363604 0.24348012 9.76890588 6.90363604 0.01370155 0.0133883 13.86910312" Properties=species:S:1:pos:R:3:forces:R:3 energy=-576.8065558 source_file=vasprun.xml step_index=0 time_fs=64000.0 time_ps=64.0 file_index=32 pbc="T T T"
Na       8.10919427       3.64818866      20.39191627      -0.19581661      -0.19930418       0.09151070
Na       7.27388110       7.82875966      18.80996205       0.52631716      -0.06558698      -0.25024737
Na       6.72471577       7.31321775      11.71946940       0.07352673       0.13627886      -0.03319750
Na       2.54741642       9.01497318      14.09580320       0.68713648      -0.10170716       0.47075810
Na       2.77696904       2.40544558      15.44107105      -0.09687931       0.07286502       0.01787342
Na       6.45324137       1.73760301      13.38763281       0.42096104      -0.51733533       0.59167981
Na       2.21741836       2.09195176       9.18435048       0.62828927       0.25214490       0.24795289
Na       1.43078167       6.44621991       6.32624540       0.06464967       0.04910962       0.25423443
Al       6.69917507       5.29067954       8.91289717       0.01770681      -0.24456356       0.72644665
Al       4.56471954       2.99962957      11.59831694       0.23326955      -0.96026968      -0.48660088
Al       3.06634565       4.36847368      18.39815265       0.73003083       0.44283350      -0.38248864
Al       5.08466591       6.97136695      15.76836815       0.74676126       1.37787575       0.31467705
Al       0.38988002       2.21398571      11.67829780      -0.99660482      -2.75096271      -1.79111843
Al       7.94363013       9.48188683      22.85789953      -0.87678896      -1.25895050       0.82673267
Al       9.23349913       7.61750263      16.22695815       0.90266379      -0.78511318      -0.88693037
Al       1.98794173       0.30221064       4.48041064       0.23164219       1.81429470      -0.85735741
Si       2.41663700       5.61748939      15.50351953      -0.58104196      -2.55581776       0.30425128
Si       4.46947706       7.25704888      18.91286787      -1.02831128       0.27841200      -0.98935482
Si       7.54802060       4.35934484      11.99373634      -1.77287530       3.64639671      -0.97781628
Si       5.45046535       2.28992640       8.56386289       0.70380384       1.16544595      -0.94569098
Si       0.82769014       7.39004385      12.23136945      -1.35793393      -2.08685713      -2.94356205
Si       2.26642455       9.16538584       8.30458595      -0.59218661      -1.73717470      -3.40062359
Si       9.19507588       2.53075345      15.35779011      -0.00448448       0.12754821       3.35736278
Si       7.32305308       0.50345540      19.04957643      -0.37913569       1.70312278       3.32743076
Si       0.49003989       3.02572993       5.62960576       1.92985378      -1.30968561       1.40587024
Si       6.89538474       9.32003510      14.99606785       4.39068101       1.93397720      -1.68765034
Si       9.30303334       6.87160585      22.01803646       0.56013566      -1.00032212      -1.35167706
Si       3.02322549       0.54259124      12.40992692      -4.13421429      -3.02337012       0.09798889
Si       7.61136292       5.20395390      14.93378508       0.83835964       0.94961362       0.34120784
Si       4.49048615       1.70420937       5.89121349      -0.58570114       0.54515940      -3.74897655
Si       2.00367272       4.46727075      12.65649892      -1.46469963       1.10705353       0.55588785
Si       5.29243127       7.82585491      21.72794382       0.83988946      -1.37048892      -0.53849104
O        8.19646722       5.66197064      21.88648274      -0.26472866       0.55543337      -0.74142816
O        4.30279765       1.42552519      12.63811494       1.98327769       1.84486773      -0.18719919
O        1.47631955       4.28092157       5.26090686      -1.98759280      -0.71003486       0.97830386
O        5.59191507       8.57147506      14.73082086      -4.24279636      -3.33169964       1.68253764
O        0.70089557       3.50403844      12.67633647      -0.21904669       1.25614643       2.17010215
O        6.60584138       8.83995149      21.79665254      -0.83279580       1.20720526       0.05581750
O        8.88458140       5.94473241      15.65379007      -0.74031015       1.40119369      -0.23505989
O        3.46048893       0.50551939       5.34763299       2.22326325       0.39258189       1.22914062
O        3.63088608       5.91825157      19.11973189      -2.02400913      -1.18400647      -0.38571579
O        3.32581702       6.89887435      15.64412445       1.21867005       1.18956511      -0.52815471
O        5.94870851       3.80659740       8.22521122       1.04104067       0.49686404       0.21381783
O        6.16990025       3.59639439      12.17416660      -2.80583249      -1.81600072       0.22095759
O        0.90234211       8.08562669       8.34968369       2.71895797       1.75158065      -0.33857123
O        1.83990137       8.58585302      12.06748541       0.68551515      -0.90828389       0.72556624
O        8.58063171       1.54892553      19.11068165       0.85862364      -0.49072967      -0.11061337
O        8.56992729       1.01367949      15.16149851      -0.72503990       0.72772693      -0.27093693
O        2.64854091       4.40607989      16.63391215       0.59378881       0.84424529      -0.28023267
O        5.29592165       7.11822772      17.54124503       1.25774614       0.52046983      -0.97141853
O        7.32451934       5.29546704      10.62728128       0.54544886      -1.02921239       0.83405588
O        4.76559739       2.27370369       9.97745165      -1.32177698       0.31961285       2.29395058
O        9.50672081       7.72108952      17.92444749       0.11091409      -0.92698212       1.16962385
O        2.23822428       0.31969953       2.67895796      -0.11153738       0.25731870       1.19150249
O        0.14804322       2.56173956       9.97971987      -0.77115871       0.31402754      -2.08927851
O        7.21169314       9.55528541      24.57742668       0.39882705       0.15164492      -2.05673886
O        9.00773200       8.07659598      23.00499091      -0.26222708       0.60476749       0.13737295
O        1.85461327       1.22731514      11.45263705       1.29864061      -0.88729388       0.16000760
O        0.89970343       1.55514642       5.10083450      -0.02881638       0.30447533      -0.69480584
O        7.96161337       8.77598597      16.08959103      -1.00860659      -0.06921269      -0.62739495
O        3.04061690       3.83790864      11.69758426       3.07102626      -1.11331604      -1.72001305
O        5.58584759       6.64540989       8.99689392      -0.81141405       0.87472015      -0.82575334
O        6.09008883       5.64554077      15.23971095      -0.23733348       0.18675238       0.58162266
O        3.98666883       2.93663805       4.89324248       0.22437417       0.22846041       0.77068957
O        8.69236045       3.27324001      12.10277068       1.70934304      -0.96657336       0.31327389
O        6.63125093       1.20055066       8.43764888       0.74181324      -1.65889106      -0.04156662
O        0.87357700       6.05207082      15.52440763       0.17092761      -0.12097102       0.56957201
O        3.54876384       8.66616531      18.72850848       0.28693095       1.57010387       1.34318365
O        7.95632863       3.66281955      15.35841884       0.06597868      -1.96579939      -0.99474811
O        6.16050347       1.74999501       5.81683345       0.14707599      -2.54811838      -1.92643513
O        1.48272339       5.85687675      12.08394238      -0.93561200       3.17749425      -0.72521458
O        3.67722460       8.30763211      21.54410260       0.44876099       0.03879099       2.13774112
O        7.66144077       5.42639312      13.28722171       0.81613164      -0.48827152      -1.23852741
O        4.33096471       1.77150313       7.47754576      -1.92643604       0.50826663       1.63699993
O        2.74371893       4.86675401      14.03884473       0.13524910      -0.57695170       1.65113053
O        5.52636125       7.11281267      20.15530734       0.45223641       1.75280173       1.45447044
O        0.70336848       2.75435962       7.44019079      -1.32689521       0.82939198      -2.29410703
O        7.53466687       8.95947848      13.23061787      -0.05556692       2.62305581       0.75891180
O        9.77932366       7.50231057      20.49137676      -1.44443808       0.00548865       2.37018766
O        2.08709897       0.49440089      13.88821870       0.37807056      -0.75998120       0.99828982
80
Lattice="9.77192453 0.01751879 6.90363604 0.24348012 9.76890588 6.90363604 0.01370155 0.0133883 13.86910312" Properties=species:S:1:pos:R:3:forces:R:3 energy=-575.44975226 source_file=vasprun.xml step_index=500 time_fs=65000.0 time_ps=65.0 file_index=32 pbc="T T T"
Na       8.02446944       3.45747887      19.95910894      -0.17569678       1.34703644       0.68361378
Na       7.40573087       7.86319632      18.59409490       0.02541226      -0.13445496       0.15778058
Na       3.66664883       5.25087940       9.74180500       0.19275229       0.32087443      -0.05995676
Na       4.91648186       8.26298712      12.52898146       0.34166723      -0.36914863       0.37133100
Na       2.68395338       2.60211170      16.73871499      -0.42044268      -0.27523674      -0.70400141
Na       6.23144828       1.92314703      13.87986232      -0.14590027      -0.40482573       0.44504152
Na       2.81823690       0.28489200       9.03842424      -0.25034781       0.12363731       0.03957237
Na       0.65264201       6.42189661       6.69393121       0.02907538      -0.57140955      -0.36476300
Al       7.13425483       5.34935608       8.97963061      -2.85080102       0.16297201      -2.45061512
Al       4.69499699       2.84700698      11.40388764       1.01575266       0.28106275       2.83024685
Al       2.84379154       4.57984354      18.62097686      -2.55666816       2.13130679       2.14068735
Al       5.04321292       7.38690253      15.92455485       3.20764862      -3.23467245      -0.50273686
Al       0.58433043       2.14285240      11.34893212      -0.82778896       0.83445218       0.93836755
Al       7.76622490       9.60829558      23.15424860      -0.82938204      -1.69623615      -2.55799865
Al       9.26659469       7.75240206      16.21808237       0.72457846      -0.92008875      -1.81486171
Al       2.13257447       0.34180277       4.66668415      -1.59082686       0.38578451      -1.46915808
Si       2.42280503       5.83576322      15.60705287      -0.95766126      -1.53991499       0.62250771
Si       4.37435131       7.17980162      19.01407636       0.51504096       0.99230412       1.10165360
Si       7.53184716       4.37471075      12.06782740      -1.04323043      -2.56661896      -1.83394428
Si       5.52434318       2.80703420       8.31668792      -0.37328571      -1.17882851      -0.25352196
Si       0.87193555       7.30441162      12.18171971       0.29189962      -0.50260010       0.21702162
Si       2.41373091       8.94704753       8.38023833      -2.20382011      -0.19744984       0.06916318
Si       8.82376759       2.51245460      15.31180445       1.69062050       3.63942144       0.93676106
Si       7.59431989       0.81959794      19.22948559      -1.38682056       0.66377502       4.14784131
Si       0.26976597       2.78818126       5.67467537       1.44945539      -0.00520830       0.48433436
Si       6.82092776       9.66235274      15.04100458       3.40495313      -2.54719348      -0.21419406
Si       9.54264244       6.98129256      22.03849995      -3.76643429       0.30645926       2.90758552
Si       2.82928889       0.26079815      12.47595595      -0.47897314       0.45485471      -2.78953141
Si       7.63508351       5.46554528      14.76159649       0.96604398      -0.80742949      -0.56482557
Si       4.54035115       1.91417221       5.69691487      -0.93323857       1.60966270       0.17528331
Si       2.36986053       4.54210627      12.76314426      -0.72880891      -0.03767050      -0.68896383
Si       5.27265671       7.79666749      21.92590223       1.12391283      -0.65638341       0.94766133
O        8.55775230       5.60529574      21.97936616       1.96835749       1.85432372      -0.90179170
O        4.06927261       1.35541155      12.34099472       0.86782585      -0.34108474      -0.69442734
O        1.24578207       4.09002406       5.63249121       0.82793376       1.33746128      -0.81792250
O        5.45482402       8.78838643      14.93139116      -0.93495040       0.11175353       1.10385249
O        1.33012149       3.34810724      12.48543403      -1.32695328      -0.51180158      -1.39854328
O        6.20161315       9.08161646      22.29166352      -0.32367140       0.38921294       0.40172092
O        8.82232167       6.13864058      15.57241492       0.85454188       1.84784201      -0.14257515
O        3.74746911       0.46823583       5.41333832       0.19073754       1.46689524      -0.39486652
O        3.37746346       6.04807851      19.58746463      -0.05889958      -1.58401715      -1.51633298
O        3.56234004       6.88922797      15.29737529      -0.08825317       1.04715253      -0.05323258
O        6.35210065       4.03887105       7.78151813       1.33988214       0.61606691       0.64679122
O        6.15870604       3.48582380      12.44950165      -0.19068624       0.48751193      -1.53598671
O        0.93717467       8.07487217       8.14872074       1.14475860       1.35381752       1.90987087
O        1.62448311       8.71023257      12.16298126       0.49987360      -0.36706443       0.27187137
O        8.97008273       1.61623970      19.43313906       0.44242527       0.08911458      -0.82293199
O        7.95067875       1.20494362      15.22177376      -0.91089450      -0.86960976       0.13125491
O        2.53719805       4.92660806      16.94769011       1.07851795      -0.66530725       0.05325801
O        5.43135554       6.99341723      17.69271087      -1.72217521       1.04635869       0.21760610
O        7.37314134       5.01586851      10.55681257       0.52684542      -1.11274839       3.82394937
O        4.75422945       3.13735718       9.68828437      -0.73136067      -0.05865758       1.35160283
O        9.66792576       7.07821253      17.80053338      -0.45628358       1.34567747       0.97106877
O        2.27186975       0.08390957       2.84902429       0.30834190      -0.03826315      -0.32553354
O        9.53477285       2.89355918      16.77509974       0.61233295      -1.68012564       0.67560359
O        7.29449123       0.31973046      17.84228746      -0.49344375      -1.86413590      -2.85842352
O        8.80656633       8.23828512      22.93978006       1.00000964      -1.52552986      -1.43649301
O        1.73113094       0.79322100      11.27946710       0.30871455       0.01904311       0.44389769
O        0.94402173       1.69452932       4.66969031       1.26268288      -1.05084889       0.21630012
O        7.94221246       8.94652887      16.13458850      -1.10102201       0.22225510      -0.53107142
O        3.79502145       4.09906791      12.16276436      -1.33117954       1.58158252      -0.65605610
O        5.67215511       6.45465800       8.92767948       0.37696857       0.00847135       0.12308232
O        6.18753202       5.97763989      15.07922074      -1.95324851       2.10205199       0.46530388
O        3.80132941       3.22276317      18.73356228       2.70679380      -3.87873414       0.34501708
O        8.48951539       2.97499783      12.09507314       0.83232521       0.86508683       0.00534590
O        6.31058478       1.37517081       8.59168746       0.49773938       1.38136930       0.67018288
O        1.07612630       6.65286194      15.99120880       0.64151593       0.22016623      -0.18574992
O        3.28222058       8.45357814      18.70676388       1.68744033       0.97520885       0.84686943
O        7.74038155       3.88479535      15.09886049       0.99930579      -3.72077303       0.05027003
O        6.17055061       1.80808301       5.60097676       0.61048189       0.47582990      -0.53519329
O        1.94414946       6.05613123      12.18447114       0.51290949      -0.31986894      -0.67216109
O        3.61779854       7.84144378       8.27964302      -0.01272826       0.37398605       0.45485408
O        8.21064323       5.43404405      13.09802607      -1.30584600       0.89888829       1.03009623
O        4.35165416       2.29382787       7.30044528      -1.09487761      -0.16759123      -0.59750247
O        2.27737189       4.78954925      14.34631062       0.39063219       0.18137925       1.84666213
O        5.46773447       7.46003092      20.33284299      -0.49184328       0.37477362      -2.63208473
O        0.35527435       2.33425686       7.31925289      -1.69219290       0.30728742      -0.28945730
O        7.48981422       9.47153794      13.49731139       0.10850362       0.65982257       0.12474205
O        9.86030991       7.31539494      20.53489085      -0.02264142       0.57342176      -2.43034711
O        2.30740006       0.18443812      14.00851468       0.20083053      -0.05148805       0.29387172
80
Lattice="9.77192453 0.01751879 6.90363604 0.24348012 9.76890588 6.90363604 0.01370155 0.0133883 13.86910312" Properties=species:S:1:pos:R:3:forces:R:3 energy=-576.09127077 source_file=vasprun.xml step_index=0 time_fs=66000.0 time_ps=66.0 file_index=33 pbc="T T T"
Na       9.16740149       1.70568893       9.58985978      -0.03919779      -0.09596713       0.26492781
Na       5.64458630       3.32015258      16.38038779      -0.16814794       0.38202083       0.59257766
Na       4.70453550       6.60319965      10.70420668      -0.21543675      -0.65237712       0.24456759
Na       1.00578862       9.35164941      16.95406033       1.00652479       0.43238836       0.87009292
Na       8.85467182       4.18763295      20.29375397      -0.23626353       1.13214663       0.88719971
Na       6.78571509       1.11837004      13.38379062      -0.39077878      -0.39496973      -0.18253131
Na       1.76714663       5.96786948       7.25622926      -0.27294666       0.06961862      -0.07767655
Na       3.95887176       8.58371975      14.12978226      -0.03325507       0.46266450      -0.28647406
Al       7.47493321       5.26472563       9.19296776       0.08568017       0.13228701       0.01917907
Al       4.67646309       3.10187264      11.78751366      -0.49554895       0.17911640      -0.65837164
Al       2.98996673       4.78051177      18.57448842      -0.66346254       0.05795419      -1.15362861
Al       5.64323426       6.91559094      16.09366275      -0.18042365      -0.71283021      -1.56727798
Al       0.47116027       2.33312693      11.71043174       0.53541759       0.18042535      -1.67632400
Al       7.86345227       9.56765317      23.24578205      -0.33960744       0.64173807      -0.25139482
Al       9.69384157       7.85756265      16.16228021      -0.28964406      -0.15114005      -0.57796336
Al       2.19304493       0.31074315       4.58459786       1.97770383       3.10503696      -0.82398363
Si       2.74206827       6.00893338      15.47620210       0.38126023      -0.60060051       0.87107858
Si       4.39605433       7.53959342      19.05560280      -1.49798942      -1.19031972      -0.13095959
Si       7.54003631       4.04046961      12.16865855      -1.01943815       2.92685974      -1.40985158
Si       5.77283416       2.66059377       8.77980925       0.64051750       2.16880523       1.22505044
Si       1.27245598       7.57177845      12.11524670      -3.80837927      -2.29295902       1.75783218
Si       2.73302039       8.81038218       8.40124225       4.07826175       2.19072022       4.67796781
Si       9.24733744       2.38656434      15.36203873       3.00035762       0.32735219       2.25787377
Si       7.62281017       1.10530643      19.34514248      -1.34792837      -0.35375933      -0.22415602
Si       0.55706352       3.04822595       5.54254561       2.25105205      -0.73280247       1.04952021
Si       7.16586462       9.60125342      15.24223249       2.31009556      -0.09952334       1.09610310
Si       9.88437257       7.33220174      22.02758124       0.02912244      -3.93092699       0.65473092
Si       2.89148285       0.57549241      12.62182016      -0.76725734      -5.00382091      -0.77422759
Si       8.02755637       5.26282656      14.99505354       1.49035024       1.78670165       0.84876479
Si       4.70668123       2.06583267       5.73450538       0.71546540       2.14763108      -0.01376722
Si       2.36303064       4.82259542      12.65294914       1.79744236       3.81494230       1.02795630
Si       5.62672171       7.71697822      22.03356770      -2.31933867       1.88017099      -1.18826785
O        9.14151231       5.92466208      22.53273845      -1.48355904      -0.69976175       0.09440715
O        4.03644223       1.60592368      12.72269882       2.46138513       3.17882906      -1.28027619
O        1.24959827       4.47231231       5.33509376       1.43364648       0.93623717       0.16209033
O        6.07080030       8.44017098      15.25100727      -0.58736773      -0.59363834       0.66729893
O        1.16250274       3.92142556      12.18659117      -1.04456240      -1.57629300      -0.75659561
O        6.23116464       9.10968171      22.67971651       1.72802163      -0.48753111      -0.20272682
O        9.10400767       6.55183889      15.20955091      -1.29295143      -2.92465726      -0.77586319
O        3.82147368       0.74959056       5.45919772      -0.36450291      -0.24010931       0.01038076
O        3.48477895       6.18634726      19.54352311       0.07654148       1.24809395      -0.09317386
O        4.23486291       6.52243475      15.02814452      -0.62995246       0.30224514       0.33994994
O        7.16980706       3.68048455       8.38769083      -1.37619175      -0.80389664       0.77473753
O        6.35219161       3.00060702      12.17372613      -0.52691201      -2.02635999       1.96139706
O        1.38722638       8.10121384       8.36373855      -2.21555658      -2.10822525      -0.44519842
O        2.05118008       8.81659858      12.62161059       1.22930541       2.20004686       0.27838981
O        8.83457528       2.16634679      19.66505919      -0.18485166      -0.55906537      -0.37113497
O        8.11543586       1.21262561      15.24445362      -0.20885698       0.17210017      -0.18628733
O        2.83766832       4.95282295      16.73522829      -0.01217202       0.99149435       1.04939701
O        4.98330507       6.95193274      17.64572358       0.91392444       0.84206264       1.75143567
O        7.03020696       4.97989970      10.91709712       1.65189572       0.78302139      -0.84609538
O        4.70003739       3.22944036       9.98016538       1.30984669      -1.08521406      -0.83425183
O        0.22817923       7.81347573      10.93361530       0.32428913      -0.12655946       0.90818368
O        2.53232224       0.16591131       2.81609690      -0.72891796      -1.54431272       0.15251640
O        0.39109389       2.11575109       9.92136234      -1.45097025      -0.07942343      -1.66414380
O        7.87086636       0.25025163      18.00812555       0.68559446      -0.76062031      -0.77404117
O        9.10908525       8.41501452      22.85051736      -0.90221252       1.98543523       0.21847344
O        1.48960845       0.99432226      12.03131425      -0.31567932       0.17494221      -0.07089328
O        1.30488644       1.91723050       4.69712529       0.19222944      -2.11991539      -0.50982903
O        8.55968397       9.13666003      16.13524089      -2.34245116       2.23805590      -1.60107833
O        3.98736382       4.66979928      12.40991275      -0.81463566      -2.24111082      -0.61259935
O        6.05582586       6.26398951       8.62441876       1.99457604      -0.71830964       0.66357259
O        6.73482559       5.47673200      15.91307884      -1.44979144       0.89879457       0.70304784
O        4.11886670       3.46961326      18.86542308       0.52881340      -1.44245965       0.77029989
O        8.83616539       3.06235625      11.87256354      -1.95112625       0.64335073      -0.18071273
O        6.46601645       1.23067362       9.18032572       0.96311813      -1.48432528      -0.14721048
O        1.70820794       7.41302748      15.55197312       1.57506187      -0.94562474       1.38237429
O        3.42964162       8.83930143      18.53083263       0.91131279       1.28215378       1.84183750
O        8.65937413       3.86479444      15.60900347      -1.21831170       0.87982637      -0.33626300
O        6.29132896       2.01218463      18.84609758      -1.19916438      -0.22081029       1.69471792
O        2.29341116       6.39328339      11.73544896       0.34244539      -2.58865301       1.18277767
O        4.05615630       7.74263019       8.72373235      -2.25296123       0.50903759       0.15951735
O        7.50790410       5.14998310      13.43841440       1.19370219      -1.59325556      -0.51351701
O        4.98300311       2.25629588       7.45797152      -1.41750430      -0.15444804      -3.59450265
O        2.08981507       5.06883442      14.29762727       0.12251584      -0.22814671      -1.81464810
O        5.33537865       7.95451878      20.40696781       0.64252599      -0.14103829      -1.60179700
O        0.51660781       2.69586064       7.17253384      -0.89758897      -1.11710020       0.53041014
O        7.54530605       9.76231878      13.61415372       0.05174703       1.67649058       0.19232781
O        0.30994507       7.12383395      13.57267646       0.02875534       0.77155362      -4.34733459
O        3.00316974       9.66562849      20.98955949       0.32557296       1.10483490      -1.30676237
80
Lattice="9.77192453 0.01751879 6.90363604 0.24348012 9.76890588 6.90363604 0.01370155 0.0133883 13.86910312" Properties=species:S:1:pos:R:3:forces:R:3 energy=-576.45333072 source_file=vasprun.xml step_index=500 time_fs=67000.0 time_ps=67.0 file_index=33 pbc="T T T"
Na       8.46570692       1.51519631      10.56205304       0.03527502       0.03345508      -0.06326352
Na       4.47109692       1.91556176      15.94438429       0.21059895       0.27341323       0.12220275
Na       3.82763136       6.28518273      10.10833447      -0.05538136      -0.53539975       0.06588395
Na       1.41310776       0.26792645       9.70221657      -0.04896549      -0.27911946      -0.02610211
Na       8.88846282       4.17789316      20.97263421       0.07305597      -0.47946536       0.25147514
Na       7.36627472       6.19038623      18.85938191      -0.10773466       0.51508698      -0.42377095
Na       1.20992476       6.42277128       6.50717763      -0.01579821      -0.17380991       0.17600959
Na       4.80517124       8.31819848      13.54330437       0.25565637       0.25037965       0.18038751
Al       7.34877292       5.42913061       9.61204720       0.16362397      -0.11268093      -2.00914444
Al       4.68957896       3.11211022      11.82796985      -1.65125546      -1.25962023      -2.26573328
Al       3.11448829       4.75811984      18.34246135      -0.65766105       0.94782249       2.42635688
Al       5.78752043       7.12485931      16.30836030      -2.33726594       0.39414721      -1.25225130
Al       0.35636200       2.18208407      11.93999628       0.63342900      -0.17057475      -2.37667236
Al       7.89201173       0.02844349      15.85933739      -1.43961907       1.77059876       2.20682303
Al       9.79525897       8.10532284      16.09801325      -0.87631885      -1.51880939      -0.39750025
Al       2.14951416       0.39093696       4.87981396       0.02761451       2.07923701       2.39658080
Si       2.89126734       5.95348292      15.27982493       1.31641378      -0.04401576       1.68549123
Si       4.51549347       7.57952475      19.25226605       0.06922413       0.00238926      -1.07475370
Si       7.55259642       4.27325446      12.35415615      -1.40191705       3.39514499       2.49415374
Si       5.82655407       2.64841743       8.66722693       1.54109220      -0.35769155      -0.29154827
Si       0.65550683       7.60533065      12.13831467      -0.63984329      -2.75098342      -1.45663749
Si       2.96796976       9.15391108       8.85952250      -1.49839789      -0.51736375      -1.36437926
Si       9.34086029       2.72409832      15.68206856       1.89943869       3.81514816       1.00674325
Si       7.49066651       0.89360341      19.00345703       1.58318151       0.74663708       1.16000512
Si       0.55569095       3.06123119       5.66748806       1.48271051       0.25357284       2.01272629
Si       7.36298388       9.66549601      15.04119588      -0.72486125      -4.21073361      -3.75558711
Si       9.73204046       7.25789454      21.97479534       1.36069774      -0.62277703      -0.56595311
Si       2.84833780       0.66215544      13.01960828       2.40714279      -0.80151810      -3.16882765
Si       8.05376769       5.56282360      15.36637866       1.73437598      -3.44229267      -1.16186579
Si       4.77851533       2.23654858       5.58507075       0.68694004       0.14556007      -1.29607551
Si       2.05960332       4.90804600      12.37775290       2.32577299      -0.78191768      -0.21983282
Si       5.68858151       7.88479837      22.00571189       2.17234248      -1.72329931      -0.94344533
O        8.89607540       5.97253727      22.66381411       0.77316727       1.59854557      -1.22001113
O        4.10817576       1.68790414      12.71021214      -1.53814093       1.19901435       0.22824384
O        1.56913397       4.32199041       5.35882569       0.23178139      -0.35136362      -0.30042345
O        6.37574192       8.36432126      15.25702430       0.73429568       1.50059340       0.22743215
O        0.90349444       3.79633614      12.41641181      -0.85763448       0.05191112      -0.03017958
O        6.45320390       9.19979580      22.49310355       1.31443707       1.17038978      -0.64193993
O        9.30603729       6.57321575      15.31699952       0.17739480       0.87374882      -0.20444842
O        3.80344293       0.92777523       5.63615468      -1.72294408      -0.70503530      -0.06636519
O        3.44315903       6.39167628      19.24733760      -1.07742936      -1.24085534       0.34527529
O        4.34271783       6.80317549      15.25724103      -1.93478332      -0.76473829      -0.86648869
O        7.08071148       3.72476855       8.91819779       0.00999475       1.15196463      -0.69466783
O        6.23494268       3.33999332      12.47146877       1.38016834       0.57995829      -0.23658664
O        1.71210656       8.12460255       8.70811760      -0.15882517       0.64557812       0.39095303
O        1.44270002       8.86543533      12.47356986       2.71803959       3.10726151       0.67541952
O        8.60609967       2.01266301      19.62747300      -0.00917892      -0.42233841      -0.32099223
O        8.29015330       1.67189008      15.33439761      -3.21769400      -3.33763071      -1.17689641
O        3.06104428       5.05954900      16.71229123      -1.14188534       0.92949694      -3.99625463
O        5.36566270       7.46302708      17.91494748       0.91029451      -0.00800899      -1.06327272
O        7.64999625       5.47704447      11.26027699      -1.18418200      -0.14141698       0.81025279
O        4.85593793       2.80781222       9.90128290      -0.86773728      -0.10464477       1.51583889
O        9.36744285       7.78066101      17.82106816       0.54478970       0.31450897      -0.67481836
O        2.74441563       0.20780313       3.32801498       0.94510088      -0.66469125      -1.98517427
O        0.38823826       2.21829079      10.11608011       0.30621681       0.21235027      -0.04744527
O        8.08188995       0.10452350      17.72128636      -0.62633090      -0.13773998      -0.23643514
O        9.44070959       8.86899073      22.24356483       1.16461705      -2.91607974      -0.18359780
O        1.47817075       0.72736235      12.00667057       1.51313993       0.78802308       2.51708872
O        0.87523269       1.65814060       4.88752066       0.47512236       0.24841941       0.15347156
O        8.85840311       9.38791108      15.39734377       2.86946940      -0.59761122       1.35975771
O        3.44474385       4.36830577      11.64390477      -0.29266747       0.62076101       0.08906253
O        6.12693613       6.60829816       9.10722855      -0.30417903      -0.22208448      -0.73270971
O        6.76224731       5.75514641      16.22826416      -0.65886093       0.71525399       1.61158716
O        4.30158640       3.51943171      18.50013642       0.41006004      -1.56834635       1.13689352
O        8.88016585       3.50321134      11.92677361       0.88702802      -2.00577379       0.51366244
O        6.81861940       1.17667787       8.89585015      -3.08855093       5.55229295       2.00678002
O        1.67580645       7.07805296      15.29973640      -2.19964891       0.57695244       0.46773236
O        4.03106213       9.08572481      19.44239320      -2.74955355       0.92628486       0.65176546
O        8.55486695       4.16040756      16.15955620       1.52458560      -0.90134141      -1.13286370
O        6.22278301       1.80865378      18.68736096      -2.40991577       0.99047926      -0.77812680
O        1.90049073       6.45843828      11.81010213      -1.36428131      -0.14585620      -0.45839907
O        4.15593928       8.04001983       8.59558196      -1.80539827       0.90444294       0.38958511
O        7.61469775       5.15672368      13.83085522       0.42833169      -0.97925054      -1.47966810
O        5.09913881       2.70080978       7.11357047       1.15586270       0.23192126       2.55580426
O        2.41376513       5.07561655      13.93885254       1.14422843       0.38115752       2.70852042
O        5.77078021       7.50679827      20.28706986       1.08785630      -0.39971693       4.39527078
O        0.60900072       2.90651124       7.40891559      -1.00171156       0.12421301      -0.93464534
O        6.98253099       0.13106747       6.50996459      -0.20508824      -1.04458119      -0.41777966
O        9.49479973       7.09661590      20.25382387      -0.59649004      -1.06728342       2.23866964
O        2.72218008       0.61107529      14.65671234      -0.25036832      -0.52852554       0.79646709
80
Lattice="9.77192453 0.01751879 6.90363604 0.24348012 9.76890588 6.90363604 0.01370155 0.0133883 13.86910312" Properties=species:S:1:pos:R:3:forces:R:3 energy=-574.40937717 source_file=vasprun.xml step_index=0 time_fs=68000.0 time_ps=68.0 file_index=34 pbc="T T T"
Na       8.27467692       4.54523295      20.26237480       0.29911415      -0.11665413      -0.87384333
Na       9.00605455       1.38917053       9.87425392      -0.71734427      -0.24612645      -0.27455547
Na       3.20365216       4.87373484       7.73855977       0.40511526       0.64424653      -0.23223698
Na       5.00571865       8.02579677      12.94116887      -0.17037043       0.13390893       0.32551923
Na       2.98980510       2.53720379      15.76236890      -0.32754884      -0.74448633      -0.32282382
Na       5.91793950       1.20378810      14.24723690       0.30796598      -0.11763773      -0.53994202
Na       2.69189553       1.98894527       8.67367892      -1.07644799      -0.72341445       0.59342394
Na       9.43266808       6.23115217      11.71795514       0.20910366       0.19807775      -0.14857826
Al       7.00395384       5.11092241       9.00927582       1.38000332       2.41284358       1.63395377
Al       4.37566156       2.95500728      11.73771223      -0.06245124       0.23598020       2.03748067
Al       2.67987566       4.55669849      18.58591324       2.75867314       3.31937038      -1.60805380
Al       5.39716532       6.75092245      16.06012607       0.27059858       3.59894061       1.06552951
Al       0.40673675       2.30981562      11.59982856      -0.08617456      -0.94019863      -1.99798445
Al       7.81501857       9.30679044      23.19590827      -0.41861090      -2.49244374       0.95775037
Al       9.45911019       7.54109568      16.25840181       0.56145566      -1.64766374       1.43227187
Al       1.77722981       0.45971529       4.58695067       2.01529519      -1.86211050      -0.72443007
Si       2.65232231       5.48420790      15.52305864      -3.19221633      -0.64319300       0.86641534
Si       4.30979806       7.50095389      18.91878420      -0.63410736       1.04135148       0.16483885
Si       7.28442146       4.26995896      12.21891298       2.28606283      -1.05803797      -0.60840291
Si       5.64442460       2.35035077       8.86132167      -0.81723365       0.38283737      -0.21182623
Si       0.64354755       7.56257176      12.36171274       0.36245054      -1.85757008       2.40212450
Si       2.50117509       9.00412254       8.67491799      -1.73035014      -0.17138723      -2.44321421
Si       9.05808640       2.09961618      15.49042648       1.71271192      -1.44556580      -1.92694845
Si       7.36148699       0.81611917      19.04121007      -0.75315590       0.99058384       0.93975518
Si       0.36885576       2.75596930       5.61878660      -2.96536966       2.47078634       0.50642193
Si       7.12922635       9.46132176      15.16252270       1.23944877      -0.29618561       0.02560144
Si       9.51693806       6.88894366      22.20410509       1.43790418       0.86614318       1.16817813
Si       2.75233838       0.45525379      12.83968122       0.93011679      -0.70723351      -4.65899095
Si       7.90602192       5.12271416      15.06571215      -2.18993414      -2.83943253       2.76211585
Si       4.34382989       2.09707110       5.75239564       0.56641586      -3.27076894       1.34476457
Si       1.95976261       4.72232919      12.64445947       0.90192972       0.79834272      -2.00471629
Si       5.26630575       7.61919704      21.86537156       0.03328339      -0.00295757       1.13427484
O        8.57006342       5.56772602      22.17528201      -0.44485337      -0.20957195       0.56457539
O        3.98153654       1.56643768      12.82601384       0.11226641       0.06834899       0.83509640
O        1.13303676       4.26652217       5.20359591      -3.84900999      -2.18344391       2.57736065
O        5.99800635       8.32784159      15.13622215      -1.39352156      -0.45782521      -1.01510992
O        0.64790387       3.97981585      12.11819757      -1.92192561      -1.34014435       0.51489559
O        6.34192733       8.63791324      22.47492281       0.22310694       0.74191888       0.42964647
O        9.17507405       5.92774697      15.40871715       2.15045439       2.69259081       1.33287766
O        3.21232376       0.95602147       5.30067776       3.17537940       1.56177643       2.18945861
O        3.25818889       6.26461066      19.19876929      -0.51394766      -1.21941818      -0.30214553
O        3.92539796       6.40694493      15.26770336      -0.77919869      -0.45922860      -0.55097327
O        6.65938625       3.56328131       8.61776113      -0.43656546      -2.43521152      -1.40347258
O        5.91550970       3.50869164      12.42179635      -1.30528907       0.02221424       0.08658057
O        1.25910086       8.07823313       8.80591358      -2.56436109      -1.79627681       0.29227220
O        1.38619014       8.98393054      12.40296070      -0.73957679      -1.22759451       0.33249999
O        8.48687405       1.94979973      18.74072259      -1.05135880       0.02295485       0.72124879
O        7.98943146       0.80212879      15.27939399       1.21468322       3.36929525      -0.41088416
O        2.64822637       4.35770041      16.83210751       0.91588330       1.70256788      -1.57390982
O        5.34540811       7.23855702      17.73936201       0.02961482      -0.74772691      -0.72314393
O        7.68754755       4.92259440      10.72004792      -1.62639371       0.70900750       1.56309401
O        4.64318223       2.66336966      10.11179258       0.30592871      -1.04575323      -2.81877575
O        9.51709321       7.07105821      18.10910149      -1.81158245       1.11180428      -4.11108717
O        2.23271617       0.27208562       2.91324044       0.60096820       2.35587316       1.50175315
O        0.48273107       1.96614219       9.67182159      -0.34054249       0.66240998       1.50319333
O        7.72402942       9.30876785      24.96714727      -1.06557450       0.86547068       0.05062572
O        9.09160433       8.17877085      23.09544581       0.67956654      -2.21591782      -0.16044241
O        1.42993084       1.03900830      12.15578170      -0.29741330       1.22689722      -1.07522238
O        0.82943499       1.77936609       4.40330602      -2.57200532       2.81006634       0.47633621
O        8.28355926       8.82428917      16.10929819       1.09940111       0.29512976      -0.49117608
O        3.10506720       4.12672228      11.63882416       0.33527716       0.39790410       0.64914446
O        5.70650401       6.01443358       8.19488609      -0.95439587       0.89084532       0.97513419
O        6.49626267       5.57756849      15.79348290       2.97019324      -2.62167876      -0.79369637
O        3.77709829       3.54379106       5.51997002       0.68146742       0.41229421       0.34245081
O        8.43652856       3.08126363      12.46061618       1.81974297      -0.58138372      -1.07069056
O        6.62285264       1.08599651       9.15605192      -0.43802322      -0.70263411      -0.63245777
O        1.31573402       6.52748968      15.86062503       0.63855401      -1.60588477      -0.76062309
O        3.63187321       8.98990497      18.60105379      -1.57262255       1.04355725       2.08373343
O        8.18684341       3.41158036      15.41763155      -1.40607500       3.03147555      -0.12755009
O        5.76956582       1.59705277      18.95168377       1.12298647      -0.15637435       0.21798963
O        1.75833511       6.31962633      12.37860060       1.65860417      -0.00641612       0.97833001
O        3.76128243       8.09397112       8.62964150       3.57102295      -2.47328181      -0.11347034
O        7.67646188       5.24556060      13.51373184      -0.89136314       0.59694048      -3.97667984
O        4.58067906       2.12846506       7.55227966       0.28626102      -0.15470798      -1.16361253
O        2.35072720       4.35676298      14.20052281       0.39999719       1.36188296       2.17730653
O        5.10845164       7.89972472      20.31728532       0.15569860      -0.33643572      -1.31547422
O        0.41658131       2.13185049       7.15305666       0.33873497       0.33144342      -0.13032065
O        7.45670361       0.23953632       6.73539658      -0.92023054      -0.50786164       1.20561748
O        9.54603331       7.24903451      20.66650276       0.62962878       1.22735988      -2.43473033
O        2.04750289       0.10354049      14.20938619       1.24059425      -0.92511540       2.77235543
80
Lattice="9.77192453 0.01751879 6.90363604 0.24348012 9.76890588 6.90363604 0.01370155 0.0133883 13.86910312" Properties=species:S:1:pos:R:3:forces:R:3 energy=-574.92182787 source_file=vasprun.xml step_index=500 time_fs=69000.0 time_ps=69.0 file_index=34 pbc="T T T"
Na       8.06127760       4.12949942      20.02824086       0.21783009       0.01661289       0.02714557
Na       8.36399937       1.26320078      10.65539918      -0.06604376      -0.69295934      -0.93930106
Na       3.51103788       5.01993755       8.39105136       0.26115180       0.18768146       0.14251446
Na       4.28462967       6.81759951      13.29464488      -0.10031170       0.23865959      -0.87535215
Na       2.45709822       2.51014445      15.99082208       0.24801829      -0.01331678       0.16230760
Na       6.50878659       1.17566105      13.59511580      -0.37019964      -0.33150068       0.13382822
Na       1.29425542       9.45416588      16.26523381       0.56143114      -0.00558761       0.14481210
Na       0.38466086       6.43385947       6.10965881       0.25059783      -0.05517944       0.11088101
Al       7.26225483       5.14435766       9.18470096      -1.46077438      -0.45667484      -0.25623183
Al       4.46710915       3.09546559      11.54222044       0.93148579       0.78139964       0.97638185
Al       2.58095528       4.75627830      18.55928236      -0.78973560       0.55118540       1.49266205
Al       5.45838415       7.00260205      15.97221905      -0.60550861      -2.84347351       0.66816108
Al       0.28377872       1.78921905      11.69083438       2.28667267       2.74206758      -1.19457235
Al       7.79702102       9.53389925      23.04554702      -2.34188143      -0.78985731      -0.27527018
Al       9.41152385       8.03341746      16.01148334       0.73690377      -0.27392519       1.36032066
Al       2.28817788       0.25756668       4.61226162      -1.39268313      -0.89866386      -0.32016938
Si       2.36855333       5.85909245      15.57002509       1.70419481       0.45656174       1.05841966
Si       4.15368941       7.21944579      19.08712846       1.35557133      -2.46335137      -1.47316392
Si       7.57094672       3.82855609      12.31434956      -1.82173510      -1.49070204      -1.30745857
Si       5.55448315       2.62575904       8.60773806      -0.42045683       0.28130246       1.31346705
Si       0.79172796       7.49437984      12.04408469       2.10263543      -3.08116366       3.51571959
Si       2.59159516       9.08437849       8.48016817       1.09945534      -0.22078095      -0.66178915
Si       9.20534799       2.34306704      15.57174031       1.42573654       0.63691238       1.50151801
Si       7.14486708       1.01632811      19.00373990      -1.98462880      -0.44357776       0.03298062
Si       0.50715373       2.67158901       5.80702560      -0.15192305      -0.68873574      -1.69914024
Si       6.88657819       9.52935688      14.94990306      -5.02435829       1.26538113       0.10597854
Si       9.54350526       7.17497660      21.98004920       1.51292435       0.52066468       0.00837576
Si       2.93951824       0.41881003      12.57152004       1.66187106      -1.92554471       2.11620950
Si       8.29191193       5.20552408      15.09935626      -4.11823955      -2.58777792      -0.24446845
Si       4.20075712       2.29255892       5.77184208       3.00635561      -2.48359934       0.07955435
Si       2.00859775       4.65204661      12.60066777      -4.11503258       0.19965180      -0.01371156
Si       5.28485547       7.65882001      21.84679658      -1.02597219      -3.24062116       0.30189215
O        8.53634678       5.97216967      22.08689068      -1.04146269      -2.49536840       1.32161702
O        3.89350873       1.55902795      11.99092096      -0.00340134      -1.26627689       0.55526278
O        1.13907635       4.16868693       5.73319565       0.64424661       0.23784868      -1.59885420
O        5.64303396       8.40512078      14.94948309       1.39488962       0.69077799       0.25257377
O        0.71873571       3.59010328      12.25416520       1.91155951      -0.00658045       0.65044410
O        6.31152528       8.85712414      21.74197215       1.95303524       2.40803642       2.51879906
O        9.08841627       6.51206298      15.23527240       3.02604887       2.38552600      -0.39530307
O        3.38077527       0.91755887       5.68729238       1.12163430       0.43597645       0.92303516
O        2.87599280       6.25862405      19.52669588      -0.12308153      -1.23045963      -1.09114089
O        3.85644186       6.44574548      15.34618817       0.16814000       0.30158394      -0.53385668
O        6.88268033       3.48521176       8.27036528       0.90629676       2.21347785       0.30867292
O        6.05417013       3.04449273      12.42135857       1.94760522       1.32691177       0.21976286
O        1.05161057       8.74312710       8.22216768      -1.36263344      -0.88832590       1.02708615
O        1.85190240       8.59489470      12.40347681       2.06676496       2.31072639      -1.25788291
O        8.44158062       2.03055186      19.01968668      -2.30152410      -0.98580115       0.84073600
O        8.00706255       1.23292646      15.36152383      -0.05444794       1.86294871      -0.63366782
O        2.50678132       4.80416954      16.83921047      -1.45070518       0.28138900      -0.99242941
O        4.90835123       6.82227499      17.67206103       0.25118789       0.60366195       0.60913804
O        7.67097042       4.60916322      10.92309201      -0.35625967       1.42091815      -2.09630698
O        4.72910535       3.40461798       9.87121265       0.60736354      -0.90219514      -1.84321089
O        9.41162369       7.79058565      17.97335697      -1.54766569       0.85580292      -5.25876951
O        2.77133969       0.11794047       2.87314658      -0.89667841       1.39738894       3.08888942
O        0.38991139       1.80082707       9.89998664      -0.58828854      -0.43791134       0.05696841
O        7.57468343       9.57376688      24.78371818      -0.39960819       1.34284129       0.01121748
O        9.05333397       8.46229483      22.75961722       0.08949047       0.41377865       0.36707940
O        1.49679634       0.59063821      12.04136603      -3.55291984       0.70671385      -0.56622203
O        1.06433581       1.55507974       4.63698908      -0.96948954       1.39933642       0.96823579
O        8.10173170       9.12097199      15.76774110       3.33555764      -1.05378169       2.40402561
O        3.48309963       4.36795745      12.24680823       3.21769870      -1.83510668      -0.65839846
O        5.75236058       6.20268270       8.78126072       0.46505133       0.84569726       0.22582163
O        6.74409254       5.60685614      15.42877538      -1.10754484       1.09806869       0.59050388
O        3.70124282       3.51667510      18.79987400       0.32183011       0.25246274       0.04237721
O        8.65254483       2.56846763      12.28585276      -0.20365873      -0.54721176      -0.24133661
O        6.11432488       1.12687211       8.97137846      -0.02022033      -0.82435379      -0.44414148
O        1.31952229       7.15568684      15.84630970      -0.22901269      -2.09024079      -0.68936323
O        3.50822877       8.62148211      19.04323265      -0.92540559       4.24441761      -0.54461921
O        8.89837841       3.94949729      15.98093554      -0.59702311      -0.83944536      -0.59135603
O        5.71309542       1.92050317      18.86627091       1.20870075      -0.25769910       0.67523365
O        1.90220014       6.07146447      11.75872694      -2.91751110       2.25027633       0.40490458
O        3.58576325       7.80353441       8.50791892       2.49735391      -1.74337839      -0.78432618
O        8.32788892       4.57475601      13.50052424      -0.37668878       2.47698671       2.31562462
O        4.45873672       2.54040605       7.40345490      -0.29080440       0.78081717      -0.82899615
O        2.00184467       5.00931768      14.24088953      -1.01450578      -0.69374075      -0.27417727
O        5.24693464       7.19367534      20.25794195       0.35320962      -0.43513372       0.95839096
O        0.48256312       2.40109896       7.40210301      -0.01740974      -1.15708179       0.27940538
O        6.98661565       0.14922170       6.55818219       0.61285130       0.81989611      -1.68240982
O        9.73857162       7.39806893      20.42100226       0.61139734      -0.41274287      -1.67987756
O        2.97192947       0.31073274      14.30739945       0.07234640       1.84254762      -2.94111731
80
Lattice="9.77192453 0.01751879 6.90363604 0.24348012 9.76890588 6.90363604 0.01370155 0.0133883 13.86910312" Properties=species:S:1:pos:R:3:forces:R:3 energy=-573.57508899 source_file=vasprun.xml step_index=0 time_fs=70000.0 time_ps=70.0 file_index=35 pbc="T T T"
Na       8.77477834       4.22251527      20.46831254      -0.20456532      -0.04363928       0.07459708
Na       8.28563034       1.19291356      10.51562163       0.11925507       0.13741260      -0.07241419
Na       2.28114405       2.77628808       8.82675964       0.60879225      -0.32002900      -0.00282771
Na       4.05699884       8.47628957      13.34635624      -0.14009819      -0.00537719      -0.23484034
Na       2.95901340       2.08743284      16.21781749       0.63705418       2.22227134      -0.53853349
Na       6.20261087       0.90796861      13.46044869      -0.00817494      -0.08313614       0.17915028
Na       0.82437460       8.05601894      18.26956724       0.15124767       0.22627085      -0.51165240
Na       2.17332945       5.87103116       7.91035886      -0.09449910       0.44631657      -0.52002956
Al       6.89334353       5.16886197       9.01800713       0.47967642      -0.43828628       0.12899965
Al       4.53335182       2.81733395      11.73507234      -0.16820833       1.37494977       0.56964504
Al       3.14374627       4.85799406      18.48681512      -1.32323739      -1.09914644       2.96986709
Al       5.32443410       7.23989556      15.69962242       0.07116553       1.12760246       0.66404391
Al       0.29127081       2.12971504      11.56570561      -0.74068594      -0.51610136       1.46259832
Al       7.82943585       9.65052653      22.84705527       0.74625364      -1.27647226       0.60119989
Al       9.43893217       7.84920805      16.03202692      -0.19220201      -2.01669440       1.23573923
Al       2.04209230       0.40057953       4.58986217      -0.08464584       2.73784652      -0.56708011
Si       2.61078324       6.01540868      15.57387417      -2.03536529      -1.41609631      -1.37931207
Si       4.45854789       7.43541110      18.89472727      -0.44682228       2.10541691      -1.67790502
Si       7.27148155       4.13878480      12.13692885      -3.03673113       2.44059019      -0.30598458
Si       5.41926638       2.48847619       8.50104497       1.05580317      -0.73254726       2.14438659
Si       0.69616362       7.46109251      12.02226829       2.00014471      -1.99959326       1.93773008
Si       2.49976177       8.91983133       8.42016817       0.58579136      -0.48464177       2.91140846
Si       9.17679904       2.59330288      15.37120884      -4.25553141      -2.27836682       3.21254818
Si       7.27333842       0.79736061      19.12000390      -2.29583748      -2.32591715      -1.63545640
Si       0.27021857       3.12771088       5.57787379       3.70657574      -1.11646037      -3.35487285
Si       7.26241992       9.49699076      14.86623623      -0.49658685       1.78892285       4.26791005
Si       9.49064371       7.06358316      22.09647748       0.77506370       1.89810589      -2.58795681
Si       2.69438133       0.34023083      12.49069749       0.65806784      -2.46795025      -0.13482422
Si       7.81849943       5.30409820      14.93308766      -1.53472071       1.63806958       0.77895865
Si       4.35767286       2.20281403       5.78412554       0.82584988      -0.96104021       0.54103052
Si       2.15405024       4.55752245      12.59568623      -3.84534195       4.52789860       2.72407240
Si       5.41298923       7.69355075      21.70684765       0.92600432       4.29622629      -2.56882026
O        8.47233037       5.81649534      22.18502959      -0.46920955      -0.64463470       0.48043220
O        3.93277602       1.32052511      12.40190358       0.74813582       1.15710873       0.28637977
O        1.59726867       4.20945110       5.62018769      -1.47487931      -0.08296498      -1.03974187
O        5.86936359       8.74231362      14.79117507      -1.14196626      -3.07458961       0.74274388
O        1.01231825       3.42063027      12.52419886      -1.12844840      -0.35361047      -0.28311791
O        6.47894685       8.96225898      21.92830377      -0.84223387       0.11032891       0.59933230
O        9.05894212       6.37193365      15.22568106      -1.28901081      -1.85443077      -0.31366809
O        3.45428190       0.82079006       5.63629593      -0.35812305       0.87368824      -0.33820760
O        3.57707848       6.26763977      19.51287152      -1.28444737      -2.67530567       0.01555952
O        3.68694257       7.13568524      15.10859726      -0.94923697      -1.01804832      -0.67449756
O        6.56742382       3.52714722       8.29660443       2.40610366       3.70402640      -0.38658815
O        5.99888741       3.09875143      12.68125566       2.11490914       1.08621531      -1.11391187
O        1.11626397       8.09384817       8.31096943       2.78381626       0.10460993      -0.31717725
O        1.79648450       8.70179118      11.98007552      -1.22080278      -3.43818107       1.49790226
O        8.37770117       1.84336951      18.99226081       4.00076719       3.47994869      -0.15976208
O        8.19131785       1.29221989      15.08750896       0.30363402       0.46994981       0.43162725
O        2.76218795       5.05847433      16.89252820       0.24563189       0.73824179      -2.32514083
O        4.84196770       7.33221960      17.36543064       1.75729554      -0.96477743      -0.20505065
O        7.00943258       5.03168585      10.74931433      -0.23040318      -1.02191790       1.40787891
O        4.86210947       2.64151478      10.06558965      -1.20306343      -0.18481184      -2.28794145
O        9.45092428       7.56825913      17.73903455      -0.49095791       0.03108381      -0.19357925
O        2.33646127       0.23569890       2.78735088      -0.51934219      -1.37951596       0.44153242
O        0.29306667       2.39857723       9.89622341      -0.08848223       1.06823255      -4.06456104
O        7.46071726       9.67833036      24.62200468      -0.18987546       0.77483907       0.24706091
O        9.25381483       8.60476207      22.50586985      -1.65816409      -0.07392280       1.83488433
O        1.33978809       0.74921464      11.76093222      -0.76825099      -0.03595960      -0.00481438
O        0.76621196       1.65207571       4.85853725      -0.08448389       1.17035547       0.02285431
O        8.49523766       9.22868719      16.03673610      -3.01433327       1.39007573      -2.50084377
O        3.50752464       4.25897335      12.04127475       4.90352018      -2.78344370      -2.47719859
O        5.74977346       6.39149779       8.55359509       0.80796048      -3.35160284       1.11789830
O        6.31534920       5.91053774      15.41411177       2.63091172      -1.60360852      -0.33019039
O        3.97681387       3.29881518      18.52949002       0.82539181      -0.27011455      -0.05590265
O        8.52666366       3.21713182      11.74024806       2.44639552      -0.74518251       0.53057429
O        6.40693005       1.11603949       8.70569757      -0.60849310       0.72959828      -0.86723714
O        1.16735447       6.84058830      15.93868349       1.14417619      -1.23844200      -0.14716874
O        3.38813589       8.69639293      18.62791543      -1.10055695       0.97434844       1.41481232
O        8.04817780       3.75228238      15.46793935      -0.33643580       2.11866964       0.97521078
O        5.90680351       1.52375433       5.82936438      -1.65759755       1.31039598      -0.65251019
O        1.72197753       6.00746427      11.69699220      -1.27882098       0.07556911       1.95827874
O        3.88868347       8.01253108       8.42066301      -0.69517527      -0.55407580       0.00852734
O        7.70332506       5.25281350      13.30481865      -0.00545211      -1.35327306      -1.48353096
O        4.25593281       3.04620076       7.32880937       0.03522074      -2.85943042       0.01750162
O        2.31784058       4.81761110      14.31016155      -0.19301314       1.43037315       0.17533250
O        5.64822439       7.73394023      19.93019667      -0.26574655       0.10821532       2.58174920
O        0.08889568       2.95107661       7.12554828       2.12591482      -0.15579183       0.90662893
O        7.81057555       9.57861588      13.41594414       1.91828410      -0.59797320      -1.74896827
O        9.66576586       7.35131961      20.40523296       1.10399726      -1.00057365      -0.91882729
O        2.72502780       9.70782361      20.97725990      -0.14820954       3.02323622      -3.14215994
80
Lattice="9.77192453 0.01751879 6.90363604 0.24348012 9.76890588 6.90363604 0.01370155 0.0133883 13.86910312" Properties=species:S:1:pos:R:3:forces:R:3 energy=-576.29944678 source_file=vasprun.xml step_index=500 time_fs=71000.0 time_ps=71.0 file_index=35 pbc="T T T"
Na       8.48606309       3.77455797      20.55367827      -0.27978566       0.67417173       0.35542792
Na       8.52981603       0.96612488      10.11218424       0.10724409       0.19383968       0.64395588
Na       9.56634144       4.93575736      17.25482626      -0.02527487       0.52175422      -0.10528512
Na       3.46271972       8.15841349      13.56633648       0.94202433       0.39188689       0.06996806
Na       1.49915844       2.72287434      15.95907841       0.48255050       0.19977445       0.15735919
Na       5.60259289       1.61149619      14.37389899       0.60764955      -0.28547866      -0.06172863
Na       1.37371136       8.56602501      16.99331471       0.15424253       0.37800557       0.81444588
Na       1.77805062       5.92583170       7.13739043      -0.06215533       0.03723634      -0.23911411
Al       6.99144316       5.32318360       9.23574543       0.50424133       0.95856312       0.74923527
Al       4.58225817       2.55548586      11.30430446      -0.14582983       1.10824413       0.24640116
Al       2.99885038       4.38270559      18.49510687       0.82487423       2.30596746      -1.59661406
Al       5.36139517       7.32635449      15.96054578       0.55422147      -1.09690525       1.19893106
Al       0.31838683       2.26988010      11.56040330      -0.47226133      -1.19488620      -0.75593498
Al       8.12137689       9.37701502      22.95150546      -3.03387822       3.12131409       0.72919464
Al       9.69301829       7.62553165      15.92572029       1.07346722      -0.37937151      -1.32975950
Al       2.08306279       0.55598446       4.62067690      -0.46950349      -0.53633610      -0.86367273
Si       2.75010293       5.53423382      15.46113955      -2.93031217      -0.67412675       1.01362668
Si       4.17575646       7.38585178      19.06460672      -0.56993958      -2.24332867      -0.98426380
Si       7.12822493       4.33559744      12.09728702       3.07969991       0.92021934       1.45045013
Si       5.84877256       2.48662213       8.33973586      -1.58429209       0.86352636       2.84371748
Si       1.11608862       7.27367743      12.18154461      -3.77241572       1.90685759      -2.70588679
Si       2.70606909       9.37444525       8.43396287      -1.34542072      -1.74479296       2.09133976
Si       9.11735217       2.59775541      15.38688287      -1.74302732      -2.35325189      -1.35466643
Si       7.42552310       0.70747125      19.06911128       1.54467125      -3.61747561      -2.80623035
Si       0.34491375       3.04625764       5.64699119       0.99724743       0.90628243      -1.32232770
Si       7.11791172       9.38164639      14.94225167      -1.27003780      -1.18626898      -1.57729353
Si       9.64207254       6.98930727      21.93758242       0.29293772       0.30201308      -0.12954132
Si       2.90066688       0.29620980      12.46501544      -2.51053595       3.15986863      -2.54134248
Si       7.65256081       5.26817444      15.01100951       2.71891136       3.02332428       0.72651562
Si       4.73889922       1.90173324       5.39345958      -1.36270832      -1.19648587       0.04128181
Si       2.24651252       4.48393200      12.64534199       0.80798922      -0.75168071      -0.81781346
Si       5.34245344       7.95658560      22.11657643       1.87605571      -2.23398236      -0.98761577
O        8.57536642       5.86092292      22.37162788      -0.08414980      -0.00099961      -0.29367223
O        4.27423263       0.95848402      11.86860573      -0.46814516      -1.16822295       1.93812993
O        1.50791991       4.23062037       5.39267263      -2.87288039      -1.41548233       1.19806634
O        5.54943227       8.79343132      14.97672070       0.80585590      -1.10335742       1.47925037
O        0.84524195       3.83125363      12.07137891      -0.70428180       1.93524219       2.08495104
O        6.69207931       8.92900139      21.98401007      -1.44382404      -0.57539306       0.34484182
O        9.31845060       6.07763920      15.09560525      -1.35913221      -1.18540968       0.10211087
O        3.56255363       0.71003500       5.54636380       0.31323538       0.65098153      -0.07945366
O        3.54645555       5.88275373      19.25232779      -0.26184276       0.24295896      -0.17589153
O        4.05307002       6.34526041      15.29521764       1.40418074       1.90585496      -1.12501247
O        6.91360385       3.71519350       8.46895605       0.23535118       0.20488214      -0.24935464
O        6.07228567       3.19955104      11.97002171      -1.10111693      -1.54291126       1.21081610
O        1.55067690       8.21486290       8.33508359      -0.66025831      -0.60547487      -0.16586040
O        1.69585263       8.79464326      12.22884816       0.37564397      -0.79020231       0.25698370
O        8.55260076       1.88772657      19.39088749      -0.29013318      -0.32081884      -0.20156252
O        8.22139300       1.21854948      15.34524606       0.38740759       0.75330976      -0.90208108
O        2.65857471       4.58357153      16.72462538      -0.10995122      -0.59913601       1.26179690
O        4.99779796       7.38764645      17.68834877       0.53986337       0.80812651      -0.04872028
O        7.17614890       5.44368411      11.01282144      -0.38506694       0.73375192      -2.65394370
O        4.79879464       2.57672578       9.64814843       1.07654184      -0.19990077      -3.76281969
O        0.28261392       7.18228422      10.64414002       1.32306657      -0.74233322       3.40454970
O        2.00771456       0.61453508       2.72375820       0.13166373       0.55974429       1.43933553
O        9.64548355       2.76382047      16.83419881       2.12024065      -0.10310716       2.38887935
O        8.20236851       9.41246592      24.69463073      -0.22776873       1.91511116       1.88620499
O        9.41596397       8.52783331      22.51376304       3.40225910      -4.15785689      -1.97553063
O        1.56428298       1.13561588      11.71926877       1.86197874      -2.07844413       0.61067602
O        0.76025602       1.70110051       4.77393597      -0.32949903       0.57868747       0.41604174
O        8.39797631       8.78221970      15.77225617      -0.74898769       0.92233870      -0.24191642
O        3.29121297       3.57914059      11.84519034       0.28530717       1.10329695       0.35105484
O        5.67793786       6.44423138       8.96408554      -0.73899036       2.22184074      -1.53262465
O        6.86545396       6.36757998      15.91473452      -0.46135731      -1.13645911      -0.09631453
O        4.08658282       3.10241175      18.40888385       1.19601091      -1.08727184       0.09109395
O        8.66275946       3.47806108      11.81587937      -0.10741153       0.07007959       2.05532293
O        6.74285148       1.12536001       8.57111915       0.73592548       1.11732923       0.53703248
O        1.39791332       6.66282703      15.69321543       1.14993913      -1.05604008      -1.35992529
O        2.99513175       8.54449517      18.90379061      -0.77755043      -0.90053627      -0.81083618
O        7.89352882       3.70889753      15.45994640      -0.68913786       1.62638515      -0.63057450
O        5.96949565       1.10117052      18.45717038      -0.76571715       2.31680801       0.77943139
O        2.23664108       6.16630989      12.45381800       1.39484930      -1.51906726      -0.48546059
O        4.17110024       8.80654593      22.85155214      -0.59619480       0.27199626      -0.18526109
O        7.10915578       5.31405056      13.52465014      -0.48269879      -1.80009672      -2.31781950
O        5.16297528       2.55613491       6.87020116       0.11921075      -0.80173152      -0.69307989
O        2.58695943       4.35525443      14.26407656      -1.08976986       0.50486791      -0.21807966
O        4.62789099       7.70999173      20.56050342       2.18990313       0.99282154       2.41181126
O        0.53817382       2.83063357       7.29895362      -2.25456205      -0.24477018       0.48050169
O        7.26216510       9.40483536      13.31219763       1.50313788       0.91778338       0.10152653
O        9.75797843       6.90711222      20.25936700       0.26222754       0.56304067       0.26235701
O        2.48241536       0.47367432      14.03009871       1.25123906       0.71535590       0.12734065
80
Lattice="9.77192453 0.01751879 6.90363604 0.24348012 9.76890588 6.90363604 0.01370155 0.0133883 13.86910312" Properties=species:S:1:pos:R:3:forces:R:3 energy=-576.03396276 source_file=vasprun.xml step_index=0 time_fs=72000.0 time_ps=72.0 file_index=36 pbc="T T T"
Na       8.68728066       3.75324357      20.37679983      -0.11731188       0.02484838       0.65595921
Na       8.10651749       1.38512657      10.20622717       0.47177346       0.14331671      -0.15749028
Na       7.32831689       6.30493841      17.96904033      -0.21847919       0.11180127       0.12862573
Na       3.97690529       7.55680788      12.92310903      -0.15357171      -0.41027682       0.28502779
Na       4.67362488       0.56994412      16.74501958       0.96330449       0.34406140      -0.06252891
Na       6.48415377       1.03020602      13.44979273      -0.64203839       0.34157134      -0.20687121
Na       2.50669049       1.94411513       8.31505882      -1.09993135      -0.42049460       0.38050237
Na       1.06319537       5.82884068       7.26462719       0.48730960       0.18792538      -0.74423033
Al       7.06871225       5.10037519       8.92572629      -0.22638837       1.07061585      -0.32690523
Al       4.63107187       3.15448140      11.90837751       0.82571012      -2.49285843      -0.12273295
Al       2.88716884       4.70972629      18.78814953       0.53763127      -1.59671330      -2.67284909
Al       5.22677436       6.75615290      15.83020237      -0.13008443      -0.14512865       0.84668756
Al       0.56723786       2.41357151      11.22905135      -1.93805633      -0.80278506       1.46175460
Al       7.98757074       9.36902466      22.92242048       1.91481534      -1.82032254      -2.70879121
Al       9.69324788       7.56809282      16.15382114      -1.15307118       0.17507447       0.42164261
Al       1.89727100       0.59751498       4.59768306      -0.10765511       1.32153477       0.14166126
Si       2.72430533       5.21069109      15.67006751      -0.39495289       0.37866583      -1.64308956
Si       3.95582684       7.51535315      18.91797661       1.99081099       2.34401928      -2.45123763
Si       7.20819736       4.40547325      12.12724253       1.49119908       1.51554689      -0.44995248
Si       5.57604542       2.41633672       8.68861741       1.50534127      -0.92087890       0.51951831
Si       0.75224967       7.47257049      12.27140029       1.48967547      -3.27980267      -0.97000751
Si       2.68589454       8.99342175       8.58457859       1.65795887       0.07854549      -1.16606645
Si       9.05831122       2.32683998      15.08580008       0.11634316      -1.12031769       2.15952950
Si       7.40534446       0.87083317      18.93442299       0.47595359       2.75419685       1.57522063
Si       0.29571172       3.03991996       5.40605789      -2.96469689      -2.26666342      -3.51475702
Si       7.08227593       9.17915353      14.79761987      -0.14034797      -0.34014359       1.19381484
Si       9.68122155       6.67101415      22.12792880       0.49463411      -0.79817086       0.88791310
Si       2.84292481       0.73909760      12.77599552       1.55718611      -0.44390478      -1.27499740
Si       7.81371348       5.18221077      15.02480632       2.11753050       0.67946830      -0.38849211
Si       4.53442788       2.25327390       5.88723079      -2.18679314      -0.21411791       0.27607652
Si       2.09173628       4.59586347      12.76823198      -0.67414169       1.77121472      -0.75627233
Si       5.53583500       7.84762082      21.54496566       1.83985810      -1.09711210      -0.06363008
O        8.78662668       5.26871664      22.19667788      -0.43412183       0.69956324      -0.07219420
O        4.22687314       1.66620658      12.90940064      -0.41082758      -0.47192695      -0.74300633
O        1.16918825       4.34292257       5.27635116       0.75119576       0.60564015       1.11309039
O        6.05609912       7.91290804      14.91438817       0.02872926       2.91686443      -1.67072334
O        0.76147666       3.81736409      12.24438011      -0.19827783       0.97970283      -0.50626732
O        6.67351702       9.09401160      21.79601707      -2.80886011      -1.96972644       0.10034893
O        9.15560460       6.05970071      15.53575203      -0.79328532      -1.49310175      -1.03729390
O        3.05018022       1.28575374       5.88665441       1.37446093       0.06686709      -2.15504519
O        3.12655538       6.24176495      19.44229060      -0.81941922       1.76745253       0.62296755
O        3.95192615       6.09614457      14.93658185      -1.48897865      -0.72390634       0.25988908
O        6.72815188       3.45731150       8.16185126       0.08018479       0.35165108       0.99733713
O        6.03351918       3.61243428      12.90954421      -0.53171246      -0.15176378      -1.45287887
O        1.47683411       7.94804852       8.52136366      -0.65145804      -0.49327623       0.22955847
O        1.67201936       8.79030126      12.00801667      -1.39693052      -0.84333285       1.33389278
O        8.66898293       1.98437743      19.00944782      -1.02313966      -1.41711215      -0.08566508
O        8.12064414       0.97752752      14.87127781       1.84033984       1.38062478       1.11892631
O        3.03796766       4.35496445      17.01833262      -0.35291155       1.08999562      -0.63251330
O        4.73690069       7.17031845      17.43612787      -0.80625317       0.31855082       2.00055896
O        6.91176593       5.24617903      10.70262036       0.08235427      -1.34589154       1.58493917
O        4.91695070       2.77306352      10.11284239       0.37155965      -0.31733649       0.84725712
O        9.50589873       7.05839140      17.88292236       1.40994227       1.91583093       0.91446818
O        2.57839056       0.02851462       3.06776397       0.08679201       0.85154897       0.24953932
O        0.30395423       2.26061140       9.52651334       0.13616932      -0.16009815      -1.80070141
O        7.48473609       0.17429962      17.54268538      -0.99555010      -0.58849927       0.22743867
O        9.00965485       7.84586938      23.02373407      -0.25432684       1.17981074      -0.56761772
O        1.81287933       1.37105404      11.73634904      -0.34864209       0.44273831       0.19842578
O        0.58234639       1.82278263       4.26146248       1.08418698      -0.18948936       1.28613555
O        8.39462483       8.65449077      15.64654736       0.21250321       1.48374551      -0.00974634
O        3.34824163       4.17545558      11.91616557      -0.23062399       0.75770863      -0.69367330
O        5.97080852       6.39971041      22.11861746       1.37075887      -0.80684683       0.15043513
O        6.53056486       5.62080148      15.82259849       0.07340192      -0.80084963       1.16342074
O        4.29245586       3.76051051      19.22330343      -0.21704652      -0.60149027       0.49961247
O        8.39061227       3.27300933      11.79680630       1.54982820      -0.22158491       0.64093926
O        6.28550012       0.81471307       8.69714759       0.00674608       0.72515376       0.00469573
O        1.46312106       6.25806041      15.86349948      -1.91514201       1.08326613      -0.57936673
O        3.33240095       9.11252413      18.79110245       0.58356779      -2.83507251       0.74495004
O        8.15359129       3.63967619      15.47143963       0.07877781      -0.70985661      -1.09711019
O        5.89155440       1.70013096      18.95127729      -0.76579877      -0.02538943       0.49447479
O        2.08236278       6.26715157      12.41323711      -1.99882102       0.96418112       0.05182611
O        4.20007611       8.14495387      22.40282958      -2.61291921       1.89178903       0.26052082
O        7.90645647       5.32216791      13.37685221      -0.56187054      -0.03678821      -0.55151561
O        4.39447239       2.38490140       7.58237251       1.11095319      -0.28930184      -1.18303638
O        2.20092953       4.32158981      14.34204233       0.19715561      -0.57242801       1.48650368
O        5.25410276       7.72806827      19.91383432       0.59873381       0.32489988       1.02368749
O        0.29821913       2.27638849       6.84100797      -0.18124987       0.96895478       1.49686711
O        7.30216499       9.61893607      13.22601873       0.85754545      -0.40157251       0.29082563
O        9.59474800       7.11622521      20.46766914       0.44177829       0.55687505       1.14819360
O        2.41274256       0.36553682      14.30898313      -0.32396317      -0.94905856       1.05753882
80
Lattice="9.77192453 0.01751879 6.90363604 0.24348012 9.76890588 6.90363604 0.01370155 0.0133883 13.86910312" Properties=species:S:1:pos:R:3:forces:R:3 energy=-574.69400904 source_file=vasprun.xml step_index=500 time_fs=73000.0 time_ps=73.0 file_index=36 pbc="T T T"
Na       8.21852764       3.97612318      20.55156695       0.44767478      -0.04479051      -0.36017440
Na       8.59360219       2.24633569      10.00691920      -0.29191479      -0.41894606       0.13695917
Na       7.65221566       7.17160049      18.81020785      -0.58752656       0.28956041      -0.28672245
Na       5.20297741       8.20843631      12.61673565       0.00204464       0.18910000       0.41914314
Na       2.06889416       2.52353930      15.20882540       0.23293673      -0.39739390       0.09455116
Na       5.95468342       1.14007545      13.74795754       0.36718282       0.48247219       0.16059883
Na       2.56143327       1.52484882       9.54846039       0.01479929      -0.05319551      -1.06092232
Na       1.41296590       5.53412347       7.33647936       0.10463466       0.33796725       0.00864304
Al       7.12674601       5.59561501       9.43945567      -0.83471908      -0.45516529      -3.59716850
Al       4.49115708       2.57790005      11.34098699       2.47710448       0.02024219       2.36741826
Al       2.65232320       4.54225822      18.37423192       2.57113105      -2.19753409       2.21296499
Al       5.39581955       7.16454845      16.08023961       1.44753195      -0.34375190      -1.18489623
Al       0.41839095       1.86072748      11.42902978      -3.00356211       2.10305948       3.09006388
Al       7.85696606       9.49154095      23.04529015       0.81313149       1.24163659      -0.15350172
Al       9.53701479       7.59823514      16.01274735      -0.83935614       0.30703171       0.21828653
Al       2.17903304       0.12047406       4.73516334       1.25899514      -1.12383289      -1.14416355
Si       2.61984930       5.55758167      15.49732681      -0.05023915       5.35805139      -2.64417828
Si       4.39983750       7.16906445      19.00750813       2.41766541       2.59060183       1.76774535
Si       7.30926566       3.97952198      12.19931411      -2.37058230      -2.21753033       0.26350204
Si       5.79445821       2.75467204       8.30125407      -0.98188015      -2.52619085       0.51142522
Si       0.91753699       6.97626389      12.09250888      -2.35243782       2.21905497      -2.19806393
Si       2.53134438       9.10135027       8.42722133       1.35741479      -1.21221356      -0.24163134
Si       9.17387671       2.50564507      15.56620245      -2.60773711       2.04753309      -3.49567406
Si       7.23937352       0.59849872      19.06111517       2.02217801       1.69068911       3.64327071
Si       0.38084242       2.60715874       5.74718280       0.34839526      -0.93885289       1.87695979
Si       7.13546989       9.51110871      15.11694339      -0.05605767      -0.75676455      -0.13157159
Si       9.56461175       7.19307997      21.78338195       1.42196062      -0.47177357       0.41107753
Si       2.83220681       0.19772139      12.50323982      -0.17266653       0.84240790       1.63492003
Si       7.97585050       5.50942886      14.73410678      -2.87830623      -0.74765402       1.41500320
Si       4.51367320       1.97387063       5.54758598      -0.97018587      -0.57639793      -0.49315513
Si       2.05380784       4.18822576      12.66855308      -0.10294268      -0.80163503       1.03004788
Si       5.53579688       7.83683461      21.96039425      -2.87836639       0.91120018      -3.52473482
O        8.37392087       6.17793052      22.13535013      -1.21941526      -1.16193487       1.55328337
O        4.19136273       1.13402035      12.47099511      -0.65106731      -0.65996900      -1.90044841
O        1.35808583       4.00140562       5.56359016      -2.56385769      -1.63012445       0.80034398
O        5.70847960       8.72720536      15.22706570      -0.00249223      -0.20063330       0.49020623
O        0.77419016       3.16779536      12.99111448       0.65896828       0.18718906      -1.42955423
O        6.54441930       9.09355909      21.85924840       1.21488011       0.64425458       2.21934822
O        9.17987855       6.52916943      14.58935953       0.18887697       1.46172450       0.54898187
O        3.83180514       0.44088213       5.47784009      -1.76335966       0.76104559       0.03464345
O        3.60961970       5.79271464      19.12365916      -0.34237841       0.04579699      -0.10023438
O        3.81177814       6.82280681      15.39254040      -1.12000814      -3.15523131       0.69696936
O        6.52203602       4.15084533       8.20631578       1.37811279       0.74811261       0.11054717
O        5.82297391       3.17391380      12.38879326       1.99763646       0.51071551      -1.20858584
O        1.31949297       7.94735788       8.43276259       1.69120975       2.18669197      -0.01463811
O        1.97079635       8.16364146      12.07925080       0.96592409       1.82451507       0.30377235
O        8.60207607       1.47095907      19.19026135       1.61491112       0.72201031      -1.15633717
O        7.83670952       1.61131174      15.84731233       0.60381974      -1.42633909      -0.07567172
O        2.22838777       4.78591132      16.79577881      -0.21430777      -1.38823582      -0.19432544
O        5.51330963       7.49425129      17.78658587      -1.82640288      -0.90945779       1.36320150
O        7.63651118       4.66710267      10.77183718       0.12349613      -0.23739767      -0.02192837
O        5.03357489       2.62120731       9.70642500      -1.64494416      -0.44744924       1.08726274
O        9.66887646       7.04981844      17.69494906       0.05617387       0.24414570      -1.04886421
O        2.68687772       0.04425305       2.95319679      -1.74259393       0.49562171      -0.27396709
O        0.44399398       2.62194359       9.81547245       1.63489327      -0.62772669       3.12211781
O        7.47693506       9.34856243      24.84557901       0.10525211      -3.39985479      -5.67435970
O        9.36841495       8.65928014      22.41097106      -1.39930207       0.88468187       0.67249860
O        1.67361215       0.77530476      11.52955113       1.22992861      -0.89985980      -1.03127084
O        0.92294620       1.37613624       4.76100910      -0.72582962       1.20589327       0.59744665
O        8.18126685       8.78459935      16.19648349       0.32966277       0.85426575      -1.41843587
O        3.12926113       3.50437071      11.67465215      -1.52000828       0.96896025      -0.01985258
O        5.72408496       6.65566012       9.11013313       1.41968417      -1.31156838       2.41342419
O        6.78258321       5.86422823      15.84350318      -0.25075817       1.39184743      -0.92475182
O        3.78038630       3.07711139      18.45647794       0.01220608      -0.08608190       0.70748970
O        8.45125976       2.77392805      12.47006087       1.42691866       0.57123120      -1.30060084
O        6.93490996       1.39798638       8.52909818      -0.57176176       1.26849932      -0.54628867
O        1.24928260       6.57774986      15.38642840       0.20277966      -0.61868170      -1.02141365
O        3.20103871       8.38646038      19.10521935       1.32840594      -1.05348992      -0.33053396
O        8.72850805       4.16766492      15.13337414       1.81678700      -4.49999217       1.48707007
O        6.03814400       1.63249619      18.92405387      -0.69103216       1.64056336       0.17225074
O        1.52939762       5.54341870      11.93603753       1.70686887      -2.16536664       0.97721468
O        3.92194791       8.25361440      21.92581841      -0.13727149       0.42712369       0.71688276
O        7.26074629       5.06028698      13.32644183       0.09005111       2.21046616       0.61391730
O        4.59412881       2.42422897       7.17774944       0.98737116       0.18806113      -0.30794510
O        2.75936108       4.44212654      14.26727635      -0.63510445       0.42425585      -1.33339295
O        5.59334327       7.42678973      20.33930492      -1.13171674      -1.49158224      -2.17788619
O        0.33525991       1.93602749       7.35791309       0.25912420       1.39033783      -1.25719912
O        7.35962155       9.40317171      13.46751968       0.10409344       0.27315100       0.25993459
O        9.48001476       7.07785009      20.11468322       0.69367954       0.35258533       1.18149327
O        2.21291202       0.52485037      14.04945830      -0.04272374      -1.87583749       1.89755262
80
Lattice="9.77192453 0.01751879 6.90363604 0.24348012 9.76890588 6.90363604 0.01370155 0.0133883 13.86910312" Properties=species:S:1:pos:R:3:forces:R:3 energy=-575.69252378 source_file=vasprun.xml step_index=0 time_fs=74000.0 time_ps=74.0 file_index=37 pbc="T T T"
Na       8.87484496       3.16351783      21.11098870       0.32175448       0.06977494      -0.67825626
Na       8.38794901       0.82329274      10.59650929       0.32775050      -0.00484749      -0.12816588
Na       7.46232263       7.10780222      19.15229408       0.09366805      -0.07095058      -0.05808309
Na       6.45709862       7.22299920      11.07448094      -0.05431426       0.54661185       0.43113085
Na       2.50834461       2.47361985      16.09558913       0.07170872       0.06305733      -0.49322204
Na       5.55174944       1.38577736      14.28831953       0.08164336      -0.15653910       0.08020265
Na       2.54531078       1.89620315       8.01581472       0.05597674      -0.21413066       0.29327323
Na       0.35138008       6.44734110       6.05290325       0.41040912      -0.12426812      -0.37076780
Al       7.16873142       5.13617269       8.83252732      -0.12983401       0.49038425       2.45286221
Al       4.61625810       2.99571214      11.49087361      -2.76481389      -0.89081071       0.68575673
Al       2.72054891       4.57612128      18.64944429      -0.38581219      -0.76065460      -1.02380177
Al       5.35577914       6.78168766      16.07497411      -2.14571935      -0.53916766      -1.86963935
Al       0.31225384       2.05533187      11.52803736      -0.74747670      -0.80659829       2.32791223
Al       8.04927970       9.34784346      22.80953012      -1.05359086       2.04670777       1.01441530
Al       9.58913114       7.70504580      16.07098994      -0.12161547      -0.79673082       1.40068462
Al       2.10038420       0.29488671       4.73771926       1.41985491       0.89246505       0.54734029
Si       2.20339357       5.22535157      15.58307786       4.93418694       1.62643678      -0.79172956
Si       4.14256502       7.27948985      18.97378798       1.19778037      -0.14345194       1.32476125
Si       7.30248558       4.43725772      12.07287771       2.72376639      -0.68085131      -2.07019822
Si       5.82491336       2.48670709       8.48167946       1.41352780      -0.28273053       2.36122091
Si       0.88080883       7.34940436      12.10362809      -1.94602520       1.63951093      -1.10180146
Si       2.81264816       9.21747684       8.88028896      -0.66059881      -1.65375052      -1.74343351
Si       9.17716141       2.37452963      15.40694748       1.74268731      -0.46172808      -0.20206812
Si       7.37656680       0.53716107      19.17254956       0.16174715       1.34563737      -0.90812958
Si       0.42802301       2.74673872       5.57301523      -1.74638169       0.25215291       0.17827090
Si       7.03632988       9.23709154      15.10731041      -1.62575944       1.18291287      -2.19378527
Si       9.60605359       6.87934929      21.75522740      -4.23924237       3.34332754      -2.75458625
Si       2.83137296       0.39826874      12.62487538      -1.44562170       0.58708042       1.50996751
Si       8.02382721       5.29370526      14.78056378      -0.67751093       2.19807591       1.05134712
Si       4.53481813       2.09777566       5.77412295       0.87413779      -2.84582342      -1.71755664
Si       1.88219019       4.43929698      12.68179977       0.33297868      -2.21128987      -2.18455715
Si       5.45347475       7.67519883      21.94142939      -0.95597739       1.66788585       0.40180833
O        8.39590637       5.69634195      21.64490437       3.16143529       1.44007586      -0.18842511
O        3.93622305       1.45673983      12.20140351       2.32854389       0.54188709       0.19686769
O        1.25426621       4.15707575       5.75409848       0.93081011      -0.92310925      -0.45565786
O        5.65205301       8.37862560      15.17213670       0.42363705      -0.49311352       1.74803090
O        0.46968705       3.68814252      12.14914188       1.67579514       0.47780005       1.73847562
O        6.48822777       8.99821540      21.93556072      -0.15450756      -0.53739122       0.07285023
O        9.32440185       6.28946383      15.02662908      -0.32202631       1.20681192       0.70490753
O        3.43169249       0.85461381       5.91893250      -1.00073048       1.16776633      -0.76840872
O        2.86585885       6.28112040      19.06302624       0.67603032      -0.79571719      -0.13901018
O        3.76764632       5.78630647      15.60720480       0.57001258       1.13781285       0.63278512
O        6.96287981       3.56876080       8.16532888       0.01304753       1.15289368       0.51537981
O        5.83427597       3.83887265      12.31828200       2.04230639      -0.48952825       1.17240030
O        1.29292070       8.50782785       9.06266269       3.40441410       1.40493230      -1.39686962
O        1.96494718       8.47681873      12.18562892       1.57136926       1.78155503      -0.60143490
O        8.63594123       1.61933267      19.51530072      -1.23473176      -1.25843624      -1.27176999
O        7.91227847       1.38733586      15.38147887      -0.21234059      -1.25725638      -0.00599679
O        1.99397387       4.39651118      16.90969774      -0.35570466      -0.63849889       2.44900872
O        5.24373901       7.09860634      17.79760504       0.12929316      -0.24196888       0.26137182
O        7.43945390       5.24570669      10.67668866      -0.25426023      -0.48183395      -1.32377553
O        4.96020070       2.85971597       9.83190640       0.93425752      -1.00134143      -1.60569319
O        9.49595777       7.72995039      17.88008425       0.37273234      -1.68585846      -1.40002417
O        2.78819097       0.59176477       3.07505989      -0.03414622      -0.87155539       1.43731315
O        0.34284477       2.33286595       9.86436714      -0.73266623      -0.59810804      -3.04063493
O        7.95022511       9.48287587      24.63391166      -0.92941108       0.03860166       0.96425683
O        9.35882396       8.33031738      22.48966218      -0.51832337      -1.28010154       0.60970593
O        1.35309635       0.72802200      12.05470849       0.72919915       0.36698712       0.25962232
O        0.78858311       1.54239112       4.46607845       0.17517625       0.64082808       1.49545922
O        8.29006191       8.82276170      15.96642354      -0.24127789       0.12911361       0.23892884
O        3.21574415       3.86436897      11.94034561      -1.72859909       1.50424439      -0.02395824
O        6.15193357       6.52305372       8.94587468      -1.17375337       0.09775513      -0.42048099
O        6.59906524       5.68653360      15.51952428       2.02207691      -0.74854402      -0.01232648
O        4.08508639       3.38443652      18.79485548      -1.42312853       1.47211289      -0.49615998
O        8.71769620       3.33885683      11.82018102      -1.48070633      -0.49804791       1.64421984
O        6.86625656       1.17914984       8.46759400      -1.73775733      -0.99518587       1.17154854
O        1.23945149       6.48393272      15.33707989       1.88408287      -1.38085856       0.96452743
O        3.49479307       8.72808316      19.00014548       0.03996786      -0.30389075      -0.47888131
O        8.78671638       3.91149499      15.11315757      -1.41007199      -0.10262364      -0.31000740
O        5.92859718       1.42188091      18.96144009       0.23829806       0.19316325       0.61406988
O        1.58321662       5.96980562      12.32614366       1.12080412      -1.02977663      -0.14669721
O        4.04774220       8.10065305       8.96886369       0.61470989      -0.42119092      -0.97170899
O        7.72976206       5.60319019      13.14905934       0.19890222      -1.06753466       0.68002498
O        4.79845223       2.57896457       7.30468923      -1.85828805      -0.21079862      -0.91203970
O        2.21373341       4.18181858      14.29103316      -1.48217406      -0.18833960       0.40655972
O        5.17233631       7.20185258      20.37959731      -0.55558295      -0.03709969      -0.36729840
O        0.45589374       2.00607344       7.12807777      -1.07093009       0.69298056      -0.08558858
O        7.29362629       9.26618846      13.48027815       0.94638030      -0.12573695      -1.58310857
O        9.59788768       7.56310587      20.18222162      -1.37510427      -1.46862649       3.44326367
O        2.87145381       0.27558660      14.39680588      -0.37709838       0.36106756      -1.18482051
80
Lattice="9.77192453 0.01751879 6.90363604 0.24348012 9.76890588 6.90363604 0.01370155 0.0133883 13.86910312" Properties=species:S:1:pos:R:3:forces:R:3 energy=-576.04529681 source_file=vasprun.xml step_index=500 time_fs=75000.0 time_ps=75.0 file_index=37 pbc="T T T"
Na       8.99049522       3.54530580      21.27695576      -0.61722326       0.16488799       0.01982465
Na       8.55685225       1.43616522      10.03251547      -0.08093351      -0.21385691       0.13280029
Na       6.41979646       5.34735856      18.73882676      -0.32813844       0.07075331      -0.22265346
Na       6.59923768       7.26366140      11.18088506       0.04921278       1.20914751       0.61296043
Na       3.08863504       2.50136566      16.12268901       0.07981041       0.12051963      -0.30806829
Na       6.39797725       1.06773710      13.28610071       0.21307944       0.21984580       0.37260711
Na       3.34589609       9.13133917      14.40791651       0.10738816      -0.19259481      -0.10503347
Na       1.85934063       5.94754750       7.35488087       0.01264289      -0.08976731      -0.07095658
Al       6.88643049       5.19245300       9.30685107      -1.99514284      -0.30227073      -1.94558748
Al       4.50388019       2.84555719      11.58296204      -0.45485265      -0.01104212      -1.66525638
Al       3.07662823       4.69578523      18.61248870      -0.58393718       0.36302726      -1.80123576
Al       5.33236487       7.08696659      15.92600454      -3.13483367       0.64675280       1.03807936
Al       0.30055392       2.02711280      11.69295283      -1.56173959      -0.88241314      -0.94255907
Al       7.76097457       9.46814991      22.86308938       1.09402644       0.56534548      -1.78516902
Al       9.65631998       7.80569851      15.93226336      -1.87310133      -0.66090682       2.34069028
Al       2.18017161       0.34027865       4.56131329      -0.29068386       1.80557448       0.76907731
Si       2.36023325       5.66518277      15.42878464       3.27645471      -0.46792795       2.31535016
Si       4.17074602       7.50428226      19.10491724       2.29601533      -0.28512459      -3.14577937
Si       7.33685934       4.49678525      12.32832906      -2.51989619      -2.28838106      -0.23267728
Si       5.55922462       2.26830551       8.61275764       0.41281457       2.22714333      -1.75805203
Si       0.82468449       7.52279670      12.14432090      -2.13578778      -1.89438137       0.84727242
Si       2.56694378       9.21846697       8.36066459       2.75327590      -1.21983358       1.67545310
Si       8.97817495       2.46584200      15.43941287       2.88200504      -1.44794510       1.74631691
Si       7.37723157       0.71775693      19.02340211       0.18673214       2.66817282      -0.75681059
Si       0.48280649       3.03066866       5.84898107       1.32109261       0.12922527       1.97594138
Si       7.07763574       9.27994358      14.58687730       1.10638302       3.21980622      -1.34843747
Si       9.34963368       6.90724017      22.05298438      -1.70393259      -0.20656234       2.13790088
Si       2.93031162       0.53563701      12.56543555      -1.40876316       1.92938372      -0.96289703
Si       7.74502281       5.34786551      15.20889813       1.67355732       0.20436594      -1.96992923
Si       4.66078679       2.14396847       5.69431623       0.15988770       1.12715219       1.93865512
Si       1.82312154       4.44704900      12.58034925       0.33700912       1.74669304      -0.15276484
Si       5.50274184       7.80284402      21.78228525      -2.63142907      -0.57786415       0.85234952
O        8.12604760       5.70826947      22.18514490       4.04887874       1.49380504      -2.82862222
O        4.27752115       1.46368357      12.58532848      -0.56014953      -1.28804246       0.13789462
O        1.71846668       4.18304247       5.74952720      -2.31170419      -0.80460570       0.22349913
O        5.80131764       8.52300651      14.97575052      -3.17400492      -2.13468822       1.24498342
O        0.54316884       3.45395695      12.64312606       0.40013096       0.46654449      -0.23517544
O        6.58120862       8.96133219      21.55945582       0.19569569       0.78499292       1.05806584
O        9.12650744       6.16041860      15.60325793      -0.44799288      -0.25446131      -0.83664240
O        3.72561488       0.84518609       5.40021349      -1.17298549      -0.02259923      -0.71893001
O        3.15389118       6.36089905      19.17122686      -3.06877158      -3.42022956       0.65963309
O        3.65327929       6.73200111      15.13175202      -0.73622571      -0.18959678       0.61926346
O        6.68334333       3.52841779       8.61395883      -0.81650161       0.96904916       1.25885488
O        5.95121024       3.47117178      12.26746924       2.54331333       1.12756804       0.01417796
O        1.47825795       8.07386072       8.50607202      -1.08551236      -0.31309404      -1.07274260
O        1.98982035       8.61694242      12.26453326       0.90829826       0.79779664       0.53805931
O        8.79922501       1.20251629      19.59748070       0.33816658       0.90519941      -0.33350888
O        8.10656167       1.14946763      15.14855153      -0.48601897      -0.06742866      -1.33944596
O        2.85761581       4.64499514      16.72506549      -0.31920659       0.61589657       0.42415202
O        5.02777979       7.19653309      17.73054058       0.95784325       0.47659996      -0.89364603
O        7.37759799       5.26568854      10.90385607       0.41993558       0.06169370       2.09464197
O        4.62168433       2.04226367       9.85269002      -0.34365183       1.02545531       2.87806872
O        9.62912690       7.98190891      17.80907901       0.14608592       0.04697716      -0.88752269
O        2.35336240       0.34464204       2.82410086      -0.31118551       0.53983373       0.37653472
O        9.45195517       2.44838052      17.00772680       0.32332855       0.01985772      -0.29048539
O        7.31102547       0.24998851      17.52474165      -1.07573950      -0.25961880      -0.18054212
O        8.81659996       8.12783787      23.03590443       0.86445780      -1.35504063      -0.90014298
O        1.63141102       0.96733035      11.68192854       1.61870292       0.32405595       0.60508102
O        0.90050733       1.89629330       4.76328288       0.34455970      -2.07242262      -0.66034684
O        8.39508370       8.83072877      15.29200456       2.07799455      -0.34636349       0.75030240
O        3.18656178       3.95295089      11.86441642      -0.88753427       0.24769607      -0.29395729
O        5.80031916       6.72986318       9.11429436       0.44489225      -1.03972001       0.00222569
O        6.44316325       5.82882858      15.93370399       0.09935435      -0.72228315       1.51231184
O        4.45172462       3.61984093      18.91126897      -1.06876455       0.87148596      -1.36531844
O        8.58866063       3.45330799      12.47043702       2.50926440      -0.54869969      -0.07514047
O        6.70834761       1.13948114       8.40349180       0.62294386      -3.13977165      -1.39459091
O        0.90443344       6.19524097      15.86271234      -0.55886126       0.98543194      -0.13897030
O        3.36257984       8.84551027      18.88495714       0.68440459      -0.18588169       0.45006143
O        8.11353769       3.78765954      15.26689353      -1.09650041       0.68134955      -0.07988051
O        6.23601920       1.94493812      19.25463198       1.61698014      -1.20239300      -0.41022227
O        1.26708281       5.93653152      11.99191058       0.95205950      -0.39219939      -0.12283058
O        3.91368755       8.27752356      22.12631023       1.28279610       0.20717503       0.29955072
O        7.16979955       5.48455244      13.59773774       1.10128492       0.68465920      -0.06925697
O        4.55216113       2.55916796       7.31941430       0.30147888      -1.37808937       0.05402803
O        2.11017811       4.65908907      14.19420393       0.29433410      -0.47921172      -0.39580726
O        5.16277532       7.15075910      20.32160280       1.92822889      -0.13143045       0.45174900
O        0.63790229       2.47654673       7.52662478      -2.38865306       0.97085512      -1.68600668
O        7.14658075       9.18422149      12.84884174      -1.02856910      -1.80630062       3.99038885
O        9.74358298       7.40808843      20.57468084       0.52528882       0.63127087      -1.94253471
O        2.58061676       0.52264744      14.16605130      -1.23868555       0.95846615      -0.09859386
80
Lattice="9.77192453 0.01751879 6.90363604 0.24348012 9.76890588 6.90363604 0.01370155 0.0133883 13.86910312" Properties=species:S:1:pos:R:3:forces:R:3 energy=-576.8146765 source_file=vasprun.xml step_index=0 time_fs=76000.0 time_ps=76.0 file_index=38 pbc="T T T"
Na       8.86077978       4.72558628      20.08978261      -1.44178741      -0.29646088       0.32959447
Na       8.40378902       1.07861936      10.40940117       0.09118641       0.43361371       0.30077114
Na       5.83922560       4.32034585      17.49561437       0.19136857      -0.41378727      -0.01527677
Na       0.26870148       8.70724289      18.89528552      -0.00425280      -0.02138362       0.02907853
Na       2.17232388       2.71188049      16.04694231      -0.22114109      -0.93756855      -0.33080981
Na       5.74163324       1.33745821      13.77877282       0.74558978      -0.12678677       0.51341323
Na       3.01437502       9.08120308      14.67089588      -0.00148706      -0.11155942      -0.23824829
Na       1.55925138       5.55572559       7.72641921      -0.25586910      -0.08768556      -0.07742994
Al       6.87874847       5.24566236       9.12785077       2.06252856       1.23805120       2.03123643
Al       4.49996707       2.57519029      11.44600725      -0.45471171       1.67350596      -0.63390387
Al       2.90582509       4.59719126      18.65294041       0.47014717       0.95451491      -2.61493368
Al       5.28649024       7.23611820      15.84586016      -0.26291363       1.50128777       1.01355426
Al       0.38848838       2.43320536      11.56182988       0.15118262      -0.67520167      -0.04459116
Al       7.89327396       9.50560509      22.73712800       0.37733869      -1.09836229       2.51755828
Al       9.49801207       7.63798547      16.17863999       0.14563450      -0.46549239      -1.39663154
Al       1.98322706       0.22637789       4.73687621      -0.73544582       0.31144843       1.00010482
Si       2.51388278       5.70042809      15.65206222       0.76501259       0.28990511      -0.14065232
Si       4.26948808       7.51743428      18.97418342       1.32158838       0.89270457       1.48494696
Si       7.25319021       4.10178858      11.96445369      -3.15612501       1.14795548       1.79760226
Si       5.60158125       2.39815842       8.40715379      -2.54151850      -0.27722849       1.85469535
Si       0.89495248       7.31800133      12.27541542      -0.51566511      -2.65181999       0.65228145
Si       2.48781582       8.62144662       8.57924133      -4.31137413       2.71566981       0.76325320
Si       8.93547705       2.57935538      15.44441735       0.55813423       0.23812733      -0.56977258
Si       7.58444069       1.00103051      18.97395714      -4.22047167      -3.05550402      -0.42026452
Si       0.41434874       3.15680571       5.59764026      -0.75483916      -1.36773580      -0.44199444
Si       7.29982639       9.49681348      14.88850466       0.42628185       0.45649596       2.55271155
Si       9.41534587       6.68834979      22.00205293       1.68654171       0.57185236      -0.20648383
Si       2.69359280       0.44601712      12.94508155      -2.44230992       0.77783406       0.19337330
Si       7.49488119       5.33648788      14.99151621       3.32408254      -2.49144276      -0.67832873
Si       4.53344591       2.04168164       5.58453068       0.65610750      -2.94938866      -3.36644317
Si       2.23556559       4.58554942      12.71992950       1.53163770       0.05636822      -0.70563149
Si       5.48824015       7.89036281      21.95037373      -2.77331851       0.34271617      -2.62272739
O        8.72459451       5.32572735      22.53320904      -2.24908439       0.33615882      -1.16897718
O        3.90714772       1.43621833      12.64507768       0.45496924      -0.79244265       0.18514422
O        1.38218558       4.55355523       5.54188238      -2.42409087      -2.45250962       0.86839027
O        6.01410952       8.57104450      14.87347531      -1.67866692      -1.64273536       0.41808365
O        0.78129819       3.85615012      12.52163972       1.44029792      -1.48350942      -0.18211037
O        6.23194320       9.28911865      22.16964692       0.09575770       1.34718635       0.14495140
O        8.92609586       6.10591769      15.40261845      -1.63555425       0.40363768      -0.69068509
O        3.51374285       0.80298664       5.33610101      -0.57841228      -0.86748235      -0.35837390
O        3.58059149       6.07793386      19.16317177       0.13501533       0.37894126      -0.00192406
O        3.62901336       6.84086255      15.53598881       0.49513749       1.06661345      -0.67207750
O        6.38353301       3.78011091       8.49106082      -0.55264530      -0.35017269      -1.53227249
O        6.08743528       2.88404469      12.13521066       1.57353152       0.73360053      -0.21031243
O        1.12920352       7.75118574       8.04841743       0.97212605       0.85568484       1.49467486
O        1.50595743       8.66351241      12.79426392       1.99087429       3.17942544      -0.16688328
O        8.52034880       2.20939014      19.02830911       1.52450587       2.16387177       0.84533288
O        8.31598191       1.13669610      15.16921166      -1.16806601       0.39889821      -1.02756143
O        2.65307625       4.61325643      16.81327140       0.73747171      -0.27160550       2.35025899
O        5.00729820       7.75473343      17.54191654       0.13198146      -0.03963791       1.03536330
O        6.97469327       5.23876232      10.90398569      -0.21981390      -0.52592308      -1.49616387
O        4.60143303       2.22650628       9.72205360       0.20342273       0.01460724      -0.07990002
O        0.23872159       7.29262039      10.86263748      -1.61270503       0.77904013      -1.52564435
O        2.00281636       9.37080396      10.05553367       1.25242299      -0.99531502      -2.05548334
O        9.81064647       2.48283201      16.74305656       2.31499169       0.12481936       1.73637673
O        8.03083302       9.65077127      24.68100852       0.22000005       0.63570411      -0.68769358
O        8.92014362       8.16597320      22.30663067      -0.61685091       0.35884753       0.90941075
O        1.30843628       1.07642711      12.29308641       0.20960364      -0.30019716      -0.55207456
O        0.97710505       1.78883878       4.69570271      -0.42254881       1.48393234       1.01082694
O        8.33526059       8.99987005      16.13724938       0.09128171      -0.37414486      -1.66230665
O        3.47218261       3.97513259      11.83244530      -0.98817233      -0.19784723       0.53357074
O        6.13810139       6.79497271      22.79084839       1.14044091      -2.30472331       0.83701062
O        6.23206398       5.79457040      15.84724290      -0.34110287       0.06757122      -0.01085806
O        4.07671258       3.34353873      18.67302364      -0.21935392       1.26391982      -0.39780512
O        8.62779022       3.33389492      11.80628987       3.43884317      -1.08858538       0.11500436
O        6.73466680       1.25602028       8.53843078       0.39738509      -0.38408777       0.00118688
O        1.13151296       6.44069048      15.83843886      -1.63932066       1.52796583      -0.57461922
O        3.07136854       8.71730860      19.27195142       1.23756443      -2.04352998      -1.02192796
O        7.87865706       3.79263021      15.76775097      -1.37850115       0.93691711      -1.41525406
O        6.03293391       1.76203592      18.78116809       1.00788375      -0.64910444       0.60279873
O        1.84033155       6.01081347      12.11916343       1.78348198       1.35895628       0.02146241
O        3.78983410       7.79780866       8.39794905       2.46361421      -0.75371556       0.66208185
O        7.23209358       5.06415995      13.34964866       0.53330853      -0.03379882       2.31500434
O        4.53458328       2.13185394       7.11724534       1.64706101       1.14075863       4.87948432
O        2.67600378       4.79382812      14.33456209      -0.72812747      -1.81118814      -2.14088250
O        5.41436142       7.55849630      20.32422324      -0.84300343       0.50543917      -1.86992062
O        0.14160584       2.81814009       7.19665651       0.24414585       0.81122259      -0.52007214
O        7.86661142       9.78190799      13.44132173       1.15728947       0.56884687      -2.80788196
O        9.59639403       6.76218481      20.30774310      -0.73362096      -0.35866751       1.50065637
O        2.34841290       0.23181508      14.56586904       0.74768965       0.69250248      -0.13337634
80
Lattice="9.77192453 0.01751879 6.90363604 0.24348012 9.76890588 6.90363604 0.01370155 0.0133883 13.86910312" Properties=species:S:1:pos:R:3:forces:R:3 energy=-575.19665276 source_file=vasprun.xml step_index=500 time_fs=77000.0 time_ps=77.0 file_index=38 pbc="T T T"
Na       8.02281327       3.82269999      20.96980433       0.34776663      -0.29032136      -0.87787467
Na       8.69326088       0.45050694      11.18390590      -0.24095220       0.31358294      -0.46980293
Na       5.38865235       4.27713224      17.43060102       0.52413224      -0.30352973      -0.06775774
Na       1.96539939       8.94495241      16.24217353      -0.13216973      -0.08483091      -0.08829343
Na       2.00415495       3.07101057      14.86046108       0.30158143      -1.70452945       0.27952393
Na       6.18940372       1.37793046      14.20804263      -1.47547329       0.52663582      -0.98262433
Na       6.35935092       8.05798373      11.24957827      -0.43234727      -0.51359144       0.30248383
Na       0.93563590       6.02758263       7.13870168      -0.01190607      -0.56000867      -0.27538525
Al       6.79486201       5.25060442       9.30965567      -2.83434522       1.03789549      -1.21789560
Al       4.59190062       2.83344853      11.73772695      -2.59260880       1.66405897       1.90203234
Al       2.87816233       4.64422010      18.45290184      -0.20079243       0.59757041      -0.94836651
Al       5.28764926       7.32967590      16.08767243      -0.69710532      -1.88352995      -0.74165379
Al       0.45871332       2.03047249      11.69418486      -1.76095670       1.10036290      -0.07953104
Al       7.93825721       9.57420457      22.83055623       0.62103685      -0.40762248       0.41189864
Al       9.28517918       7.78207614      16.08439305       0.27472425       1.30249563       1.12848172
Al       1.93702642       0.17846878       5.07294798       0.91915117      -1.36686481      -1.56922220
Si       2.36033386       5.70710441      15.64228535       5.76709613      -1.02407824       0.58183628
Si       4.51356005       7.48279062      19.18793298       2.46691965      -0.59659334      -3.88181647
Si       7.39004928       4.02207419      12.13741611      -1.22886642       1.89616499      -0.81885996
Si       5.33655168       2.62675133       8.60766514       0.71318647      -2.05411148       0.06741725
Si       0.61295138       7.41664118      12.42984723       0.43206971      -0.58829674      -3.83748462
Si       2.29334939       8.78976381       8.67260101       1.98007335       0.16649786       2.52313492
Si       8.97249049       2.62019620      15.59007947       2.26544716       2.50803625       2.95007206
Si       7.33346073       0.95037959      19.00166140      -2.03479936       3.34860124       3.86533987
Si       0.36912257       3.06740690       5.65506302      -0.85886336      -1.28814208       0.59903416
Si       7.02235902       9.64540829      14.89788794      -0.57075877       1.55213501       0.50830298
Si       9.33420724       6.76656672      22.00848101       0.97437469       3.10653239       0.88830814
Si       2.84286245       0.43596826      13.12788683      -0.53167989       3.46311597      -1.54472040
Si       7.53715839       5.12613589      15.30835930      -2.50417552       1.03831555      -0.42843379
Si       4.36129724       2.02061157       5.74368549       1.95889419       0.37660063      -3.63703785
Si       1.96512373       4.78514409      12.54643776       5.38069395      -4.46944056       1.91677079
Si       5.28307653       7.74769450      22.01951191       1.10330762      -0.23441465      -0.42876949
O        8.12483914       5.85276147      22.31812741       0.29234883      -1.15116580      -0.69014788
O        3.90424109       1.78879458      13.05140640      -0.73951619      -3.07332394       0.33057830
O        1.28591463       4.32089837       5.26347633      -0.47397468       0.86926106       1.16736408
O        5.94015616       8.52210035      15.03726229      -1.68335627      -1.41863775       0.82161921
O        1.03497273       3.47846571      12.53899337      -1.67173554      -0.35802553      -0.22879248
O        6.34883000       9.03280700      22.09628219       0.50964889       0.69760998       0.33233163
O        8.70692235       6.25422932      15.47793946      -0.12300047      -0.03875649      -0.34410673
O        3.59139002       0.73507318       5.19195440      -0.46260778      -0.85857209       1.06979737
O        3.68661078       6.20699692      18.74082107      -2.34709211      -2.00630020       0.34367641
O        3.59067284       6.86016147      15.73273444      -2.30979248      -0.22715096      -0.03005985
O        6.13468021       3.96440220       8.22513284       0.83406212       1.08066354       0.75162673
O        6.17708137       2.99724013      12.39727974       0.37165878      -0.74805700      -0.70969531
O        1.02879702       7.89978541       8.20030308      -0.25324396      -0.06677697       0.64511986
O        1.59730346       8.49779538      13.01422181       1.09196171       2.93180221       0.12661237
O        8.50429590       1.98694967      19.53750313       1.63054473      -1.11721006      -1.61620885
O        7.97021431       1.49862024      15.30686499      -2.69690490      -4.13563431      -1.44841839
O        2.76160410       4.38636260      16.68818363      -0.91486920       2.24673502      -1.26972149
O        5.42667347       7.72482591      17.73420827      -0.52269508       0.53553183       3.24382909
O        7.32838928       5.18711904      10.88322131      -0.12139430      -1.97580245       4.06466921
O        4.68117100       2.75090837      10.05283866      -0.71851795      -0.35429821      -0.99826840
O        9.60873249       8.05025159      17.97690406      -0.43985016      -0.85181727      -0.67357700
O        2.31793970       9.26814385      10.23590874      -0.97828131       0.37727079       0.10913557
O        0.11673441       2.00946045       9.89750336       0.80269677       0.46033072       1.05977067
O        7.52819933       0.08464217      17.71822112       0.14168981      -1.52127608      -2.48693017
O        9.30547471       8.39247492      22.53162293      -1.24942511      -0.33822379      -0.01549849
O        1.61115706       0.81310157      12.03666883       1.03453255      -1.42491328       0.92717686
O        0.92785497       1.63247388       5.17438108      -0.19107596      -0.81611722       0.22349494
O        8.38060106       9.26868864      15.62672355       2.02748198      -1.29420632       1.20355549
O        3.47963881       4.20028594      12.14575044      -0.61161364       0.73528303      -0.90255860
O        5.72874540       6.70548708       9.26053727       0.91662555      -1.28173092       1.27355126
O        5.97457418       5.62480206      15.80530545       2.71299026       0.14476432      -0.64241384
O        3.88048135       3.30325738      18.69562529       0.36586913      -0.46028038       1.76415892
O        8.67656383       3.13160287      11.66558996       1.78680743      -0.23750688       1.72686033
O        6.40558075       1.33020277       8.76325532      -0.08013945       0.03954523      -0.98008624
O        0.90673209       6.19555523      15.87081792      -2.84097689       1.72074748       1.07916375
O        3.74697229       8.84696789      19.47739316      -0.85445792       0.76618318       0.39003218
O        7.97916171       3.88692496      16.34051642       0.92638338      -0.80640687      -2.43118179
O        5.98875441       2.03210989      19.02693112       0.27608180      -0.93293734      -0.32652397
O        1.54008815       6.10925975      11.93695563      -1.67928438       3.49056846      -1.99441153
O        3.72044136       7.92987725       8.45349650      -2.18772868       1.13113130      -0.06284737
O        7.35784935       4.68769970      13.64042595       1.73047866       1.03712870       1.87290327
O        4.40961481       2.21452597       7.30725822      -0.73770727       0.45199553       2.15408886
O        2.22723279       5.01161474      14.20255010      -0.14634724       0.47601605      -1.12157656
O        5.32770802       7.08148894      20.50754382       1.15583285       0.24805872       0.69038448
O        0.16016881       3.02050331       7.39742124      -0.47562340       0.68759357      -1.55070943
O        7.04628326       9.68270586      13.27209902       1.33764609       0.43427453      -1.83922807
O        9.38952710       6.77458617      20.38791314      -0.64457304      -0.30381399       0.49051942
O        2.25200647       0.36828566      14.69520373       0.28226936       0.57670833      -1.53959263
80
Lattice="9.77192453 0.01751879 6.90363604 0.24348012 9.76890588 6.90363604 0.01370155 0.0133883 13.86910312" Properties=species:S:1:pos:R:3:forces:R:3 energy=-575.82255516 source_file=vasprun.xml step_index=0 time_fs=78000.0 time_ps=78.0 file_index=39 pbc="T T T"
Na       8.44002334       4.15862178      20.34499685       0.05286352      -0.13324913       0.08998539
Na       8.43949914       9.31195185      18.72430055       0.24117890       0.12254857       0.13146915
Na       5.66971872       3.67359302      17.06030467       0.87623580       0.03538470      -0.81118732
Na       2.39112855       3.33364307       8.47754696       0.03557609      -0.41396419       0.17234606
Na       1.38278635       2.09265702      16.16156903      -0.59178333       1.88468092      -1.16411623
Na       5.45756981       1.24663286      14.33554693       0.61563838      -0.14009670       0.13758734
Na       4.83768547       7.10741720      12.59560994      -0.02858222      -0.27750293       0.22122806
Na       1.24454563       6.65363643       6.21743464      -0.14448379       0.43634473       0.35293752
Al       6.72301130       5.36636601       9.19621883       2.61742645      -2.23880381       2.00630787
Al       4.69350969       2.72709060      11.79007063       0.77974100       0.61853484       0.53629477
Al       3.00990365       4.71654055      18.52113826      -0.30669341      -3.39788926       1.41706268
Al       5.07593701       7.09708622      16.07650543       1.42216500      -0.58693965      -1.76070309
Al       0.21905196       2.17954462      11.38406224       2.38846736      -0.43499688       1.42385461
Al       7.97146459       9.44318877      23.04488455      -0.47144735      -0.33334849      -0.26891316
Al       9.48111776       7.61016012      16.19042245       1.68146038       0.10396055      -0.52151341
Al       1.87251300       0.49756840       4.77168068      -0.63463392      -0.02019572       0.82651941
Si       2.53945382       5.44523688      15.45825902       1.37878225      -0.46553399      -0.14550080
Si       4.30253597       7.40254692      19.08531559      -0.99462093       2.71647319       3.46315761
Si       7.22105377       4.31056768      12.39883388      -0.02891648      -0.12910475      -0.95547673
Si       5.66788962       2.44932587       8.71516528      -0.30342089       0.43271149       1.87500765
Si       1.17760102       7.38597568      12.27692895      -2.24006291      -0.00177912       0.06755876
Si       2.42920890       9.18026525       8.76224170       3.56711039      -3.11283421      -8.38258923
Si       8.76928726       2.58413456      15.45124349       2.53859358      -4.42497525      -1.72470881
Si       7.34691783       0.69312676      19.17901253       2.67900112       0.20075870      -2.78159591
Si       0.28710054       2.96959538       5.66911717      -1.31879714      -0.90302747      -1.29683693
Si       7.13003820       9.32405024      15.11466735       0.08764185       0.83406104      -3.66728710
Si       9.52014138       6.81312014      22.11335960      -1.84529308       2.68705121      -2.28269459
Si       2.64902072       0.41453203      12.75239746      -1.94306155       1.25543329       1.64329389
Si       7.52849385       5.35715699      15.27700748      -3.36395447      -2.00403808       0.78991317
Si       4.50148921       2.08593120       5.74202922       1.67502067       2.09676449       0.91373888
Si       2.18256675       4.37717560      12.78913117       0.12053053       0.31395389      -3.08281652
Si       5.38526536       7.73621940      21.88804893      -0.25513856       1.28100633       1.24205927
O        8.20316749       5.84657049      22.03421853       0.01641063      -0.61872630       0.35072828
O        3.95359825       1.40175536      12.67833075       0.49934196      -1.06029522      -0.45804464
O        1.45887913       4.11571433       5.51739581       1.27268448      -0.23019083      -0.85602142
O        6.02986402       8.20053170      14.99468545      -1.76197777      -2.01820015       0.25125388
O        0.80932928       3.76048685      12.13105139      -0.27962445      -1.07516331       0.56496102
O        6.42972889       8.96236470      22.25960593       0.07821691      -1.03936920      -0.15722755
O        8.93780390       5.98117351      15.50933734       2.14708613       2.39530073       0.73338103
O        3.12273457       1.34653300       5.65036019      -0.98135796      -1.06552755      -0.47376951
O        3.33740337       6.15653725      19.31953596       0.11607022      -0.67658924       0.56384573
O        3.72449801       6.51781371      14.99465376      -0.15917752      -0.68502375       0.94010989
O        6.77928966       3.62415573       8.85796757       0.27948401      -0.72512193      -1.89654054
O        6.25976956       3.07315453      12.86625635      -1.65469732      -0.70767508      -1.54272324
O        1.34167706       8.07860698       8.45232373      -2.66474578      -1.86668238       0.27251619
O        2.12368111       8.70104727      12.37135419       0.33108951      -1.29741766       0.16716293
O        8.46471688       1.89464351      18.94255550      -1.63967250       0.49980806       1.29004985
O        7.89722936       1.18875844      15.13566349       0.67750968       0.00042345       0.98957034
O        2.84475638       4.70531464      16.86242658       0.26546763       0.04566199      -1.48956255
O        4.76389409       7.67045194      17.64495040       0.85273181       0.28171028      -1.97899720
O        6.85369538       5.13239905      11.06496334      -0.69918507       1.19002670      -0.88381556
O        4.73933692       2.80682920      10.05069382       0.15860352      -1.56517934      -0.87974242
O        9.89710473       7.70285991      17.88131244       0.60918193      -0.69811370       0.65120062
O        2.01775707       0.33913276       3.00090531       0.20060109       2.53963528       6.45730973
O        0.14688292       2.24082718       9.67284567      -0.57095305       1.25605690      -0.79844118
O        7.72000124       9.53438515      24.76598259      -0.25719895       0.04878989       0.34097298
O        9.08851067       8.09616537      23.00201500       0.93863785      -0.29835395      -0.70198842
O        1.37176564       0.88682992      11.87155857       0.37639674       0.40784069      -0.34316115
O        0.27482424       1.34415809       5.00341743       1.70014651       2.16705860       0.12783566
O        8.37389363       8.96255936      15.95804407       2.20996810      -1.37671675       2.25192511
O        3.57507925       3.99136386      12.05301269      -1.19455920       0.95476691       0.92155966
O        5.37837014       6.25769025       8.77227033      -0.40015065       1.56664224      -0.96525765
O        6.31841712       5.75186521      16.45308161       0.82658703       0.21798091      -2.33807736
O        4.36105330       3.43788178      18.58848356      -0.83737130      -0.16559004       2.22912842
O        8.69132914       3.63960315      11.95076592      -0.18949222       0.53984884       0.64360377
O        6.17755984       0.88417788       8.63108061      -0.79752936       2.89945612       1.74880712
O        1.10943290       6.10139636      15.68047773      -0.59042332       0.36569035       0.24975178
O        3.18078479       8.59043843      19.47719492       0.10853176       0.19799696      -0.21289249
O        7.59562884       3.62317019      15.52384937      -0.99300985       3.38979115       0.85258455
O        5.90502448       1.34979446       5.24802559      -3.89486718       1.78825269       0.37309045
O        2.01152858       5.97213733      12.21038448       0.27092993       0.71251329       1.02159522
O        3.97150944       8.37063860      22.41249944      -2.58494781       1.45924656       0.52300688
O        7.03983217       5.40084939      13.70175429       0.69009279       0.10627815      -0.21316149
O        4.65842206       2.52505094       7.43252310      -0.82503386       0.26483652      -2.61233120
O        2.32256858       4.13094832      14.41816379      -0.14608861       1.21850800       0.14975852
O        5.49001618       7.63161040      20.24085587      -0.46034227      -0.90220632      -0.98276648
O        0.08193636       2.84470107       7.24347720      -0.62947488       0.03367190       2.55808737
O        7.77301469       9.75178365      13.59807620      -0.01547314      -1.78719229       2.20551403
O        9.80178829       7.35600318      20.41300470       0.37011533      -0.76255413       1.55681300
O        2.10962440       0.66793876      14.41397080       0.97394658      -1.94745950       0.32676903
80
Lattice="9.77192453 0.01751879 6.90363604 0.24348012 9.76890588 6.90363604 0.01370155 0.0133883 13.86910312" Properties=species:S:1:pos:R:3:forces:R:3 energy=-575.82389394 source_file=vasprun.xml step_index=500 time_fs=79000.0 time_ps=79.0 file_index=39 pbc="T T T"
Na       8.78055561       3.20253818      21.05473335      -0.15754621       0.18393266       0.31805621
Na       8.55731480       0.53045094      10.91636250      -0.08516739      -0.14521971      -0.46133861
Na       6.42543656       4.70636163      18.33855922      -0.02787799      -0.18235310      -0.22628681
Na       0.43637193       8.18262232      17.65603938      -0.00537242       0.16222659       0.25140542
Na       3.16862999       2.60420487      15.08720366      -0.35182799       0.16829081       0.19606274
Na       6.01341359       1.59837854      13.75696646       0.41213830      -0.77094003       0.66380099
Na       4.13159991       7.16499169      11.09926536       0.02983771      -0.02252444       0.01863637
Na       1.39081727       4.94000779       7.92257321       0.00410282       0.45075459       0.00390239
Al       7.07740004       5.59400025       8.97157566      -1.20861466      -2.32925056       2.81952487
Al       4.31917529       2.78609523      11.54035674       1.31641641      -0.34079378      -0.79802706
Al       2.97317195       4.53101311      18.40791324       0.07932375      -1.41448934       0.52508549
Al       5.25401982       7.33331284      16.08656543       0.99940592       0.34783791       1.01799794
Al       0.33524715       2.28654700      11.68176711      -0.04927779      -0.84654417       0.29397987
Al       7.86363075       9.37751328      22.86970175      -1.45285668       2.54945294       1.47784476
Al       9.37087980       7.53030037      16.00868013       1.56018550       1.03335994       1.05589691
Al       1.79064890       0.48246761       4.96953486      -0.16952996      -1.22579268      -0.89076830
Si       2.57274056       5.69791060      15.61511914      -1.91646011       1.42490507       1.67513294
Si       3.93150089       7.54562313      18.97511464       1.91219345       1.88247581       2.26633041
Si       7.14274226       4.31645899      12.09169037       1.51345030       0.49296186      -0.94120294
Si       5.74781711       2.57919481       8.61672336      -0.79295783      -3.31181825       1.17933476
Si       0.93736488       7.45247675      11.99596364      -1.66939193      -4.66949370       1.01467125
Si       2.34474241       9.19738605       8.83911460      -0.82428869      -1.76926959       0.18158053
Si       8.99869974       2.67277962      15.74658150      -0.72313140      -2.32529042      -3.34642312
Si       7.28244511       0.68997298      18.91936378       0.03678456      -0.20804587       0.01012860
Si       0.32369533       3.02834664       5.85985366      -1.59594397      -0.84336208       0.79089007
Si       7.18604537       9.55430826      14.91331746      -0.75436620      -1.63082972       1.58054134
Si       9.51229751       6.93198783      21.82574397       2.53383618      -1.24540282      -2.03586887
Si       2.66922773       0.38125414      12.88006960      -2.84602862       3.05179082       1.26827562
Si       7.50169264       5.35289247      15.14471195      -0.12471867      -1.93170069      -1.16636881
Si       4.54439650       2.10184429       5.77222862       0.94040087      -1.15674990      -3.80072732
Si       2.00888061       4.80526236      12.62963250      -0.11498785      -2.14282062       0.85768621
Si       5.30135658       8.08541377      22.08642616      -2.53104285       0.28754256      -1.48469728
O        8.43111375       5.78096347      21.85661298      -0.05464809      -1.72064356      -0.68042648
O        3.90946297       1.43344237      12.71566562       0.40430675      -0.10468589      -0.46024795
O        1.52044872       4.02346635       5.51545294       1.60276392       0.35879688      -0.81552751
O        5.93663991       8.53066506      15.06797905      -0.43815604      -0.28721289       0.65643232
O        0.87310635       3.61862192      12.67575017      -0.24041604       0.43576138       0.30203764
O        6.26760024       9.38242082      22.05808408       0.62729264       0.26901627      -0.27984507
O        8.96904015       6.06251592      15.06648416      -0.05638755       0.80970025       1.28972223
O        3.27689106       1.14757005       5.37194990       1.70832649       1.35421451       0.82183030
O        3.21101632       6.16683812      18.86278331      -0.53058722      -1.16183461      -0.36420435
O        3.86216051       6.57563916      15.47344878      -0.18898552       0.16670863      -0.21953718
O        6.76358628       3.79453601       8.48160987      -0.44079421       1.92947666      -0.18858090
O        6.09343641       2.91006647      12.07722391       0.72004796       2.92065954      -0.08985703
O        1.30988342       7.83912916       8.55944924       0.94538234       1.75806287       0.11587124
O        2.00503234       8.49021754      12.32661759       2.47091944       3.09841267       0.35400199
O        8.62280578       1.57890502      19.20569341      -0.64500464       1.21116107       0.14352566
O        8.41621363       1.10460005      15.59233924       0.52764473       2.39910412      -0.47946359
O        2.74367702       4.38497363      16.57558416       0.31338619       0.03226582       1.56175827
O        4.80288822       8.01114288      17.69864793       0.05732499      -0.60890329       0.20146754
O        7.23133048       5.34635152      10.76890235      -0.79950736      -1.42674582       0.88966118
O        4.54309698       2.40840019       9.77172310       0.92133171       1.19188873       0.61185469
O        9.56686434       7.57211277      17.86516579      -1.85567668       0.70981800      -3.93356124
O        1.60786635       0.30979587       3.20544174       0.05209680       0.04874537      -0.26880544
O        9.80192769       3.00770541      17.02465947       1.64964163       0.03087944       1.91096333
O        7.81292299       9.37957612      24.64583659      -0.16908732       0.04399225      -0.11899999
O        8.87579188       8.12293894      22.57598641       0.61761891       0.63941325       0.56696463
O        1.34106331       0.91557190      12.10060802       0.71706131       0.68290194      -0.70893845
O        0.39500448       1.44243491       5.40525258       0.00318204       0.53819252      -0.14455453
O        8.36890814       8.97054192      15.92450224       0.26731859      -0.44042071      -1.30930218
O        3.39508218       4.19775801      12.01830507       0.86349018      -0.76962027       0.42655529
O        5.90889088       6.88882859       9.11961831      -0.44290275      -0.23272720      -0.85889722
O        6.44963373       5.87931764      16.32909900       0.25548680       0.74023011      -1.50302050
O        4.50196471       3.65009420      19.07448176      -1.97270002       1.12773578      -0.86809634
O        8.71021660       3.68601357      12.15539458      -0.59518822      -0.64603012       0.21936888
O        6.85102401       1.24874826       8.68035464      -0.72423725       2.29825872       0.85558036
O        1.07906935       6.54164611      15.84723878       0.78861317       0.76399509       1.59978363
O        2.73136972       8.63056734      19.39861156       1.29143039      -2.24087846      -0.89336286
O        7.74420901       3.71334737      15.66948219      -1.15525729       1.64406887      -0.96335852
O        5.92640368       1.58767994      18.66452225      -0.87045190       0.47712012       0.72557000
O        1.77310052       5.93970011      11.52829109      -0.90984057       3.09212609       0.60856751
O        3.88236873       8.55439888       9.14775193       0.53058371      -0.55828365      -1.10390805
O        7.11267373       5.35967473      13.42876845      -0.98928477      -1.11915102       1.72283459
O        4.93439277       2.08900549       7.28282390      -0.08001006       0.55059320       1.20896019
O        1.99210612       5.22586319      14.25954001       0.53866373      -2.51251431      -5.64543310
O        4.89235441       7.64572835      20.45429207      -0.01248179       0.11949500       0.74222255
O        0.30631260       2.98477682       7.53845473      -0.96591976       0.04875009       0.49090832
O        7.19394168       9.62914834      13.32523075       1.11964896      -0.10952404      -0.79520549
O        9.73250948       7.14964872      20.20089385       0.89579184       0.03688846       1.51032597
O        2.33239461       0.58410221      14.59372252       0.30519522      -1.09478751      -1.16689655
80
Lattice="9.77192453 0.01751879 6.90363604 0.24348012 9.76890588 6.90363604 0.01370155 0.0133883 13.86910312" Properties=species:S:1:pos:R:3:forces:R:3 energy=-574.37035637 source_file=vasprun.xml step_index=0 time_fs=80000.0 time_ps=80.0 file_index=40 pbc="T T T"
Na       7.98157532       4.19621118      19.98502474       0.20792418       0.22364493       0.56181037
Na       8.52816798       1.65354760      10.16238329      -0.14342667      -0.69552401      -0.11710675
Na       6.18093356       3.16251597      17.21339005      -0.24687874       0.08219726      -0.24220868
Na       0.45290606       9.24552654      17.46880151      -0.15461836      -1.00859627      -0.78741218
Na       1.55859473       2.72626206      15.08217706       0.37257523       0.13637917       0.45704950
Na       5.87435040       0.65265392      13.42347056       0.03765780       0.35535431      -0.58687578
Na       5.13390220       6.12894004      12.61507224      -0.18550619       0.12197914      -0.28719825
Na       1.89160472       6.63811453       6.84983512      -0.25169984      -0.14014513       0.34261835
Al       6.99710143       5.29963811       9.44377036      -3.23124964       0.61318391      -0.96806839
Al       4.40967598       2.67708707      11.62995443      -0.02136118       1.37808128      -1.97160696
Al       2.70185878       4.48832768      18.56465374       2.04035419      -0.52593631       0.24268951
Al       5.43241830       7.01751421      16.35867667      -0.48167582       2.24772478      -2.16054019
Al       0.47808973       2.19505509      11.44095708      -1.54983327       2.30747246       0.33003644
Al       7.70618233       9.78358512      22.95855262      -0.69374314      -0.35857350      -0.06898802
Al       9.43425731       7.64546120      16.15950269       2.18793381       2.04204975       1.98365485
Al       2.16012900       0.34098994       4.92179444      -1.80831501       0.80366029      -0.25894946
Si       2.40922314       5.99950783      15.82054916      -2.25464687      -2.25098911      -0.91890692
Si       4.48167691       7.33385976      19.17915876      -2.64911267      -1.49965648       2.93746871
Si       7.15227349       3.93896794      12.26635505       3.01091789       4.29836648      -1.90578744
Si       5.40098194       2.58227642       8.49511007      -2.09058021       0.31217633       2.03759753
Si       0.83653082       7.40105220      12.44923166      -0.91709797      -0.64452628      -2.17623081
Si       2.53072532       9.17217644       8.71200077       3.45014488       0.06792509       1.06269577
Si       9.11668990       2.74096803      15.48382512      -2.77326247       0.98340060      -1.91761049
Si       7.54177679       0.71244167      19.27881713      -1.51130718      -0.37309070      -0.94076012
Si       0.19856066       3.03114850       5.49301558       0.37669997       0.77975922       1.44830638
Si       7.16485782       9.46899586      15.23323358      -2.92125327      -0.01034972      -1.91017634
Si       9.36526057       7.10639752      22.10360902      -3.77888775      -3.42244432      -1.63169644
Si       2.57286696       0.31310204      12.66645863       1.98883230      -1.47142950       2.29351843
Si       7.67762921       5.35458150      15.17405334       1.51124139       0.02486269      -1.24335112
Si       4.60569692       1.92160052       5.66990983      -1.68397256       1.56608591      -0.89682487
Si       2.12868034       4.70116723      12.76981242       0.24241705       1.95009092      -0.36262539
Si       5.39827633       7.95934185      22.00804479      -0.26996990      -3.19086793       2.94679206
O        8.45471269       5.74678526      22.58308512       2.55595537       1.58099380      -0.98878871
O        3.76482308       1.18328849      12.10632879       1.18318844       0.06521469       1.36727891
O        1.12770526       4.32299877       5.39049746       0.35570592       0.61496376       0.73170315
O        5.81373127       8.53326253      15.41600159       1.46413500      -0.88944341       0.14322423
O        0.89742880       3.88691467      12.04432218      -0.01031113      -1.60837675       0.86353605
O        6.12431229       9.38982354      22.19412852       1.57832270       0.72857968       0.97107121
O        8.65474367       6.62550525      15.06536377      -0.00930326       0.01772607      -1.08378132
O        3.59598321       0.74166694       5.73936922      -0.40054306      -2.13924268       0.58375799
O        3.47002647       5.94142282      19.29394667       1.26352870       1.33651602      -0.14200689
O        3.85568093       6.64895728      15.69321440      -1.10199701       0.01456452      -0.14915648
O        6.38489827       3.84714771       8.49022419       1.44949524       1.13040821       0.97530024
O        6.02512356       2.91120728      12.37407207      -2.32711016      -3.33122544      -0.02767910
O        1.30146748       8.24122677       8.43819762      -3.24902887      -1.36268548       0.46265638
O        1.52454585       8.84680325      12.60632016      -0.54144967      -0.36214583       0.96711020
O        8.64536534       1.87623608      19.28592426       2.15272679       1.38394101      -0.37242405
O        7.87627719       1.62426274      15.42708228      -0.47601476       0.48837583       0.14779498
O        2.29550537       4.75527925      16.90928911       0.11268555       1.58897869      -1.35170267
O        5.47145414       7.28002963      18.01128253       1.00717818       0.36481142      -1.03230168
O        6.90477197       5.17217198      11.17362047      -0.64861679      -0.94649970       1.12184155
O        4.34514330       2.44459352       9.85597181       1.71474934       1.08741104      -1.14245339
O        9.91440530       7.31899348      17.87183992      -0.92397541       0.08060292      -1.14502989
O        2.70559595       0.01957580       3.30748707      -1.66407447       0.13236233      -2.56619080
O        0.28858527       2.29039196       9.69000567       2.86875751      -1.81299053       3.80839301
O        7.78346930       9.75178459      24.70737707       0.67578867      -0.11805876       1.00427449
O        8.80749922       8.47330045      22.63183400      -1.08826819       2.06926372      -0.02756613
O        1.29032162       0.75152947      11.89517367      -1.44897644      -0.00723318      -0.72760640
O        0.62561505       1.73522106       4.74568712       2.81242619      -3.33950243      -1.00415256
O        8.38019236       9.11626567      16.18287992       1.12690216       0.34616316       0.91929654
O        3.57692235       4.07795300      12.35562189      -0.12147230      -0.12949697       0.11491018
O        5.70444191       6.58557056       9.08781346       1.30087967       1.34560235      -0.92465909
O        6.43818526       5.67293105      16.09485099      -0.58308655      -1.36075285       0.42346330
O        3.82995527       3.03508700      18.60156068       0.42008672       1.36437977      -1.25109940
O        8.58939156       3.32469684      11.57127364      -2.67442790       0.77019508       1.50778639
O        6.29786385       1.23721983       8.55697631       2.06700060      -1.42184632       0.09448322
O        0.99317525       7.15843949      15.88546043       6.31371835      -2.25498779       1.17210390
O        3.30450355       8.52912380      19.26265808      -0.74564575       0.07203727       0.11230263
O        8.69107640       4.32042261      15.92955552      -0.93164376      -2.29468511      -0.04725327
O        6.16772993       1.67398927      19.12180423       0.16343630      -0.15550093      -0.36573663
O        2.12030894       6.31337144      12.30250474      -0.40987640      -0.71116872       0.82708963
O        3.83040841       8.15147370       8.46849132      -2.01750102       0.88015450      -0.46057357
O        7.12467684       4.80854008      13.69021286       0.70234380      -0.23899797       0.61539284
O        4.67109884       2.68772934       7.03736161       0.07495384       0.77928060       3.09080431
O        2.02348753       4.88034888      14.44658478       0.10081799       0.41128659       0.11570202
O        5.51784868       7.63669743      20.43794709      -0.25008358      -0.39260300      -1.56874537
O        9.69838920       2.88272043      14.00361032       0.07934000      -0.32958490      -0.56213534
O        7.80148879       9.45137805      13.61228520      -0.69462568       0.72541346       0.12245052
O        9.30619913       6.86485003      20.43235902       2.63452675       1.29567480      -0.27729234
O        2.28723239       0.55901668      14.35980344       0.33844862      -0.18623338      -0.30150612
80
Lattice="9.77192453 0.01751879 6.90363604 0.24348012 9.76890588 6.90363604 0.01370155 0.0133883 13.86910312" Properties=species:S:1:pos:R:3:forces:R:3 energy=-575.80831093 source_file=vasprun.xml step_index=500 time_fs=81000.0 time_ps=81.0 file_index=40 pbc="T T T"
Na       8.75914704       3.81908758      20.68074256      -0.42771096       0.15902548       0.34386017
Na       7.90522134       0.62276669      10.98556487       0.29579577       0.17283845      -0.48828726
Na       6.04295606       4.32166772      17.60841345      -0.34055750      -0.37950363       0.35483128
Na       1.18170668       9.12641096      17.26786640      -0.28202710      -0.71411319      -0.70979036
Na       2.34365923       2.49248435      15.39914681      -0.01785204       0.22209397       0.06852239
Na       5.57838032       0.71511681      13.59689430       0.48281178       1.06283964      -0.59075412
Na       4.10483743       8.41418441      13.32872003       0.25456378      -0.37372357       0.36756304
Na       1.68878948       5.76514852       7.87907764       0.03489937      -0.15862579      -0.41485595
Al       7.10350817       5.42188292       9.37227864      -2.02737821      -1.28084779      -0.29461092
Al       4.53418301       2.81300912      11.47668069      -1.37567228      -1.33371492       0.08627153
Al       2.74387238       4.59910175      18.65616393       1.14053102      -0.52412157      -1.38688297
Al       5.20597068       7.19476177      16.02554055      -1.48473969       0.67817968      -1.09343333
Al       0.31949737       2.02308616      11.55365733       0.95257282       1.20097357       0.49671149
Al       7.94707080       9.72942114      22.66726154      -3.33367767       0.20529368       3.60245282
Al       9.52452457       7.68861132      16.13261675      -1.20111067       0.53238989       0.18173895
Al       2.08242121       0.37658025       4.86921960      -0.73213014       0.51231085      -1.20833839
Si       2.50873607       5.75148903      15.57015373       0.75561896       2.26919067      -1.44896941
Si       4.18435896       7.24826405      19.10939601       0.75830007       1.04044460       2.79525400
Si       7.10341889       4.01445030      12.39749317       0.42189197       1.81118935      -3.72110145
Si       5.75489766       2.55343990       8.40377465      -0.45059682       1.03087306       4.62265063
Si       0.67299793       7.38256385      12.17827875       0.56334499      -1.73464372       0.57813330
Si       2.56688977       9.09954784       8.71773098      -1.11945387      -5.82392773      -4.50235115
Si       8.86967747       2.67613889      15.49914252      -0.12802327      -1.20495304       2.54871579
Si       7.32888380       0.94017298      19.02012382      -0.11676459      -1.92727758      -2.02264492
Si       0.23403530       3.08001184       5.68826446      -2.48670922      -0.57858556       0.80182976
Si       7.15746663       9.47152938      14.85470309      -0.79630493       2.33776245      -0.17631851
Si       9.45545113       6.92540220      22.04232090       2.11352699       2.67581187      -0.94827113
Si       2.70850090       0.22379754      12.68891922      -0.82548259       3.15059538       0.32339927
Si       7.57104608       5.22986546      15.25598912       0.03870411       4.39769954      -0.49719039
Si       4.59450771       2.10088171       5.67847385       3.22175506      -0.01873436      -1.86044931
Si       2.12590826       4.55492845      12.59943244      -0.57942733       0.09705416       0.90932116
Si       5.46982889       8.00664396      21.94808378      -0.69511235      -4.35835015       2.13858696
O        8.63627157       5.65123197      22.39968141      -0.48759728      -1.37308413       1.00449745
O        3.94318991       1.18654837      12.26493539       1.55112583      -0.52119225       1.16021621
O        1.12181725       4.38478628       5.47052227       0.90532271       0.42775591      -0.60080776
O        5.85225523       8.59745174      15.17791685      -0.83088222      -0.75798475       0.58996253
O        0.88134116       3.51680452      12.52465852      -1.08229149      -0.90297061      -0.68637735
O        6.24368527       9.33679898      22.15317045       2.17846833       2.16412883       0.85678289
O        9.00323403       6.19169630      15.31319018      -1.95124556      -1.22903769       0.80118154
O        3.80920158       0.77004721       5.37618252      -2.97553096      -2.30330214      -1.15999627
O        3.27348699       5.98907504      19.53925035       0.50368793      -0.02665757       0.45101749
O        3.62928114       6.93256292      15.17643625       0.79525183      -0.69318859       0.73870287
O        6.53460540       4.01917800       8.23272002      -0.08310915      -1.65768170      -0.15282860
O        5.88881515       3.01027258      12.47264800       0.63723017      -1.35939707       1.60102092
O        1.37776429       7.81755613       8.72200546       1.93792807       1.71766981      -0.38465455
O        1.59958332       8.65318712      12.51549146       2.07271105       1.66805506      -0.08219618
O        8.64943201       1.69840190      19.48409562       2.23185526       1.01075884      -0.18118814
O        8.00739546       1.42483110      14.99075052      -0.64373982       0.25014228      -0.63024269
O        2.81783892       4.71826140      16.76664518      -0.42154106      -0.30683536       1.85858031
O        4.88173405       7.02139429      17.71462534       0.07157802       0.91882793       0.59692296
O        6.89020655       4.94239959      11.02649345       0.40624881      -0.00238281       1.11206968
O        4.76847588       2.65713293       9.82440421       1.45820145      -0.41970148      -2.91062416
O        9.40219818       7.99130527      17.94014826       0.52884630      -1.55074631      -0.67960674
O        2.08637205       0.27386119       2.93835385      -0.39822479       4.03155805       6.76422142
O        0.17274138       2.13531941       9.76087253      -1.41518048       0.85765433       0.55041887
O        7.79415132       9.78374642      24.59690404       0.59055757       0.84514458      -1.51696338
O        8.91189022       8.42660567      22.46935661       2.40744641      -3.08674052      -0.59885726
O        1.74720068       0.96203558      11.60466068      -2.92136561      -0.67907129       0.32353479
O        0.97246850       1.75419659       5.18350612       0.67862829      -1.11140089      -0.35172445
O        8.47742857       8.98531392      15.55610303       1.29758138      -0.92651498       0.34195851
O        3.42799028       3.99280277      11.96804823       0.52202671      -0.04307280      -0.47569596
O        6.02242770       6.74467043       9.06690119      -0.39498570       1.69725028      -1.94783160
O        6.13163556       5.79066154      15.91313327       3.09303838      -1.23360692      -0.83855342
O        4.20858207       3.45908015      18.84923087      -2.92717186       2.32867436      -0.87312078
O        8.41969479       3.12247389      11.85827072       2.58327210      -0.49411707       1.82114550
O        6.84025637       1.23841190       8.82023883      -1.31896662       0.36615682      -2.13938532
O        1.26129262       6.85944904      15.82908560      -1.65136100      -0.87681164      -0.38167633
O        2.98943350       8.42426155      19.28047926       0.93170834      -0.75633780      -0.66097669
O        7.72376082       3.86794159      16.01612773       2.19765736      -3.47881016       1.36673903
O        6.22102743       2.10777315      18.81031767      -2.18971390       0.27469012       0.92809534
O        1.85958323       6.00531373      11.97068331      -2.70027246       3.61205294      -0.94271572
O        3.91146001       8.15055500       8.70489215      -0.09143468       0.96390825      -0.93603203
O        7.25075432       4.91967304      13.72614903       0.32840994      -0.22979223      -1.32123336
O        4.65813398       2.12833763       7.25409145       1.07473158       0.43683813       1.88244523
O        2.36652760       4.78978046      14.24024814      -0.58605641      -0.47045895       0.74023547
O        5.49151767       7.80346034      20.28506242      -2.45976557      -1.04992431      -1.48762938
O        9.72252893       3.11049013      14.26188714       1.48376725       1.34866339      -2.48644987
O        7.03929488       9.65329537      13.19117760       0.12271555      -0.29252717       2.09106841
O        9.51930499       6.85408446      20.36350281       0.72644201       0.42391921      -0.09607031
O        2.10522319       0.38650675      14.35554150       1.62539672      -0.60483269      -1.91519200
80
Lattice="9.77192453 0.01751879 6.90363604 0.24348012 9.76890588 6.90363604 0.01370155 0.0133883 13.86910312" Properties=species:S:1:pos:R:3:forces:R:3 energy=-575.80321863 source_file=vasprun.xml step_index=0 time_fs=82000.0 time_ps=82.0 file_index=41 pbc="T T T"
Na       8.71275248       4.15128854      20.47834480      -0.39713337       0.38301188       0.66898331
Na       8.27015137       0.62771001      10.79798135       0.14711035      -0.46364759      -0.24916083
Na       6.31423674       4.30368323      18.06936636      -0.37058040      -0.71696171       0.87144366
Na       1.11881849       8.76895396      17.71081498      -0.14001937      -0.18681207      -0.08846612
Na       1.69716066       2.79229009      15.82789995       0.25742489      -0.82762744       0.19144780
Na       6.09271215       1.67676527      13.83309995      -0.03701878      -0.97136069       0.74846869
Na       4.21596473       6.86526722      12.17679682      -0.02830493       0.06155481      -0.01794546
Na       2.50755044       1.93828468       8.50185034       0.24193646       0.22595250      -0.17259878
Al       7.18011372       5.27733999       9.46949433      -2.25492073       0.66366355      -3.20730299
Al       4.47118629       2.94959381      11.78526155      -0.03095233       0.60706039      -3.05519267
Al       2.67157397       4.89259005      18.44081897       0.83796561      -0.35793969       2.98485530
Al       5.39599399       6.79418709      15.99428699      -0.93184717       0.80616635       1.81382974
Al       0.12687456       2.34102994      11.54098236       2.07891600       0.05067963      -2.50067887
Al       7.78589695       9.60602224      22.75872808       0.39872833      -1.06738893      -1.12983332
Al       9.61920537       7.73458866      16.01859568       0.26837391       1.39538109       0.72674142
Al       1.94302020       0.59901138       4.85523380      -1.65804878      -0.77735282       0.05967489
Si       2.50923562       5.62089591      15.42438335       1.61659562       4.50660956      -3.27674465
Si       3.95469342       7.55276639      19.04964662       0.95197728      -1.64929482      -0.06360198
Si       7.25141242       4.38464963      12.45115991      -1.60960446       1.99101205      -3.03381327
Si       5.90313631       2.35540691       8.72164072      -1.60752656       2.52738486      -0.38892631
Si       0.72827325       7.55692136      12.19664429      -0.74694712       1.66468841      -0.21966808
Si       2.60978182       9.22985922       8.74370775       0.20207353       0.69897946       0.54480979
Si       9.12405529       2.22902807      15.22087775      -0.47593418      -0.59267162      -0.19938103
Si       7.08989663       1.11747752      18.90299083       0.41868504       0.30095324      -1.36867419
Si       0.25911820       3.00819049       5.59097666      -0.24468669      -2.94903168      -0.87386124
Si       7.07428589       9.30832741      14.81761737       1.14297507       1.44168698       2.21526641
Si       9.55764402       7.06311368      21.95573534      -1.48509394      -0.72343132      -0.16825067
Si       2.65734827       0.67345161      12.84048589      -1.00884289      -1.46289795       2.38396621
Si       7.84710391       5.18515172      15.25061246      -1.01608156      -1.74193941       4.70321278
Si       4.35105926       2.47047089       5.78294925       2.92756488      -4.30110686       2.26645474
Si       1.88068577       4.74484167      12.40879604       0.76525460       3.16067056       1.45086017
Si       5.24609323       7.81345611      21.95477506       0.99625778      -2.15508613      -0.67182486
O        8.64086973       5.70421526      22.38866465       1.30402226       0.96019484      -0.26942763
O        3.86891461       1.67380512      12.81585213       1.92859083       1.56085588      -1.67557117
O        1.26284940       4.01138306       5.04640860       1.55453255       2.41541621      -0.60518902
O        6.01649643       8.15123155      15.12459290      -0.13570268       0.32331679      -1.49680137
O        0.59889983       4.04702312      11.87100980      -2.62442935      -1.80206585       0.25785906
O        6.29140063       9.02763310      22.10665208       0.33987024       0.76835739      -0.21290916
O        8.98377342       6.21104266      15.61927881       0.45750018      -1.40464445      -0.77898203
O        3.22059039       1.36358217       5.71387833      -0.86297450      -0.14739882       0.50292269
O        2.69122161       6.44196796      19.24169373       1.44191699       0.96166609      -1.01933679
O        3.91499917       6.57534007      15.02632285      -1.55648229      -2.95709379       0.49310872
O        6.93125245       3.61154892       8.79719110       0.95514952       0.39575826      -0.36070077
O        6.04328120       3.32235817      12.48857908      -1.38799459       0.19258151      -0.07061182
O        1.23290986       8.43707370       8.24840355       1.17991936       0.22067977       1.42810162
O        1.53337875       8.90992785      12.61844462       0.86544449       0.13830604      -0.29523492
O        8.37871122       2.16672493      19.09956648      -2.26361688       0.25069866       0.93417370
O        8.23445183       0.92351065      14.53644267       0.09455321       1.51548196       2.69181361
O        2.58239665       4.74980887      16.73359654       0.27531204      -0.68497647      -0.27753679
O        4.77528247       7.44784742      17.64429289       0.06398387      -1.30865183      -0.64424348
O        7.11092090       5.46691084      11.15073995       0.16724269      -1.30108336       2.70844102
O        4.94195616       2.54025246       9.98209805      -2.51925067       0.31618132       3.06303853
O        9.58432726       7.91555860      17.80362618       0.78568840      -0.48155557      -0.45129321
O        2.46429073       0.51330366       3.18543517      -0.77257394      -1.73493582      -1.16830301
O        0.26912570       2.08634614       9.69859536      -0.11248774      -0.74461376       0.21330910
O        7.29743385       0.51454665      17.39748488       0.38424427      -0.00386440       1.64260166
O        9.02857616       8.32999721      22.87697111       0.74014642      -0.53455496      -0.57192174
O        1.22333840       1.13043512      12.20962275       0.39420836       0.14659221      -0.12496688
O        0.46059150       1.61780305       4.78927328      -0.13393543      -0.62422286      -1.36307273
O        8.35291025       8.87437519      15.73902758      -0.01538671       0.69210109      -1.61700816
O        3.13192394       4.19762704      11.67376643       3.57534110      -1.63436466      -0.23543328
O        5.64139259       6.36657840       8.73676629       2.29658968      -0.81114796       0.72207692
O        6.52403565       5.40454832      16.39145810       0.71279297       1.35050645      -2.85337523
O        4.07685795       3.93873971      19.33382414      -1.47771475       4.34650929      -2.69182924
O        8.51899392       3.47762349      12.39288660       0.16755910      -0.38417012      -0.72720386
O        6.53726029       0.92863158       8.88996281       1.00824512      -2.32324876      -0.84696966
O        1.42524333       6.91808998      15.34178453      -0.64178208      -0.94929001       0.93479649
O        3.21048097       8.98235279      19.00926039      -1.58549321       2.56627764       0.36196992
O        8.14195478       3.50866375      15.54463530      -0.15819576       1.27389596      -0.42607858
O        5.66425510       1.87448581      18.76132020      -0.47060876       1.49889435      -0.17706787
O        1.88905648       6.40145655      11.91663175      -0.17872762      -1.71104604       1.18152389
O        3.88169829       8.13294788       8.90571993      -2.45914010       1.62655056      -0.01924999
O        7.26340414       5.21825564      13.80753950      -0.89155935       1.44958061      -1.40097568
O        4.97813636       2.34275771       7.33438423      -0.30554005       0.34477154       0.28378338
O        1.99807834       4.63375643      14.16751040      -0.08099896      -0.33768857      -1.18498570
O        5.04182340       7.64747083      20.28154682      -0.61839041      -0.14282754       0.63929729
O        0.39232119       2.47254861       7.07764893       1.28350630       0.45413452       3.27966431
O        7.02649112       0.21408512       6.37842837      -0.04899185      -1.89419151       1.10539405
O        9.36393025       7.06872249      20.23487983       1.01936784       0.08149335       1.76603890
O        2.65158621       0.71927206      14.59268946      -0.89015333      -1.47445704      -1.58466924
80
Lattice="9.77192453 0.01751879 6.90363604 0.24348012 9.76890588 6.90363604 0.01370155 0.0133883 13.86910312" Properties=species:S:1:pos:R:3:forces:R:3 energy=-575.13392267 source_file=vasprun.xml step_index=500 time_fs=83000.0 time_ps=83.0 file_index=41 pbc="T T T"
Na       9.12438951       4.37161951      20.72180244       0.09002930      -0.47204968      -0.33562889
Na       9.03953687       1.16932044      10.24275644      -0.11902960       0.77873925       0.02830468
Na       6.30710949       4.07588068      17.80864632       0.16995285       0.08521389      -0.20166783
Na       5.73747240       7.34241185      12.47468384      -0.00019995      -0.02591656       0.04850356
Na       2.99642497       2.20718111      16.63212880       0.20750550       0.67425496      -0.55131415
Na       6.17183973       1.13547929      13.33723226       0.03551379      -0.04000444       0.38116766
Na       1.19666440       5.85669666       7.41598044       0.32113979       0.64374318       0.19035762
Na       1.30727283       9.07694457      17.79828794      -1.08159995      -0.56475814      -0.79974454
Al       6.91913949       5.46958495       9.14038945       1.87847362      -0.45123699      -1.40819669
Al       4.54346308       3.16330028      11.33855142      -0.36015386       0.38353044       1.60720255
Al       2.96190316       4.69744044      18.65956851      -0.36102872       2.07189873       2.50850053
Al       5.32548376       7.09161709      16.07282338      -2.08341003       0.03526220       1.23197237
Al       0.42695569       2.47414706      11.43766988       0.03650107       0.03179225       0.56503643
Al       7.96425371       9.49931627      23.27392543       0.52983178       1.14670519      -2.10236317
Al       9.76685918       7.97143226      16.14182453      -0.95644915       0.56779480      -0.23216660
Al       1.87935475       0.61960667       4.59306722      -0.99630273      -1.48926881       1.24195237
Si       2.58523104       5.49716884      15.63984907      -1.61277828       4.06869722       0.83104831
Si       4.22911868       7.83404627      19.05036757       0.96552330      -2.24503251      -1.47020802
Si       7.23599121       4.54982197      12.16517080       3.32454403       3.62773176       0.26496316
Si       5.61894048       2.50508848       8.56642756      -2.09124958       0.46352855      -0.84149227
Si       1.08093151       7.45946126      12.28119490       2.49415238       3.64546422       1.62284884
Si       2.62549876       9.18915372       8.47531055      -1.56853210      -1.71902646       1.28007803
Si       9.01286867       2.56700903      15.59130292      -0.99632062      -2.29018077      -3.57706351
Si       7.48209657       1.08273006      19.18162775      -1.67053172      -3.11401945      -3.60552656
Si       0.28500796       3.19742989       5.77811898       2.00618588       2.52888685       0.18041116
Si       7.12015433       9.57038069      15.11574039       0.35307473       0.11581768       1.48810646
Si       9.78246874       7.07464828      22.13699307      -4.18732441      -2.25908467      -1.23548887
Si       2.77682888       0.73601440      12.68242452       0.88136330       1.55011954       1.10420231
Si       7.78475032       5.36223022      15.35591660      -0.73462412       3.44735860      -1.49582531
Si       4.62551835       2.05394639       5.57193784      -2.22976344       1.43526557       0.89978362
Si       2.30357511       4.87691431      12.65165181      -0.39635561      -0.85260224       1.66434610
Si       5.51290436       8.06167817      21.79737204      -0.91163526      -0.47626796       3.87764337
O        8.58324284       5.84946407      22.07497562      -1.23178932       0.48252680       1.98448676
O        3.97865653       1.74669568      12.24450692       0.04391266      -1.15822715       0.85981855
O        1.34708528       4.53832559       5.75205525       0.93264788      -1.44991987      -0.80795606
O        5.89189721       8.36044273      15.11229013       3.10802482       3.52516304      -1.41891058
O        1.06214850       3.93908071      12.10083617       0.22400231       1.46262186       0.56163880
O        6.49568828       9.27473034      22.39505868      -1.55269062      -1.77654042      -1.19411550
O        8.93061768       6.55955172      15.55155410      -0.54308803      -2.31890328      -0.44821881
O        3.47651195       1.12730774       4.91083867       0.45119873       0.32416646      -0.02154563
O        3.48323028       6.46631775      19.52473137      -0.49998180      -1.38078886      -1.57223285
O        3.88264260       6.34083294      15.34820221       1.25112669       1.43249033      -0.02507980
O        6.67295367       3.70039102       8.41714017       0.38556782       2.83473396       0.43915757
O        6.15208347       3.44265555      12.12861682      -1.52995770      -1.89158470      -0.43917582
O        1.35371854       8.15594925       8.13923752       1.18919211      -0.16368784      -0.10650250
O        1.70933720       9.02614616      12.55036400      -0.55551401      -0.56859270      -0.75427886
O        8.47834187       2.29068781      18.83841919       0.44030129       0.63633293       1.32327206
O        8.15929148       1.20693714      15.32958120      -0.44591800       0.28367628       1.20841506
O        2.76563570       4.66362858      16.93827883       0.27698031      -2.46563714       2.19186752
O        5.18195955       7.76274534      17.70114138      -1.29058460      -0.13341699       0.90453092
O        6.97173747       5.87224283      10.95786566       0.22562944      -3.14998983       1.23089688
O        4.44407281       2.79190012       9.66377223       0.70051665       0.13893972       0.00718140
O        0.31731704       7.60406234      10.92124799      -1.12796837      -0.44912831      -1.38557251
O        1.66506429       0.27992652       2.80466045       0.78790569       0.59108799       1.51409941
O        0.34615117       2.46704496       9.73677436       2.26885938      -0.10848162       2.63258271
O        8.12879229       9.51391802      24.96548595      -0.64886595       2.71672727       3.00536087
O        9.13353730       8.31471888      22.86688011       0.96202884       0.64372723      -0.17800355
O        1.37976251       1.20503235      12.13408132      -1.86238442       0.48048472      -0.94912238
O        0.90486666       2.15752739       4.74593725       0.53462728      -2.48571911      -1.03235723
O        8.64819923       9.42101975      15.82304974      -0.85583531      -2.47331889      -0.35913298
O        3.74308175       4.52859536      12.13973278       1.38652370      -1.72837766      -1.19260435
O        5.76122425       6.46984102      22.21045082      -0.11391008       2.14629933      -0.55081377
O        6.43023530       5.82314391      16.14473553       1.79034004      -2.06011809       0.34592822
O        4.39568676       3.65908224      18.91786515      -0.75338646      -0.60386806       0.37790971
O        8.72489083       3.75439226      11.95557313      -2.44216019       0.67265056      -0.35447788
O        6.69094622       1.34959771       8.90195238      -0.69802090      -2.70970278       0.64419385
O        1.18928065       6.51437691      16.09488887       4.21490473      -1.23860887       0.74977409
O        3.11890383       9.03427231      18.93608120       0.41582461      -0.76109267      -0.33088733
O        8.02202026       3.83604956      15.76823036      -0.06760366      -0.06108058       0.99871336
O        5.93612085       1.66648223      18.60845504       3.63298136      -0.61781947       0.25138823
O        2.38862494       6.46160178      12.36157611      -1.08872881       0.70608380      -0.98727147
O        4.03095669       8.40985345       8.83997697      -0.09666193       0.38373699      -1.18820262
O        7.47375385       5.36485480      13.70932695      -0.66599758      -0.76197331      -1.94120760
O        4.66471824       1.96582098       7.22168608       1.31048400       0.62501287      -0.12851668
O        2.15793410       4.68219452      14.38548434      -0.96729556      -1.91220993      -3.57533326
O        5.21573145       8.34533321      20.24549149       0.83033843       0.74940964       0.03078559
O        0.14138562       2.69210170       7.30440960      -0.37130951       0.70327408      -0.76997303
O        7.08845377       0.26733153       6.66882457       0.59459717       0.08181832      -1.02122284
O        0.32273754       6.96008474      13.62097047      -0.74082072       0.73810761      -0.20535937
O        2.55339854       0.60822910      14.34387236       1.26460313       0.74492836      -1.50045159
80
Lattice="9.77192453 0.01751879 6.90363604 0.24348012 9.76890588 6.90363604 0.01370155 0.0133883 13.86910312" Properties=species:S:1:pos:R:3:forces:R:3 energy=-575.52376995 source_file=vasprun.xml step_index=0 time_fs=84000.0 time_ps=84.0 file_index=42 pbc="T T T"
Na       8.00360229       3.98595273      20.31005013       0.12598492       0.20056987       0.23732505
Na       8.41768873       0.98387145      10.88176534       0.37330552      -0.14136753      -0.18947770
Na       6.22920297       3.87905369      16.83722538      -0.13209920       0.30392822       0.28392796
Na       3.80921573       5.93142385      10.60538481       0.44039155       0.55545662      -0.41233913
Na       2.24827039       2.33741137      15.44203460      -0.43558642       2.20272425       0.83505720
Na       6.21225279       1.07495969      13.57116758       0.16857133      -0.05848137       0.15976574
Na       1.22656541       6.84838492       6.49889917      -0.13445493      -0.39180331       0.26703591
Na       1.54972335       9.02065951      16.87670012       0.17274332       0.65904431       0.18539785
Al       7.41777066       5.50796261       9.41043688       1.03293971       2.43468761       0.09755661
Al       4.41890501       3.12027811      11.60245575       2.08382016       1.09923869      -0.18461557
Al       2.63794802       4.70841302      18.51337714       1.21346742      -0.82439514       0.34420915
Al       5.58603963       7.26721277      16.22130486      -1.27268135      -0.24693287       0.97458020
Al       0.43587484       2.08670764      11.74471590       0.21313192      -0.14349676      -0.30365713
Al       7.81168945       9.63024174      23.24150712      -2.63535245       0.06276256      -1.79097816
Al       9.53912583       7.96290214      16.04949171       0.47225458       1.92473116       1.13815020
Al       2.49845173       0.70072936       4.69190559      -3.14479771      -2.31450769      -1.52980388
Si       2.52419025       5.95037145      15.61861258       1.44934322      -3.56145380       2.42767987
Si       4.48575941       7.21246253      19.31962842       4.21308749      -1.56422169      -0.45467208
Si       7.58869496       4.27281458      12.15329261      -0.84787103      -1.12805912       2.20110893
Si       5.68074977       3.10183742       8.72769146       1.83709414      -0.37582620       1.53849789
Si       0.99305197       8.01359502      12.28190135       0.38924830      -1.93316547      -1.07450528
Si       2.76908773       9.25958890       8.59464582      -2.54635277      -1.70874291      -1.10352175
Si       9.09967752       2.41962800      15.59374318       1.16594219       2.00670525      -0.32392157
Si       7.28167455       1.00830241      19.17994055      -0.80213128      -1.07804822       2.66595895
Si       0.37185195       2.75918443       5.76752893       0.81018622      -0.22725849       1.84686452
Si       6.64014940       0.18837156       8.60216955       2.49213512       3.19691017      -3.12803243
Si       9.62463305       7.35015157      22.08189634       1.79593331       2.82555873      -1.16643557
Si       3.01555036       0.51283843      12.75493724       1.42040470      -1.74816998      -2.85932203
Si       8.18650712       5.47447209      14.93955701      -1.35508621      -0.12827106       0.98858451
Si       4.72504022       2.41500488       5.67649348      -0.16253360       0.56443097       1.27964968
Si       2.07583649       4.78210745      12.73712545      -3.12236509       1.15112758       2.78315566
Si       5.49658744       7.80487669      22.09636862       1.95589739      -1.70389435       0.07596657
O        8.64058434       6.14898370      21.99487431      -0.96095023      -1.76623418       0.64540736
O        4.28018182       1.47127660      12.19620049      -1.62777014      -0.29020962       0.97629575
O        1.16603239       4.04000738       5.34466359       1.28329095       2.37764203       0.15943239
O        5.72031036       9.06257081      15.95350407      -2.01206420      -2.88181251       0.50138982
O        1.01990352       3.62711672      12.20566887       1.13213559       1.26111199       1.27895056
O        6.34321768       9.15909144      22.10828655       1.19647981       1.46908136       1.18537537
O        9.43237898       6.37929344      15.30699518       1.07095378       1.32415857       0.09230896
O        3.77750980       1.11228106       5.57143285       3.66689263       1.41000221       1.75332813
O        3.28134471       6.15799062      19.37475598      -1.49652427      -0.52902161       0.29637523
O        3.88317748       6.72955796      15.83243604       1.98158962       0.47808715      -1.08864437
O        7.01265387       4.13573132       8.53598353      -2.57030236      -2.07488987      -0.52139097
O        6.07759972       3.60994096      12.23285224       0.65623640       0.29837854      -0.28805471
O        1.30711998       8.31930662       8.22205110       2.21736554       2.29524273       1.15292382
O        2.39306889       8.86253933      12.23083208      -1.34123053      -1.46851015      -0.31328182
O        8.71930489       1.76134775      19.42838327      -0.89177044      -0.32094178       0.28512239
O        7.94563723       1.28649034      15.36156366       0.08631484       1.14446416       0.08955446
O        2.40438959       4.72636458      16.81709228       0.01490497       1.40725512      -0.92732648
O        5.38957895       7.05094313      17.98143690       0.19092917      -0.13383630      -0.03244633
O        8.19378249       5.09197684      10.99155379      -0.87226462       1.87080576      -4.49190916
O        4.48525051       3.29392468       9.81663966      -0.35047946       1.36582837       1.13190783
O        9.70610251       8.26386131      17.87798087       1.48997480      -0.77475889       0.19813494
O        2.45665039       0.56653365       2.87783423       0.46952245      -0.44124168       0.95352693
O        0.14624642       2.10739495      10.07729144      -0.85454901      -0.09629992      -2.34525898
O        7.28054730       9.73329740      24.85964352       0.72307517       0.70831467       1.30950459
O        9.03214061       8.50594852      23.09270187       2.21328103      -1.40475866      -0.27473639
O        1.59052381       0.78433662      11.94077926       1.93797069      -1.12597815       0.73556051
O        1.00297202       1.51338771       4.98858591      -1.13136581      -0.05860487      -0.21419234
O        8.35604009       9.37725730      15.87477065       0.71867213      -0.82868470       0.42384829
O        3.58644867       4.52709833      12.41107747       1.76908232      -1.55582287      -2.35735462
O        6.02518482       6.70825572       9.38678416      -0.09216024      -0.26455688      -0.17747307
O        6.90021661       6.11259341      15.73446964      -1.23741661       0.44362211      -0.14674261
O        4.03884874       3.58580350      18.66411990       0.26732781       0.30635237       0.27752427
O        8.58355170       2.95866332      12.29414719      -1.20575173      -1.35505287      -0.18832335
O        6.46789705       1.78249504       9.35341845       0.85724036      -2.95975666      -0.97521459
O        1.43699387       7.07554988      15.87490719      -3.85011719       1.56388907      -0.98269816
O        3.94142825       8.67380979      19.46539070      -3.09043940       5.19272643       0.38380789
O        8.40771738       4.02072467      15.64540032      -0.33583424      -2.69546486       0.74848825
O        6.25287050       2.27080466      18.82951844      -0.49660018       0.64301396       0.27929537
O        1.48238359       6.26598719      12.47388906      -0.16565957       1.89660693      -1.90644538
O        3.89871635       8.06114202       8.55993831      -0.91892094       0.63712313       0.48135224
O        8.04694255       5.34558553      13.34124727      -0.82317976      -0.41964448       0.43332406
O        5.03516509       2.79672026       7.33423525      -1.21908124      -0.36107339      -3.81973574
O        2.17850590       4.89371758      14.44623013      -0.44535924      -1.04762191      -2.14998560
O        5.74012654       7.19409949      20.57565059      -2.54288989      -0.67214928      -0.64067284
O        0.40692361       2.61296615       7.44043975      -0.50306932      -0.86502456      -0.02420717
O        6.77390461       0.38018481       6.85124863       0.05473624       0.54417101      -0.36988055
O        9.87369238       8.15211655      20.53655860      -0.44515853      -0.65917442       2.39291094
O        2.77348969       0.69911763      14.33872818       0.26089518      -1.49971428       0.26434792
80
Lattice="9.77192453 0.01751879 6.90363604 0.24348012 9.76890588 6.90363604 0.01370155 0.0133883 13.86910312" Properties=species:S:1:pos:R:3:forces:R:3 energy=-573.96416447 source_file=vasprun.xml step_index=500 time_fs=85000.0 time_ps=85.0 file_index=42 pbc="T T T"
Na       8.95813144       3.72286674      21.15735998      -0.37966318      -0.00911907       0.10884579
Na       8.79911636       0.41865727      10.85266974      -0.58317049       0.18755639      -0.21773153
Na       6.74328294       5.03169561      18.51999470      -0.48856771       0.10800064      -0.32171272
Na       4.25350043       6.28244444      10.77805642      -0.10388716       0.29763007       0.02152111
Na       1.89444415       2.81929878      16.22990816       0.32724505      -0.51758678      -0.17857461
Na       5.92029364       2.58370549      14.42132729       0.18714651      -0.76083260       0.34648594
Na       0.88244888       6.84895236       5.36389824      -0.44241974       0.26878290       0.68361724
Na       2.76130653       1.29899197       8.71424604       0.37966791       0.33276513       0.10042112
Al       6.87679227       5.59234275       9.09914421       0.80538168      -2.67465872      -1.17973454
Al       4.56991223       2.91169067      11.72519414       1.05601122      -1.67141339      -0.83079460
Al       2.86830980       4.61732438      18.73862333       2.88542853       0.10631278      -1.19712464
Al       5.11058704       7.36122627      16.04571515       4.55071919       1.35994458       1.22946591
Al       0.38555377       2.13276434      11.88339359       0.11643359       1.38226828      -1.15843714
Al       8.21522191       9.57538916      23.17316146      -2.96628006       1.47787898      -0.33359665
Al       9.69316781       7.89133882      16.10830102      -1.67217453       1.24983903      -3.60166172
Al       2.08761989       0.40237282       4.79362848      -1.24077148      -0.30959833       0.48578971
Si       2.74414038       5.69688132      15.53752403      -0.51716272      -1.37215947       0.35574722
Si       4.23454471       7.38329550      19.34520278       4.71675988       2.70997013      -0.85758102
Si       7.61682385       4.23985329      11.98866965      -1.86607954       0.97550387      -1.16905793
Si       5.72342713       2.55426859       8.79083950      -1.83180919       3.46155844      -3.16574462
Si       0.90743085       7.44742657      12.26148863       1.94248513      -0.76302068      -1.76461447
Si       2.58318000       9.30107791       8.72281296      -3.59909867       1.15275291       0.40762397
Si       9.24659820       2.75811552      15.68830143       0.10041303      -1.12805242      -1.19572343
Si       7.45107863       0.97970476      19.29035994      -0.93000975      -2.37155141      -1.13643069
Si       0.44845102       2.77807083       5.77266351      -3.63724366      -2.43550436      -0.97697190
Si       7.14647175       9.76538019      15.08193551       0.55562443      -0.97194127      -0.03922900
Si       9.45696766       6.90016697      21.79615346      -1.71604595      -3.32433194       0.66781527
Si       2.77053530       0.44924303      12.92347303       0.45641895       5.38747144       1.07203461
Si       7.87387317       5.56141033      14.98814587       1.18535574      -0.12780869      -2.38993370
Si       4.64925548       2.25344618       5.79229749       1.73807957      -4.93160847       1.71807628
Si       2.30497554       4.54220211      12.70042910       0.20793852       1.76310132      -1.27016748
Si       5.57219417       8.19221163      22.22418536      -0.77734391       2.54851887       0.93701366
O        8.17210216       5.76920921      21.83440397       3.03221613       0.80006425      -0.83301962
O        3.97462176       1.62895644      12.86711458       0.48958206       0.23253705      -1.45434975
O        1.41787371       3.88899021       5.32855838       2.11707386       2.12083801      -1.78285230
O        5.77022121       9.11495728      15.56934784      -1.69779833      -2.64755179       1.00640165
O        1.04805667       3.57600887      12.69208095      -1.03376660      -1.18080680       0.65023055
O        6.43100673       9.61057880      22.25062632       0.54583089      -1.79601274       0.88803031
O        8.98793437       6.73595034      15.04666715      -0.07956672      -2.04451454       0.07019602
O        3.53164966       1.16633251       5.30669819       0.01780222       0.13298666       0.18713356
O        3.25235762       6.20309922      19.32531211      -2.90633956      -1.76859793       1.33348793
O        3.69435770       6.93928385      15.27797775      -1.22809700       0.46456121      -0.44332406
O        6.21376349       4.10702943       8.41119844      -0.55821331      -1.09533639       0.42854578
O        6.24870064       3.27383817      12.29425838       0.27458387       0.65426635      -0.27535809
O        1.26235135       8.44263353       8.31013486       2.01236539      -0.64862665      -0.64931375
O        2.13320868       8.58497167      12.43436399      -1.50033383      -1.22599218       0.24498381
O        8.68781109       1.91193400      19.76681148       0.78828919       0.49925646      -0.58673016
O        8.34608208       1.36876407      15.57760626       1.20759487       1.50142373      -0.55504365
O        3.15532062       4.88829219      16.96546327      -1.80187799       0.11989566      -1.56065419
O        5.04859365       7.23924766      17.85037164      -0.28189968       0.32263577       1.55871746
O        7.34533066       5.24382174      10.66024760       1.24983226      -2.18310091       3.86064595
O        4.60489548       2.55649895       9.91550123      -0.25548372      -0.82939066       2.13565782
O        0.26259794       7.58220009      10.76614932      -0.23435845       0.13814314       3.42754553
O        1.73044650       0.46019934       3.06897312       1.14290985       0.19533823       0.42305502
O        0.42536650       2.60995420      10.09326290      -0.38910770       0.08934535       0.41796433
O        8.09763699       9.75718273      24.91879391       0.25546913       0.94032262       0.13930156
O        8.87940309       8.14160690      22.55838963       1.51756588       0.54019245       1.55725851
O        1.58213603       0.94765958      11.94800057       0.40181182      -1.54854545       0.08159354
O        0.44080125       1.20430011       5.28156912       2.83223648       0.79140823       0.99787765
O        8.47708722       9.23208259      15.83016061       0.42992001      -0.49722132       0.66420464
O        3.51404143       4.26550050      11.59781440      -0.75104590       0.40714173       1.53642855
O        6.10538206       7.02822789       9.37906422      -2.43713123       2.39975117      -0.45187607
O        6.53228423       6.00602849      15.69812843      -2.54969897       1.14540018       0.70388268
O        4.24331816       3.62949826      19.15880623      -0.86065616       4.37579226      -1.08468505
O        8.87471106       3.19247872      11.71613863      -0.79110348       0.75078208       0.87024956
O        6.94837196       1.58936406       8.64402866       2.19497682      -0.86985718       0.90156000
O        1.09520048       5.91427422      15.32731021      -1.67794648       2.17113202       0.52480420
O        3.40997481       8.78068819      19.40435290       0.07300481      -2.18280385      -0.63935698
O        8.18008128       4.01638999      15.61162104       0.07179660       0.50954867       0.36862033
O        6.17911117       1.98041458      18.99713840      -0.24909824       0.43703844      -0.27099315
O        1.70675869       5.94996877      12.03640002      -0.10643416       1.27962601       1.48468185
O        3.95031132       8.58616717       9.01970090       2.70191446      -1.72177801      -0.14307477
O        7.86318716       5.27457624      13.25414554      -0.12726493      -0.44440670       1.25965739
O        4.87213909       2.00403328       7.42369211      -1.28258502       0.67989837      -0.44857202
O        2.88445324       4.67447496      14.24917971       0.69726731      -0.90581299      -0.20236981
O        5.33586528       7.62486224      20.71500330      -1.49113113      -1.32317242      -2.45608189
O        0.47530882       3.04301114       7.34415815      -1.42108780      -1.09874553       3.58660054
O        7.18225860       9.62022434      13.43317384       0.63621113       0.76498622       0.65320440
O        9.41226552       7.36769449      20.25659647       2.34595645       0.28665366      -2.05938323
O        2.45074996       0.70262636      14.54573754       0.21824463      -0.15252927      -1.24704133
80
Lattice="9.77192453 0.01751879 6.90363604 0.24348012 9.76890588 6.90363604 0.01370155 0.0133883 13.86910312" Properties=species:S:1:pos:R:3:forces:R:3 energy=-576.57478144 source_file=vasprun.xml step_index=0 time_fs=86000.0 time_ps=86.0 file_index=43 pbc="T T T"
Na       8.94215838       4.56236988      20.66039421      -0.30300799       0.36377589       0.67277207
Na       8.19209650       1.47365242      10.52997807      -0.05852265      -0.52794518      -0.40225271
Na       6.68749425       3.91479614      17.72763583      -0.26843298       0.04978155      -0.05367017
Na       4.80983826       7.66314865      11.14207422       0.11128681       0.02525294       0.50883684
Na       2.09125290       2.67001679      16.39730474      -0.24874714      -1.08127283      -0.49987541
Na       5.78557445       1.80632465      14.16394398       0.21579577       0.09508417      -0.30343351
Na       1.56195762       5.42966162       7.85286537       0.00668112       0.32191317      -0.54253231
Na       0.99934069       9.25540005      17.41124826       0.18008062      -0.08780342       0.10759145
Al       7.08762649       5.67139264       9.52057268       2.36087707      -3.59299845       0.35242438
Al       4.44905201       3.06853553      11.47801057       0.37756693       0.89075950      -1.02826550
Al       3.03350543       4.59662879      18.22958021      -2.43248607       3.16721243       2.85033672
Al       5.38497682       7.27460444      16.28006764       0.73798348       1.98760696      -1.17926504
Al       0.55201671       2.24418010      11.64264631      -1.57736955      -1.69190607      -1.21696399
Al       7.54402852       0.04185222      15.86511642       2.62868298      -1.57309883       2.17846352
Al       9.70688858       7.99561972      15.96170740       0.14810652      -2.12586614       1.64994145
Al       2.23889737       0.49601733       4.93672993      -2.83451406      -2.83828927      -0.82825222
Si       2.70778394       5.88897306      15.42799136      -1.18590576       0.87052832      -1.25623298
Si       4.29661184       7.35313317      19.30901742      -1.26629797       0.61902054      -0.38589172
Si       7.23790782       4.23962491      12.32955782       1.50238348       0.91939828       1.33260608
Si       5.67148654       2.70938531       8.39063968       2.36936652       1.44559212       3.47319129
Si       0.89158964       7.58894013      12.25678617      -2.33803740       0.90709205      -1.31598071
Si       2.57628419       9.20108308       8.77374224       0.99045217      -0.79315508      -2.32544657
Si       9.34933891       2.56920593      15.52534192      -1.99194081       0.06670031       1.36109803
Si       7.33162442       0.75219297      18.90476212       1.22059456      -4.65538958       0.50168288
Si       0.36135077       3.08221042       5.71308967       1.05736103       1.78458401      -1.51617344
Si       7.27844671       9.60764987      14.84700652      -0.91697729       0.68114922      -0.37900449
Si       9.68198623       7.33570791      22.22662541      -0.04644025      -1.73861595       0.97129716
Si       2.94468119       0.69562519      12.94997801      -0.17713748      -1.02184352      -0.61204348
Si       7.90196796       5.31390186      15.37100412      -0.19368046       2.28220708      -0.64108850
Si       4.60828527       2.17263974       5.57002547       0.60542303      -1.69770211       1.36885057
Si       2.05279221       4.85110243      12.34257551       1.35013148      -0.60313917       1.38952436
Si       5.52585627       8.01768984      22.11443433      -2.15305346       1.46005746      -2.40529380
O        8.76851096       6.11414130      22.87727258      -0.85091046       0.09058354      -1.22164318
O        4.03112326       1.95176430      12.71605563      -2.39685588      -3.12754926       0.63946023
O        1.36947218       4.35012959       5.18076949      -0.80348427      -2.32094063       0.08844444
O        5.91207668       8.81857400      15.32579015       1.33448572      -0.30660986       0.97324946
O        0.75559256       3.84352895      12.31507063       0.01852829      -0.97256615       0.07732870
O        6.47582474       9.34560078      21.79091074      -1.70467190      -0.76113503      -0.33642852
O        9.21872055       6.32926300      15.34129273      -0.64633703      -0.00891812       0.95888776
O        3.86752021       0.72396083       5.28811963       0.84344640       1.77969798       0.68376736
O        3.36687726       6.00671830      19.33494922      -0.20809807       0.10999216      -0.82458683
O        3.99317539       6.81813943      15.41812478      -0.84450940      -0.29499451      -0.33064300
O        6.61965733       4.07093492       8.56027021       0.53321948       1.67128823      -0.11565698
O        5.90829958       3.34612153      12.36949559       1.66796379       0.40055379       0.68258173
O        1.51361318       8.02415775       8.25761422       1.45202223       1.25195615       0.71346766
O        2.12727262       8.56394585      12.41287304       1.04692181       2.33381913       0.54600773
O        8.67658187       1.56590118      18.81132250       1.65782465       2.04727823       0.24290297
O        8.20079075       1.47233431      15.13688630      -0.32145354       0.75082974      -0.29765437
O        2.81134655       4.66742784      16.52172104       0.06786308       0.18085553      -0.66754740
O        5.14260007       7.30413689      17.97757645       1.07469850       0.15596644      -0.45622276
O        7.14435873       5.47028258      11.31240057      -0.30953756      -0.07556972      -1.31529624
O        4.92059847       2.71534618       9.85570824      -0.36219382      -1.10358393      -0.91512274
O        9.74897260       8.09515036      17.80472535       0.29032078      -0.60411279       0.91859194
O        1.88517513       0.26126687       3.12189735       0.06052800       1.56334246       2.09098205
O        0.54386964       1.98663176       9.80033804       0.14985185       1.16605690       0.45827918
O        7.51930181       9.41571710      24.55880036      -0.77985433       2.12343400      -1.01306981
O        9.31508692       8.82743352      22.66033148      -0.42283658       0.00241715       0.03763989
O        1.49200749       0.87364051      12.21070287       0.70937101       1.09101287      -0.10230066
O        0.96219095       1.64869121       5.26817864       0.10852379       0.08624686      -0.13072886
O        8.75143002       9.28318308      15.46068867      -1.37127643       1.17171492       0.57585218
O        3.34265455       4.43473995      11.48815374      -0.05136089      -0.79592575      -0.21253145
O        6.17559204       7.00344972       9.22764599      -1.12774991       0.78707533       0.84731229
O        6.51282397       6.01059529      16.01684930       3.03486409      -2.53118422      -0.21280705
O        4.15557983       3.36596911      18.47224993       0.78675267      -0.76024125      -0.33284619
O        8.56026897       3.16715374      11.93753140       0.46276398       0.62396352       1.00219624
O        6.89450098       1.58151161       8.19829631      -0.62477036      -1.76089092       0.30694284
O        1.37294323       6.82089859      15.85445609       1.77434941      -0.07623442       0.37346189
O        3.61620147       8.93622357      19.21746158       0.04718256       0.33082791       1.41484287
O        8.26727205       3.84339038      16.03373268       0.82944900      -0.38929028       1.34587899
O        6.15575645       1.82068958      18.97466475      -1.01580715       1.97162151      -0.15187478
O        1.54218702       6.20857995      11.79722691      -0.71959197       0.77489342      -2.03141355
O        4.09234863       8.50333237       9.06672797       0.29343407      -0.07185679      -0.74841630
O        7.67137802       4.86366558      13.84044711      -0.99866004      -0.84220683      -2.36823833
O        4.65484338       2.71808542       7.16871250      -1.26115211      -0.64632238      -2.67521557
O        2.45474669       5.25012754      13.88048056       0.12635775      -0.62600403       2.11706534
O        5.11189629       7.21465159      20.70002686       1.03002846       1.16785264       1.91380889
O        0.36961808       3.19839076       7.36097940       0.21727501       0.05295808      -0.13898870
O        7.54137301       9.40100397      13.23745079      -0.73546726       1.52619532      -1.05919295
O        9.84002928       7.21124662      20.62709681      -0.16862143       0.26227137      -3.25012530
O        2.64416392       0.73276157      14.60369739       0.27090136      -1.27789243       0.07772389
80
Lattice="9.77192453 0.01751879 6.90363604 0.24348012 9.76890588 6.90363604 0.01370155 0.0133883 13.86910312" Properties=species:S:1:pos:R:3:forces:R:3 energy=-574.77882372 source_file=vasprun.xml step_index=500 time_fs=87000.0 time_ps=87.0 file_index=43 pbc="T T T"
Na       8.49686277       3.80541470      21.30275751      -0.05972544      -0.34983616      -0.64439657
Na       8.26100784       0.33963240      11.41752284       0.15774425      -0.09077700      -0.02610407
Na       5.68505755       4.36996696      17.12835159      -0.08372577       0.05994417       0.01124612
Na       8.21148627       7.34667700      12.10553760      -0.00382438       1.09292822      -0.69823268
Na       2.25117113       2.67857371      16.09557922       0.23581675      -0.09163307      -0.18772999
Na       5.89360840       1.82262862      13.97986897       0.98519331      -0.35447638       1.15002144
Na       2.19325402       5.88158548       7.86416815      -0.21732328       0.37161426       0.15655390
Na       3.59814022       9.19360852      14.03800070       0.55656050      -0.85016061       1.07256671
Al       6.81712886       5.56010486       9.26620056       0.08490690       0.70079843      -1.20636914
Al       4.60699023       2.90047950      11.72818466       0.08950102      -0.89379130       0.06687627
Al       2.81577526       4.85434500      18.63059412      -1.16950519      -0.52956414      -2.68599942
Al       5.46893759       7.46587510      16.16699760      -3.19505471      -1.85700635      -0.36030266
Al       0.44356717       2.33395067      11.64881986      -1.37424011      -0.30108751       1.46559368
Al       8.14193872       9.69567175      22.79779286      -1.72317930       1.89330917      -0.15098450
Al       9.47818312       7.94331925      16.21494530       0.27002117       0.61621536      -1.07832340
Al       1.92029889       0.31095261       4.93835952      -0.02909547       0.82529388      -1.07857362
Si       2.56619165       5.78977119      15.58224689       0.50270049       3.70082589      -2.74592877
Si       4.36891502       7.38671669      19.33923672       1.88813812       4.25042376       0.39678309
Si       7.36896719       4.42890413      12.18466963       1.17185644       1.25464554       0.64818609
Si       5.36136747       2.56158255       8.69462490       2.22324822      -1.50955773       0.94222614
Si       0.96440486       7.39816062      12.13165175       0.42108470      -0.45718607       3.24709001
Si       2.51654828       9.38061811       8.70151219       1.79052329      -3.55665678      -4.92602358
Si       9.17940560       2.92503441      15.69953631       0.45373214       0.08896872       1.37948305
Si       7.18122286       1.06145555      18.88960807      -0.21983984      -2.69670677      -0.60296453
Si       0.26223075       3.05724827       5.98904370       2.78222341      -1.25439066      -2.40620666
Si       7.05223296       9.70294774      14.84421935      -0.33940413       1.46801560       1.09829279
Si       9.38714516       6.90570002      21.93623223       2.09246091       1.00071605      -0.24228174
Si       2.86049846       0.65101347      12.81694379       2.70501314      -2.82286099       4.12410015
Si       7.76434857       5.53260739      14.98438221      -0.59198777       0.75739176       1.32133082
Si       4.22833957       2.19901766       5.73424732       4.83012942       0.23927340       0.61996229
Si       2.17190640       4.60648422      12.63866045       1.85976648       2.29708159      -1.46037221
Si       5.55865156       8.21106016      22.05827518      -0.73145870       1.72675257      -1.97560169
O        8.12923284       5.95746229      21.89593885      -1.31568371      -2.21865346       0.81704669
O        4.07924847       1.68976330      12.98885559       1.69425831       1.11285666      -3.07644676
O        1.25309530       4.14300492       5.07864409      -1.97534453      -1.24159219       1.74436393
O        5.64562315       8.94342474      15.26202308       0.84145445       0.21373516      -0.45102874
O        0.86994948       3.74891946      12.58758566      -1.74216473      -2.02831583       1.39676491
O        6.58218345       9.49371304      21.91756862      -0.05598265       0.08849914       0.01135511
O        9.02516328       6.45207217      15.50313523      -1.18401353      -1.61628066      -0.31859564
O        3.45716554       0.91322026       5.50133761      -3.10632942      -2.80604504      -0.61960396
O        3.55606734       6.06905119      19.51293391      -1.96298434      -0.52941861       1.34102108
O        3.75021516       6.95458111      15.46876500      -0.87050774       0.98881070       0.36605259
O        6.06895175       4.03868800       8.69531552      -0.39476159       0.35334854       0.20532150
O        5.90046357       3.86968054      12.57755736       1.30934155      -1.08985738      -0.60051278
O        1.21020212       8.24134224       8.39082131       2.27847179       1.63786562       0.82822584
O        2.22231970       8.46391469      12.48405630      -1.74165277      -0.40902587      -1.04145058
O        8.45474976       1.94783521      19.05027909       2.87594131       2.43839329       0.25639071
O        8.42352674       1.57791339      15.26651566       0.14088895      -1.41227492       0.18155198
O        3.09690354       4.96051690      16.77426526       0.16026225      -3.11675210       4.25185196
O        5.25030725       7.34507370      17.99661786       0.83928068      -0.03728859      -2.72227637
O        7.60394085       5.28797688      10.81928256      -0.61222864      -0.35850174       0.30896945
O        4.89724821       1.99418614      10.21163399      -0.23805504       1.75346494      -0.84121717
O        9.64160596       7.83603831      17.95689031      -0.38644220       1.52780281      -1.27336170
O        2.11947201       0.36603825       3.11084570      -1.41543987       2.30133450       4.61816326
O        0.45486540       2.98369137      10.07486336      -1.55428316      -0.47994014      -2.10654441
O        7.39155429       0.15349420      17.53205671      -0.17715125       0.03971412       1.57402397
O        9.05467629       8.32205855      22.60733056       1.20696895      -0.90272311       0.87297200
O        1.57500200       1.09282826      12.16403025      -3.41771672       1.13500534      -2.76089995
O        0.56398945       1.32695942       5.56734756       0.14115428       2.26440329       0.12285349
O        8.24429046       9.16210024      15.78690658       0.86978520      -0.79776517       1.02041265
O        3.46173926       4.10184452      11.74718029      -2.60118409       1.34472153       0.25901415
O        5.97534549       7.08596816       9.17303225       1.00173244      -2.57767255       2.35359391
O        6.19409625       6.06846862      15.22023030       1.91467973       0.03318881       1.95033565
O        3.79742971       3.54488092      18.94974046       1.30306671      -0.37135468      -0.47327111
O        8.55178220       3.20728645      12.24773691      -1.90520644       0.61752800       0.24559559
O        6.64258042       1.51818883       8.38164397       0.28194357       0.57795144       0.12050946
O        0.91765476       6.06348212      15.75467841       0.07981781       0.65959560       0.03950975
O        3.43488628       8.78942759      19.48982964      -0.11992347       0.29034044      -0.85288970
O        7.82444384       3.96591021      15.76403352       0.54951803       1.83745356      -1.12157063
O        5.73010570       1.77253594      18.84874262      -0.59400754       1.45439559       0.45446179
O        1.57175756       5.95305398      11.80936635       1.12358734      -0.24348902       0.05404657
O        4.04051941       8.59701355      22.48190682      -2.30658827       0.27242968       0.83559356
O        7.88576161       5.67395941      13.33486104      -0.38272910      -3.01802847      -0.67926478
O        4.48846426       2.22421538       7.34721877      -0.96811813       1.08996990       1.08756494
O        2.66883040       4.96472682      14.17126686      -0.29752628      -0.98788804      -0.55404758
O        5.44752574       7.57693759      20.54236100       0.14634565      -0.54675418      -0.02921475
O        0.44901743       3.41908410       7.59685375      -0.36393411       0.02032496      -1.56326264
O        7.50423925       9.77799732      13.28905678      -0.56807922      -0.87950871      -1.18233084
O        9.83468086       7.32959188      20.44487415       0.77831921      -0.12126230      -1.47153585
O        2.68974494       0.79742460      14.51792047      -2.62764904      -0.98779552       1.20103779
80
Lattice="9.77192453 0.01751879 6.90363604 0.24348012 9.76890588 6.90363604 0.01370155 0.0133883 13.86910312" Properties=species:S:1:pos:R:3:forces:R:3 energy=-577.0661127 source_file=vasprun.xml step_index=0 time_fs=88000.0 time_ps=88.0 file_index=44 pbc="T T T"
Na       7.75151354       6.71902709      18.57397503       0.29427109       0.27184118      -0.01897484
Na       9.29658773       1.11409882      10.49489363      -0.46352506       0.00512603      -0.35511175
Na       3.32587635       6.32130701       9.26358378       0.31546286      -0.02914842       0.28821215
Na       1.28278540       9.46746257      17.40890393      -0.06259722      -0.23252982      -0.17338578
Na       8.97022712       3.95818661      20.99333250       0.30986715      -0.16278083       0.11032592
Na       5.96059025       2.50844985      14.46855699      -0.02899865      -0.42398445      -0.30620663
Na       1.40102016       6.46676880       6.37131579      -0.03717408       0.37050418       0.34503206
Na       4.15077230       9.08093926      13.95287517      -0.08055811      -0.52242121       0.00728290
Al       7.49408874       5.55244537       9.26996693      -1.46684749       2.77983960       1.15366201
Al       4.75560763       3.10652189      11.44399354       0.32078610      -0.77673910       0.31625387
Al       3.42091617       4.80473445      18.68067926      -2.19590512       1.20681502       0.41057352
Al       5.82683334       7.31079603      16.31449350       0.93751585       0.49431617      -1.34581678
Al       0.77577501       2.50646965      11.71143869       0.43343134       0.58320921       1.22163424
Al       8.31409227       9.77634056      23.02182727      -1.77601178       0.47779557      -0.28711040
Al       9.87259123       8.16287645      16.02902372      -0.99114690      -2.57134502       0.89047710
Al       2.29801947       0.85875575       4.84254985       1.57780463      -0.43769749       0.12770342
Si       2.95969985       6.00695945      15.73226600       3.34252439      -2.23111223      -1.13757549
Si       4.60952803       7.80352766      19.19170801      -0.21069337      -1.44966934       3.52731634
Si       7.47641861       4.56552494      12.32783978       1.02026961      -1.09861905      -1.98414544
Si       5.91681603       2.86684704       8.61022013       0.05714924       0.31469542       0.92281453
Si       1.06087821       7.82526373      12.12557579       2.03016676      -0.12305464       4.02032545
Si       2.80233502       9.55036873       8.79106175      -1.72997132       0.09080135      -1.63937490
Si       9.60118159       2.58714856      15.51436066       1.21161685       1.24446020       0.13920109
Si       7.86143964       1.15970105      19.13960191      -1.86719794      -3.26742605      -0.34808538
Si       0.72774216       3.20812874       5.96399442       0.53277198       1.39997415      -5.24892364
Si       7.28414752       9.69534710      14.97164704       1.74937585       0.69748782       1.14415434
Si       0.27273404       7.20266286      15.25856481      -1.73464514      -0.37296486      -2.63785444
Si       3.07999471       0.68403792      12.77597396       1.75341346       1.15994486      -0.77201187
Si       8.32111170       5.56154288      15.13487465      -0.01729403       3.27952499       1.48466680
Si       5.00955428       2.30586419       5.73777111      -4.51400606       3.75774661       0.97482575
Si       2.38722279       5.00910827      12.59609944       0.34396953      -0.74789829       1.87243608
Si       5.62644469       8.39435423      22.19246583       0.16956999      -1.22604867       3.54749463
O        9.07755839       5.91421164      22.41263421       0.51188345       0.26352714      -0.22479210
O        4.32625047       1.74939986      12.45349510      -0.95533041      -2.38192035       0.75178600
O        2.00215274       4.35338205       5.95227787      -1.47483207      -0.09591626      -1.74979427
O        6.12712841       8.59499314      14.98937225      -0.36667092      -0.46762453       1.84675558
O        1.07112719       4.04679641      12.60223016      -1.13043689      -0.18582685      -0.27528364
O        6.60820391       9.63391433      22.40141886       1.51836677       0.64280873       0.75974717
O        9.71777344       6.57958044      15.19110553      -2.01650231      -1.64105020      -0.80587776
O        3.87191683       1.14463264       5.75375899      -0.60296702      -0.49609328      -0.56439410
O        3.79953969       6.39684683      19.41582978       0.03600260       0.11221385      -0.24053488
O        4.42475194       6.78712404      15.48479710      -1.85762760      -0.39311939       0.88900343
O        7.18136997       3.94914772       8.85176929      -1.21164483      -1.92372713      -1.71944792
O        6.24864706       3.51067034      12.26438038       0.37288229       0.16523887       0.48983668
O        1.54258581       8.48305391       8.38681239       3.88021933       1.34588488      -0.22648058
O        2.04029453       9.10670456      12.39937382      -0.05838454      -1.36111538       0.63201944
O        9.04602206       2.14301182      19.46561208       0.17502447       1.01407012       0.25673537
O        8.50379678       1.43963043      15.14771493       0.47435174       0.54355150       0.74146134
O        3.06334247       4.93282887      16.96388024      -0.89389303       1.58786279      -0.73010795
O        5.67630221       7.73876965      18.04732387       1.80375229      -0.33635412      -1.83690250
O        7.47359463       5.47094776      10.99674588       0.37819030       0.54489436       1.10093405
O        4.72581652       2.98261673       9.72132717       1.17584773      -0.02716943      -0.45489320
O        9.85454836       8.07981821      17.85170025      -1.74824058       0.01204215      -2.20483921
O        2.10391558       0.69948490       3.11492375       0.55218186      -0.19944983      -0.75497669
O        0.71474435       2.33770664      10.00646383      -1.51618172       0.40237251      -2.26151254
O        8.30808353       0.08155922      17.85931174      -1.15301655       2.61687411       1.91492152
O        9.45465173       8.51002513      22.85641805       0.28541019       0.28969738       0.02491952
O        1.72392859       1.07463298      12.03818249      -0.47641383       0.66413004       0.11402106
O        0.97691033       1.89686635       4.93784652      -0.98907034       2.92052183       1.52202162
O        8.68959855       9.29873240      15.79008472      -2.49380489       1.63493643      -0.54342399
O        3.39153231       4.05990585      11.73583575      -1.00960030       3.14497594       0.49454675
O        6.09829759       6.94434559      22.80288108       1.22916131      -1.08348161       0.11241560
O        7.35757519       6.35677759      16.32998753       0.07368268      -1.07669462      -1.15034349
O        4.49846448       3.58322884      18.71364636       1.68870320      -2.23757884      -0.16962413
O        8.93043288       3.68529267      12.37606433       1.30183242       0.03402193       0.77451379
O        6.67221198       1.39413114       8.74310523      -0.33006477      -0.02273933      -0.14448102
O        1.81071134       7.14241470      15.74532786      -0.16365181       0.35667132       0.80725558
O        3.53043272       8.93695639      18.95186142      -1.25340547       1.90647963       0.09106173
O        8.74859665       4.10174099      15.56952900       1.38572634      -3.17667605       0.75862542
O        6.42182444       2.02180949      19.11301328       5.25644694      -1.79351148      -2.54831727
O        2.00826035       6.49116443      11.86394397       0.95043498      -1.24400444       0.08920655
O        4.12369933       8.70399616       9.09363491       1.43884356      -1.26663221       0.30774942
O        7.44941523       5.30191673      13.75383786       0.18381761       1.68135442       1.44222151
O        5.15909311       3.12596685       7.18990502       0.50152212      -1.05406538       0.25585936
O        2.84640026       5.14489109      14.30484291      -1.07175613       0.21370711      -2.30501512
O        5.31694935       8.21454198      20.69712400      -1.04448571      -0.76137640      -5.44958713
O        1.03267563       2.66461690       7.36857052      -2.24461299      -1.48812517       5.84590463
O        7.36884986       0.14321887       6.53001101       1.30163209       0.44409405      -2.05559786
O        0.22155401       7.43708292      13.56904572       0.31188246      -0.02929847      -0.48511281
O        2.88029548       0.66767005      14.38472066       0.04596271      -0.23925682       0.61080994
80
Lattice="9.77192453 0.01751879 6.90363604 0.24348012 9.76890588 6.90363604 0.01370155 0.0133883 13.86910312" Properties=species:S:1:pos:R:3:forces:R:3 energy=-574.8623095 source_file=vasprun.xml step_index=500 time_fs=89000.0 time_ps=89.0 file_index=44 pbc="T T T"
Na       7.63190844       7.97100601      19.30441812      -0.09776167      -0.19454706      -0.20246106
Na       9.55056110       1.38627556      10.21415400      -0.24203736       0.19774340      -0.20887107
Na       4.43658435       5.82687621      10.80509216       0.36632833       0.34733969      -0.55387731
Na       1.62440513       0.17647894      10.42119769       0.03188389      -0.59590925      -0.66768827
Na       8.67838427       4.50287321      20.64976345       0.10011782      -0.17450623       0.12267893
Na       5.83145451       2.14580306      14.69646759      -0.02368019      -0.32999001      -0.24256096
Na       1.45122544       6.68730157       6.92595952       0.37355043      -0.37971672      -0.51475882
Na       3.79065323       8.51179817      13.68385296       1.21844267      -0.01564628       0.61749889
Al       7.31728177       5.66112499       9.49798749       3.14805432      -1.53747100      -3.06421987
Al       4.86955520       2.91733715      11.65712016       1.54072514      -0.62725553       0.03763370
Al       3.17768608       4.84241898      18.53664470       1.44282676       0.98927353      -1.55672095
Al       5.63528298       7.35993342      16.19238667       0.54124294      -1.77381497       0.28516165
Al       0.58292344       2.42975817      11.73542020       1.92033401       1.73752317       1.49491136
Al       8.11395658       9.75564984      22.93089083      -0.14855114      -0.47865309      -1.71189563
Al       0.23787129       8.19359803       9.10954956      -1.80119666      -0.75872529      -0.03854884
Al       2.47133894       0.84226985       4.80121602       1.85022080      -1.82393492      -1.08448650
Si       2.97345998       5.95268281      15.57148800      -2.40503752       1.12614314      -3.71682110
Si       4.30100549       7.50353325      19.14389985       1.96364013       1.05960139       2.14472454
Si       7.57872604       4.47102172      12.52047021       1.96480818       1.60816021      -2.25255524
Si       5.89839348       2.89052785       8.59613776      -0.84251079      -0.22520187       0.30740485
Si       1.28673025       7.59866783      12.09526590       3.64544343       0.31523164       1.41977212
Si       2.83754900       9.55310251      22.42104049       2.29564765      -0.63477092      -1.78640424
Si       9.33977869       2.80288257      15.72290753       2.38484664      -0.16199724       1.20449712
Si       7.74056910       1.07172637      19.16097381      -2.60161079      -3.18331786      -0.89151419
Si       0.81504126       3.28094254       5.86414293      -2.59274537       3.29159422      -0.51931620
Si       7.25397201       9.76943125      15.13481608       1.39623994      -0.41470055      -1.35091558
Si       0.24173343       7.26342058      14.90365453      -2.35804408      -1.32618773       1.48328371
Si       3.38696788       0.69707432      12.58485181       1.22149674      -0.98509041       2.56059530
Si       8.41581105       5.58915573      15.46268371      -5.19095203       1.94415779       1.96495416
Si       5.07378992       2.47483393       5.47150967      -0.04881677      -0.89998476       3.16235411
Si       2.30946608       4.74626895      12.55230413      -1.50431177       4.38059904       1.67552818
Si       5.57526080       7.97403613      22.15599573      -2.54491222       1.18649979      -2.00152270
O        9.05984666       6.06715401      22.44994935      -1.52305263       0.44425528       0.24532848
O        4.86301900       1.30689275      12.45760647       0.44330255       1.20351877      -1.66254139
O        1.88210769       4.48674018       5.64170195      -3.39398765      -1.80664152       1.67234102
O        5.99234623       8.78144919      15.38216914       0.55510971       2.57870389      -0.87409781
O        0.84694737       4.22836379      12.22947282      -1.11944316      -2.33101719      -0.46463254
O        6.40499122       9.36111113      22.39429274       1.05801047      -0.17959963      -0.52167326
O        9.59133446       6.58239676      15.30719442       2.79949996       2.70107888       0.11741840
O        4.24094171       1.08049059       5.22985077      -1.71227781      -0.06033990      -0.09067679
O        3.27976432       6.36632253      19.46785910      -0.49850749      -0.34679061      -0.36316536
O        4.25952521       6.87259293      15.19492071      -0.38731445      -0.83730356      -0.03886423
O        6.90454912       4.16902142       8.56148312       0.38423454       0.15074364       0.24471753
O        6.38287418       3.44339892      12.68301255      -1.81071553      -0.77848044      -0.54242126
O        1.41523424       8.89428270       7.97859889       0.64086245      -0.60318781       0.97101925
O        2.13972757       9.08950876      12.53240885      -1.04607829      -1.47685523      -0.75187926
O        8.98046535       1.92454460      19.57915212       3.08295495       0.96173408       0.08487411
O        8.18327384       1.66569174      15.49984977       0.56999526       1.06553813      -0.34152433
O        3.09812482       4.93212796      16.73901445      -0.40935998      -0.15642043       1.65924326
O        5.06295175       7.40529893      17.80224095       1.08093405      -0.17214580      -0.97694085
O        7.18590810       5.47065838      11.12738134       0.13419487      -1.24966862       4.69166316
O        4.81483149       2.90198273       9.87478701       1.15166753       0.51743162       0.33380331
O        0.42432174       7.97351606      10.87334121      -1.68076154       0.77172329      -2.70989941
O        2.31000218       0.63362687       2.97857446      -0.08753300       0.00436607       0.57501164
O        0.82251198       2.32594219      10.03702359      -2.95693988      -0.19914217      -2.78559111
O        7.85935840       0.18765722      17.71299798       0.62357895       0.55752724       2.64858784
O        9.30871163       8.74648234      21.84766255      -0.99141335       1.10827710       1.77817801
O        2.17727042       1.56664158      12.17607193      -3.23100959       1.29664924      -1.93082476
O        1.30124354       2.05731782       4.99926898      -0.57507524      -0.93496331       0.01052758
O        8.63049453       9.30122592      15.95036796      -0.42947733       0.32918884      -0.25273177
O        3.55637600       3.97130144      12.10798709       2.52657948      -0.80133871      -1.03793170
O        6.10821491       6.71914886       9.06190703      -0.79430928       0.35853281       0.46329647
O        7.10214405       6.46199924      16.42046151       2.88443363      -2.39729733      -2.02166776
O        4.46020417       3.73696493      18.64138116       0.36446327       0.35070976      -0.42214943
O        9.05655509       3.82846840      11.99560900       0.79072140      -0.90315506       1.23895767
O        6.86471734       1.53956818       8.80229857      -0.24928828      -0.02439443      -0.34847767
O        1.67482223       7.13966973      15.60403208       2.26687699       0.03186165       1.15669452
O        3.50301717       8.93625635      18.96827133      -0.77486129       0.02776823      -0.27009864
O        8.83570219       4.28378754      16.28947141      -0.09872508      -2.03637394       0.28980035
O        6.66468258       2.30212725      18.96882594      -0.58174039      -0.27897707      -0.29543947
O        2.46341036       6.40550405      11.68276877      -1.08554607      -0.66037775       1.68303323
O        3.96209699       8.20709150       8.90883761      -0.08637205       1.26455460      -1.32997838
O        7.86962949       5.19722567      13.98975327      -0.73324118      -0.42352127      -1.52790488
O        5.03052979       2.76443544       7.21363220       0.22895896      -0.38143657      -1.39734247
O        2.33662471       5.18030710      14.14163967       1.32735748      -0.04584078       1.12933886
O        5.51773737       7.38721949      20.41221956      -0.64361055       2.15325343       1.23519653
O        0.43708931       3.18165693       7.44554182      -0.21192314      -1.05627814       0.62618973
O        7.52932416       9.70837148      13.40502709       0.06118206       1.39336612       0.78170969
O        0.33938555       6.95224691      13.29914096       0.21413316       0.61128251      -1.58998361
O        3.31306740       0.64912541      14.18943806      -1.06952371      -1.40006049       4.78863040
80
Lattice="9.77192453 0.01751879 6.90363604 0.24348012 9.76890588 6.90363604 0.01370155 0.0133883 13.86910312" Properties=species:S:1:pos:R:3:forces:R:3 energy=-575.09465734 source_file=vasprun.xml step_index=0 time_fs=90000.0 time_ps=90.0 file_index=45 pbc="T T T"
Na       8.94317842       3.48010012      21.54729005      -0.37836329      -0.15501017      -0.45874545
Na       1.50330415       9.57260668      15.41122154      -0.36977492       0.13933784       0.21263116
Na       6.16352991       4.54226371      17.70123597      -0.24971140       0.06927956       0.52823762
Na       7.46325973       7.55094507      11.94265710       0.25130974       0.12795748       0.08601384
Na       2.35472903       2.84382923      16.59615560       0.02352954      -0.38865997       0.04244309
Na       5.42224491       1.66424603      13.86159304       1.54418928      -0.41558181       1.02983765
Na       2.16391088       6.28756639       7.98834439      -0.06392470      -0.37475365      -0.36292998
Na       4.12841813       7.97004428      13.44178369      -0.24501364       0.32519438      -0.19420770
Al       7.20052404       5.54071333       9.33777337      -2.02717272      -0.42902986       0.57041565
Al       4.48502152       3.13038661      11.44572695       0.44371236      -1.37985755       0.97973460
Al       2.61159276       5.01857757      18.63643368       1.46402111       1.96937625       1.38923531
Al       5.37596408       7.24905409      16.10748110       1.11438894      -1.23227149       2.29476922
Al       0.36292022       2.14384061      11.74317733       0.35982839      -1.57802130       0.03041656
Al       7.54222312       9.72797015      22.75242422       1.20169211      -0.30614565       0.21436447
Al       9.46378134       8.17417789      16.06201949      -4.60172571       1.65870043       0.54848361
Al       1.92791897       0.58047570       4.65322933      -1.33469439      -0.24815669      -0.63369029
Si       2.50254173       6.06320828      15.61894641      -1.95114016       0.81645868      -1.27074956
Si       4.36735436       7.33456385      19.23122620       0.92243258       0.43258998      -0.63597840
Si       7.28490235       4.28769539      12.32738193       0.71587224       2.65011973      -2.07343588
Si       5.60245915       2.91090679       8.47210699      -2.72546019      -0.77377186      -0.35659157
Si       0.74555394       7.47980241      12.03832214      -0.66245836       2.28153660       0.01075165
Si       2.48805129       9.21684228       8.47854147       2.90101232      -1.46259537      -1.82306678
Si       8.91475656       2.59705493      15.58939295       1.86698716      -2.12932516      -0.75684420
Si       7.26397832       1.06869321      19.03054006       1.95967038      -1.80223271       1.29889524
Si       0.31393691       3.01982171       5.71924672       1.08623566      -0.83848422       2.05386126
Si       6.66933779       0.04144974       7.98148262      -0.38037989      -0.87472991       2.58468800
Si       9.45523829       7.19494466      21.97917791       3.94295971       2.63811729      -1.54043835
Si       2.87810956       0.39499736      12.57672332       6.21933257       1.73898760       2.01203228
Si       7.83453358       5.43330963      15.18736777      -3.27152750       3.57397439      -1.01738900
Si       4.36408907       2.49145187       5.52631690       1.04880443      -2.08892482       0.69308076
Si       2.02708535       4.73502646      12.46313662       0.98197215      -0.37568026       1.08406493
Si       5.34198378       7.77598530      21.91728149      -0.82130539      -0.67816356      -1.97623198
O        8.71940332       5.96750843      22.47916800      -1.71567821      -3.39852665       0.61998132
O        4.01457122       1.69789974      12.46187486      -1.66735260      -0.29542781      -1.84234266
O        1.46781218       4.13260558       5.61654378      -1.42790992      -0.14914623       1.06944925
O        5.64997833       8.74278832      15.28662170       0.82730433       1.03675983      -0.96581156
O        0.87441855       3.55317030      12.65410230       1.02721192       1.11825882      -0.09729523
O        6.02335813       9.19937610      21.94885074       1.94020214       2.85132277       1.23666775
O        8.72587236       6.80111437      15.27849787       0.31957518      -2.32729411      -0.68186214
O        3.47547268       1.12817431       5.13578107       1.38235235       2.17820824       1.08967672
O        3.07627058       6.50220130      19.64669169      -1.80028560      -2.97866664      -1.07031785
O        3.89668467       6.80126709      15.37807565      -0.96295545       0.35284666      -0.22350885
O        6.59485103       4.09909954       8.53616523       2.85730928       2.40087803      -1.00613092
O        6.17889337       3.22373339      12.12177390      -2.59430592      -0.96019567       0.56499263
O        1.09369508       8.45832257       8.32442737       1.69428376      -0.24035385      -1.19941208
O        1.92606890       8.80670646      12.31652462      -1.47168840      -2.61628170       0.39007490
O        8.74104988       1.69822115      19.67414745      -2.25804829       0.10799970      -1.75914381
O        7.64680818       1.61010863      15.27781387      -0.07723041      -0.30114209       0.02608683
O        2.40188271       5.10041103      16.93311310      -0.20830438      -0.01778756      -1.66425256
O        5.13587828       6.99571758      17.88312779       0.21470397      -0.67470505      -1.87820248
O        7.39105802       5.38837262      11.07526121      -0.51524387       0.40093512       0.00896175
O        4.75989632       3.04582209       9.79964913      -1.08554925      -0.73727105      -1.02167473
O        9.39823907       7.97552466      17.77899605       2.44105055      -0.94345674       1.87582551
O        2.28956683       0.18955559       2.96988970       0.18303402       1.07926287      -0.12603560
O        9.83087296       2.18880158      16.89263472      -0.51152632       0.33582293      -0.12658500
O        7.53929453       0.12918309      17.66447276      -1.16091965       0.49138112       0.65708590
O        8.97673273       8.65554667      22.30213767      -2.27917139       2.44451735       1.12711101
O        1.60131477       0.84315087      11.98531905      -6.02389001       1.83117981      -3.21197761
O        0.58986854       1.84001501       4.66702222       2.05298626      -1.84377075      -0.31399650
O        8.17739624       9.56004114      15.79629031       2.71723353      -2.37036336       0.44140039
O        3.31240587       4.42400321      11.43238913      -1.39059138       0.12149815       2.68468116
O        5.96666341       6.78345918       9.09799609       0.94879736      -0.80139792       1.15589881
O        6.39912489       5.75873609      15.94770658       0.49938882       0.77562508      -0.17466577
O        3.91525154       3.86092720      18.67398009       1.53211571      -0.85409571      -0.83170360
O        8.70311570       3.60486585      12.18209797      -0.31517679      -0.12548565       0.25194265
O        6.41953058       1.57977072       8.39621118       0.80357124      -1.50007313      -0.34299271
O        1.19847820       7.19349997      15.84321723       1.77507624      -1.09732432      -0.60541297
O        3.82589129       8.81375020      19.03133485      -0.71263796       1.68553109      -0.77660142
O        8.22869967       4.03061947      15.80697935       0.91956150       0.16134352       0.60924378
O        6.00412215       2.10635721      18.98942762       0.09616327       0.51405176      -1.41609782
O        1.43894409       6.02714263      11.71728766      -0.64088371       1.81870622      -1.05048942
O        3.70559782       7.87508843       8.11635932      -2.47958724       1.55497556       2.31332072
O        7.17193559       5.25432190      13.62661492       1.15133824       0.18045026       1.07403493
O        4.67096129       2.67706319       7.08892972      -1.09883780       1.18106198       1.20391300
O        2.33498229       5.34645160      14.10113943      -0.40690016      -1.36539659      -0.54706425
O        5.51030269       7.27450037      20.34020790       1.24450837      -0.57670080       1.68304452
O        0.25383844       2.52534353       7.37901957      -0.85239866       0.36764034      -0.29177960
O        7.16611149       9.62963872      13.30602271      -0.33612549       0.47051309      -2.99654891
O        9.81264287       7.23758635      20.39266837      -0.29959435      -0.29942743      -0.79052404
O        2.81668120       0.39758385      14.20689477      -1.27996220       0.13212802       2.36425288
80
Lattice="9.77192453 0.01751879 6.90363604 0.24348012 9.76890588 6.90363604 0.01370155 0.0133883 13.86910312" Properties=species:S:1:pos:R:3:forces:R:3 energy=-573.92466397 source_file=vasprun.xml step_index=500 time_fs=91000.0 time_ps=91.0 file_index=45 pbc="T T T"
Na       8.74212384       4.14716450      20.71166665       0.02409877      -0.71676990      -0.06036812
Na       1.30844629       9.45960548      15.69096757       0.21109595       0.54200508       0.56810802
Na       6.56197321       4.43761664      17.99561936      -0.52429890       0.01169591      -0.16747743
Na       8.20781354       7.45600256      11.01322941      -0.42647669       0.37565864       1.09608794
Na       2.57076124       2.31494372      15.97053388      -0.08439915       1.55006536      -0.16319336
Na       6.13088057       1.60733435      13.76274969      -0.41552928       0.02867782      -0.29861661
Na       2.31826124       6.09356696       7.27269741      -0.31854658       0.11701153       0.82502980
Na       4.03728763       8.52793045      13.38285964       0.47080982      -0.04289695       0.20697955
Al       7.18121581       5.33213156       9.28914892      -1.22628473       1.63499485      -1.78640548
Al       4.32672777       3.39187457      11.43583887      -0.18952049      -0.03950197       6.33442568
Al       2.45896471       4.92425281      18.60925652       2.00485020      -1.89110297      -1.39734408
Al       5.43319017       7.06471086      16.15796259      -0.45015629      -0.19388305      -0.19208007
Al       0.29676680       1.85141683      11.64722563      -1.75032402       1.00193956      -0.75504302
Al       7.52383439       0.05225878      15.90307030      -1.37563170      -1.93363290       3.03947834
Al       9.31436802       8.28604443      16.27934293      -0.32793010       0.92296461      -5.41577611
Al       1.94858874       0.59973152       4.64593347       0.96716330       0.89508032       0.39451070
Si       2.54898412       5.72089221      15.55154308       1.33420199      -0.83749487      -1.17703925
Si       4.51141813       7.48449339      19.31187725       0.11769023      -1.28133188      -4.32621239
Si       7.16623551       4.27940608      12.21945539       2.58122491       1.44276843       3.09740626
Si       5.45595202       3.04606173       8.55885167      -0.48465974      -3.24015585      -0.67198077
Si       0.53897004       7.63751963      12.19290402       1.97596964       0.18455031      -1.10546452
Si       2.51863986       9.33357944       8.60476114       3.63553696       0.38066977       0.10568294
Si       9.23875848       2.49653997      15.40230331      -2.60985752       1.90855352       1.23264486
Si       7.11304135       1.02580515      19.09208102      -0.99203613      -2.14335556       0.54902432
Si       0.31245960       3.05862698       5.72777947      -0.10067169      -2.18830058       0.82694787
Si       6.79919667       9.74221726      15.00653723      -1.48964045      -1.62815069      -1.60906116
Si       9.60189034       7.12415792      21.98962171      -0.14363410       3.19757299       1.42877962
Si       2.82785316       0.68544005      12.63912040      -1.75790669      -1.58518049      -0.51730547
Si       7.95752869       5.71541524      15.13766023      -1.28454832      -4.47537723      -1.85746512
Si       4.26243257       2.48903237       5.79932284       2.33273721      -1.41366739       1.45387909
Si       1.93308237       4.78109126      12.55203521      -0.47222697      -3.20734299       0.57442819
Si       5.31241082       7.82825829      22.03857963       2.06707689      -2.48923757       0.82654456
O        8.64185431       5.89094553      22.23011847       0.14423095      -1.08802612       0.12259352
O        3.62903290       2.06910671      12.36116012      -0.67003999      -1.93934615       0.42234324
O        1.21032213       4.40738402       5.90814298       0.21393853       0.45097301      -0.73223817
O        5.73628506       8.45395718      15.17967215       0.31290910       1.34631843       0.17001699
O        0.66057856       3.57031539      12.16918113       2.13517781       0.88497596       0.54786961
O        6.04497819       9.21290881      22.13396889       3.73947268       2.74873560       0.33223837
O        8.91899584       6.93582419      15.22613632       0.55538820       0.23153034      -0.59843062
O        3.35886349       1.04951992       5.79343673       0.38566461       1.38649689      -0.19031767
O        3.24901608       6.40291389      18.99603077      -0.39670153       1.09270386       2.02625523
O        4.01485038       6.50390181      15.21816546      -2.34137515      -1.33547779       1.13469747
O        6.79595256       3.88457204       8.46630756       1.28489900       0.13577049      -0.17733553
O        5.80686132       3.50500125      12.52257495      -0.57196081      -0.40816355      -1.51815842
O        1.19899544       8.59738121       8.87480938      -1.48016096      -0.49673150      -0.49281694
O        1.66594736       8.84036933      12.23719069       0.11330380      -0.27188061       0.19388071
O        8.47682137       1.74469657      19.47244862       2.46116065       1.10483497      -0.37271710
O        7.68861560       1.67609563      15.34598078       1.21601398       0.87821778      -1.64390772
O        2.15591387       4.76838063      16.86552240       0.50565427       0.96500377      -0.77688907
O        5.32957465       7.15089001      17.87671570      -0.35805835       0.96809597       2.03722228
O        7.42241133       5.26397675      10.95513064      -0.02739744      -0.28497819       0.83010619
O        4.64665322       3.23998481       9.92907612       1.54599084      -0.66785976      -5.93983321
O        9.57192617       7.67303244      17.69769402      -0.13635454      -1.86926786       5.74549287
O        2.80672562       0.39856910       3.05564615      -1.22292713      -0.16575827      -0.31544568
O        9.72392343       1.64827090      16.71191994       1.08882640       1.30776441       0.79495747
O        7.35818058       0.06806284      17.75914954      -1.11443570       1.03228353      -0.37931531
O        8.98889487       8.40607722      23.12594275       1.07429958      -0.81801104      -3.80053946
O        1.34800737       0.47797362      11.73652122       3.13755205       0.36254847       1.50140355
O        0.78133285       1.97975586       4.58346038       1.28850013      -0.44393753       0.29882899
O        8.07877242       9.38547568      15.90147442      -0.11958083       1.59281625      -0.03183490
O        3.28165891       4.71329922      11.64942192      -1.87659280       1.09675127       0.90957289
O        5.91438215       6.56156201       9.02151268       0.30901419       0.46649623       0.97719969
O        6.59333052       5.75194503      16.08349307       1.88980844      -0.54721571      -0.44028448
O        3.82662929       3.57887456      18.61234469      -1.61806809       1.63160561      -0.80631847
O        8.50843495       3.24211660      12.26621682      -0.94170006       0.47871033       0.25511063
O        5.81974519       1.39170051       8.36525695      -0.09754180       1.35885211       0.97375048
O        1.48119436       6.99374725      15.59911344      -2.54456276       0.49096480      -1.15998644
O        4.04531798       9.05863401      19.35231019      -0.96201988       1.38791948       0.30014996
O        8.93357511       4.24634891      15.42626716      -0.21573970      -1.68954340       0.59790916
O        5.99571317       2.24070620      19.30067707      -1.74807950       0.22800461      -1.08210247
O        1.14992267       6.15210110      12.51341561      -0.01435858       1.08741680      -0.83965274
O        3.78151132       8.18158713       8.35717708      -4.27490571       0.61881431       0.27410233
O        7.37053072       5.24578201      13.58273196       0.58917123       0.94534589       0.35969294
O        4.54211805       3.37999153       7.25800489      -1.57160988      -0.84216087      -1.37706442
O        2.25429865       4.62401367      14.24904620      -0.14373755       0.66302951       0.01002566
O        5.43558835       7.08678766      20.58304304      -0.54336528       0.11635133      -1.64372008
O        0.51940807       2.18196792       7.28774549      -0.73031689       0.90691015      -1.74079864
O        6.85702581       9.67258910      13.29616253       0.99027795       0.22170948       0.56898641
O        9.46460779       7.75544079      20.43906229      -1.56061430       0.36408771       3.10352731
O        2.23222190       0.66303574      14.25000478       1.06029082      -0.57686472       0.51060753
80
Lattice="9.77192453 0.01751879 6.90363604 0.24348012 9.76890588 6.90363604 0.01370155 0.0133883 13.86910312" Properties=species:S:1:pos:R:3:forces:R:3 energy=-575.95417497 source_file=vasprun.xml step_index=0 time_fs=92000.0 time_ps=92.0 file_index=46 pbc="T T T"
Na       7.86128467       7.28535994      19.08460385      -0.21973122       0.11992503      -0.00881096
Na       8.69148829       1.27077751      10.97063184      -0.16452422      -0.03656163      -0.55388535
Na       4.50997767       5.71185425       9.92050097      -0.38298496      -0.18404189      -0.11561087
Na       1.13855585       8.99782592      17.36928261       0.47946614       0.83818268       0.41547466
Na       0.36229672       3.89859303      14.54642007      -0.25535053      -0.61668059      -0.28499407
Na       6.04858589       1.80106708      14.91732885      -0.14899997       0.39734177      -0.49441268
Na       9.87854165       6.71044165      13.33260015       0.37537569      -0.21565425       0.21122046
Na       4.17767299       8.62542602      13.37830508       0.32430676       0.36976289       0.46743861
Al       7.66952035       5.77071161      23.09496073      -1.47874140      -2.23712650      -0.16828890
Al       4.89753503       3.22198608      11.83173464       1.40688599      -1.19742518      -1.46464994
Al       3.29478236       5.02173312      18.66403994      -1.50115657      -3.13945365       1.96309350
Al       5.70752264       7.63537853      15.92409382       1.93212838       0.15414322       0.72483640
Al       0.84039100       2.62767066      11.59634823      -0.42163475      -0.44930402      -1.00417819
Al       7.98128822       9.74279046      23.30724549       2.35917828      -0.00507693      -0.63937816
Al       9.73710715       7.82527764      16.35031148      -0.59908740       0.48660526      -1.45392515
Al       2.48580063       0.73816731       4.59541465       0.86081190       1.18273699      -0.57071205
Si       2.91276055       6.27851330      15.78254317       0.08384791       1.51983595      -1.36912477
Si       4.82431969       7.83381056      18.84820311      -1.65822190      -1.35567193       4.51644534
Si       7.79080704       4.58559299      12.05163879       0.18994766      -1.66526620       4.16435906
Si       6.00907278       2.84869674       8.81736140       2.76965360      -1.07868563      -3.56490142
Si       1.14252452       7.88217395      12.29066603       3.36915366       2.19862653       3.70395939
Si       2.65652981       9.17141690       8.46810816       2.37987156       6.07606870      -0.21918291
Si       9.19373790       2.60956130      15.49689940       1.01193683      -0.08488434       0.88187034
Si       7.82701213       1.26292608      19.24106640       2.55507665      -0.01975810       1.49746807
Si       0.63333842       3.21757836       5.66190459       3.12629443       0.96552506       3.24545818
Si       7.26352407       0.03955657       8.16634389      -2.11141957       0.73476874       1.40237351
Si       9.79008808       7.30026727      22.20995689       1.95044185      -0.24126659      -3.04108529
Si       3.07764891       0.68172278      12.63503202       2.07937792       0.30778861      -3.13256953
Si       7.92904383       5.32964263      15.28235295      -0.86613805       4.44237274      -2.81603706
Si       4.87801368       2.29960703       5.69409085       0.57407926       0.78418918       2.18187545
Si       2.56658428       5.16358043      12.68038545       0.68500119       0.32330379       0.45941153
Si       5.62736812       8.17509548      21.94485170       0.84366028      -0.20700760       0.99694474
O        9.28285865       5.74307915      22.24387112      -1.24542724       1.50044717       0.73877546
O        4.27324248       1.80634125      12.54524206       0.23572406      -1.07032371       1.52812729
O        1.64478955       4.51748982       5.65994295      -0.00832931       1.35727814      -0.60400011
O        6.00444994       9.05072925      14.87353556       1.58359918      -0.01371696       0.53137159
O        1.27047313       4.27030401      12.34749700       0.12910950      -1.47912295       0.10805140
O        6.55552491       9.43599927      22.55890348      -4.16268899      -1.56571677      -1.34849703
O        9.11865283       6.31502530      15.75424405       1.29866605       0.06651850       0.38229885
O        4.14876816       0.91224384       5.36624868      -2.47346593      -0.93877161      -0.29444464
O        4.08658311       6.37659881      19.22108217       1.87332504       3.11137066       0.45583042
O        4.05715568       7.48226959      15.67716094      -2.59445938      -1.76675084      -0.80296812
O        7.18610708       4.01866620       8.59655668      -0.68841839       1.63464860       1.44529422
O        6.54755215       3.56674015      12.34100057      -0.52707416       0.70792855      -0.12691689
O        1.36004790       8.41531832       8.53320236      -4.23879764      -3.77732245      -0.34696052
O        2.19624597       9.18300689      12.45636729      -1.98507404      -1.88899053       0.05925623
O        9.13954841       2.34372782      19.42457041      -1.55312481      -1.08388233      -0.04781752
O        8.35789275       1.21490196      15.31023174      -0.12544979       0.60951732       0.34712895
O        3.10171286       5.32171217      17.03135527      -1.23509886       0.51682746      -2.34974249
O        5.91594620       7.88675148      17.73936859       1.12039949       0.02714382      -1.79862613
O        7.77942799       5.81694770      11.06036759      -0.10339985       0.24440339      -2.27073900
O        5.13350167       2.82224923      10.10697360      -1.30569113       1.02054448       0.93667766
O        9.88811603       7.94084336      18.06639605      -2.27906415       0.10331883      -2.36338973
O        2.39335018       0.42360756       2.84461502       0.76759341      -0.23192426       0.40387773
O        0.32368126       2.73596637       9.91017249       0.45588079      -0.43310486       0.92742498
O        8.04531076       0.21879958      18.01545667       0.60182968       0.53322308       1.60795028
O        8.96191610       8.27757066      23.13347794      -0.38091805      -0.40056817      -0.26191728
O        2.01066935       1.16871218      11.58298506      -3.09112311       2.10982878      -1.16270319
O        1.40459781       2.09594374       4.84815449      -0.35311497      -1.56235421      -0.43413319
O        8.44782339       8.96083733      16.04511373       0.39487333      -0.35416078       0.66128415
O        3.90085103       4.61244823      11.81764768      -1.81683686       1.86394928       1.39337552
O        6.14396000       6.73427322      22.69794603       0.59562279       1.23018409      -0.80840106
O        6.53978383       6.12590211      15.61015611       0.38531349      -0.87374063      -0.10200810
O        4.18276552       3.52582371      18.84167723       0.25284637       0.58610210      -0.47976024
O        8.98760991       3.39867284      11.84166967      -1.49061931       1.12390297      -1.02822479
O        7.12535427       1.49239504       9.00576710      -1.29084740       0.20062091      -0.59653102
O        1.56279404       7.46795652      15.76764813       2.03542531      -2.38702930       1.01737060
O        3.59814643       8.90501214      18.94008096       0.70731344       0.39516875      -0.40526242
O        8.12294839       3.85010464      15.60215307      -1.14898962      -3.41458313       1.56850188
O        6.35084999       1.83491046      19.02667297       1.37658168       1.12747005      -0.28703272
O        2.22862929       6.70912369      12.11969765       1.57853569      -2.32319507       0.31575944
O        3.99684678       8.31415887      22.22884666       2.08154835      -1.41505418       0.33969178
O        8.18777806       5.27623117      13.58497681      -0.49345049       0.20977064      -1.32331340
O        5.14861717       2.79016812       7.32149890       0.35647848      -0.78814202       0.88097709
O        2.79217739       5.18732621      14.43081888      -0.39535741       1.29080392      -1.13718606
O        5.82606917       8.26786775      20.33343793      -0.30965807      -0.94158060      -1.71947891
O        0.40160987       2.85080867       7.35942175       0.50068275       0.27882232      -3.40483127
O        7.97925067       0.29303925       6.77909820       0.20640173       0.75899171      -2.57379425
O        0.23804936       7.68259745      13.64204543      -1.51830129      -0.32798745       1.27425427
O        2.49918759       0.51206472      14.04078501      -1.27577850      -1.72107875       5.25070752
80
Lattice="9.77192453 0.01751879 6.90363604 0.24348012 9.76890588 6.90363604 0.01370155 0.0133883 13.86910312" Properties=species:S:1:pos:R:3:forces:R:3 energy=-575.63448445 source_file=vasprun.xml step_index=500 time_fs=93000.0 time_ps=93.0 file_index=46 pbc="T T T"
Na       7.60615681       6.10916781      17.97932490       0.21951211       0.22301002       0.93035732
Na       8.15352808       1.54722687      10.79451627      -0.11624106      -0.38553407       0.07089897
Na       4.25922074       6.45124496      10.40528199      -0.02653476      -0.12010337       0.30121153
Na       1.33363790       8.82560441      17.59228146       0.07347812      -0.12182811      -0.17817105
Na       9.77205337       3.32222694      21.43862417      -0.32831788       0.37799216      -0.04813196
Na       5.60519001       2.00967182      16.53862117       0.05254430       0.02487258      -0.32249938
Na       1.64234632       6.57041950       7.13565988       0.53954201      -0.65387130      -0.71073523
Na       3.55308927       1.58123085       8.27799773      -0.47660580      -0.18596319      -0.01445209
Al       7.51081176       5.64397605      23.00346379       0.13714212       0.14186808       0.54649539
Al       4.78085681       3.10162800      11.58636946       2.81863643       3.62551354      -1.92817259
Al       3.17002704       4.98053707      18.45866002       1.25285677      -2.00049112       1.15878639
Al       5.52113570       7.19684110      15.93084418       2.41051356       0.29605719       2.33349868
Al       0.63863640       2.22325844      11.82446408       2.41059044       0.08226632      -1.64801256
Al       8.07835472       0.12740571      16.10999820      -2.47908924       1.26254351      -1.63792627
Al       9.92234575       8.18854710      16.01789605      -0.91613880       1.50359160       0.90571983
Al       2.43061085       0.60011670       4.76641332       0.06847255       1.53575600       0.91308328
Si       2.86699140       6.03049611      15.50205399       0.29514234       0.21495858      -2.61297325
Si       4.76092299       7.57732887      19.19315690       1.91572452      -1.91109871      -0.34172898
Si       7.80645464       4.30523441      12.11759973      -4.37267208       3.42786033       0.50856129
Si       6.03423644       2.98041363       8.42690194       3.29307580       0.71654361       3.56011449
Si       1.05535981       7.63914386      11.88659758       0.02259079      -0.79169765       3.79094619
Si       3.11072652       9.50404953      22.53537175      -0.29210767      -0.28269854      -1.76676225
Si       9.21581549       2.92478315      15.84831932       3.24632240      -2.46515600      -1.40938352
Si       7.74108118       1.19469179      19.14603497      -2.38362486      -0.62480241      -1.63880465
Si       0.74068468       3.11140322       5.79343254      -0.84551101      -0.98026134       1.10392201
Si       7.17715821       9.75564466      15.01021061       1.41899088       1.28676285       0.03778110
Si       0.25160913       7.57570266      15.12057020       1.49762921       1.34662505      -2.52839038
Si       3.17082289       0.61015323      12.72565767      -2.38503941      -0.32480037       0.39056766
Si       8.31305944       5.72186461      15.10697983      -2.52640709      -1.58757566      -0.93127878
Si       4.91638155       2.49057604       5.66455005      -1.49616924      -2.86563273      -4.21476140
Si       2.35439057       4.82210231      12.67755558       3.17503110       2.61831374      -3.72297170
Si       5.88935844       8.08758586      21.89074326      -1.67755630       0.71932189       1.20930898
O        9.06923610       6.50772170      22.66603901      -1.26902158      -1.09275774       0.20611296
O        3.95858871       1.77717717      12.00817242      -0.96669660      -2.53279437       0.52786695
O        1.74528277       4.35065241       5.38057047      -1.83390662      -0.90487475       1.30102168
O        5.96217166       8.79019797      15.38253412      -0.34275781       0.80996270      -0.29442852
O        1.24535698       3.75622058      12.45949624      -1.21480658      -1.92944260       0.07201057
O        6.78514511       9.35423375      22.14318546       2.50375845       1.20964853       2.33497913
O        9.56323830       6.71154622      15.24405891       0.23643863      -0.45353459      -0.71987440
O        3.75416754       1.21910159       5.79968628       1.63938628       0.77027271       0.18382338
O        3.74731465       6.29880828      19.41308310      -0.25657926       0.93792225       1.84175339
O        4.34032854       6.41095308      15.10805955       0.11344151       0.66169251      -1.22262696
O        7.28441035       4.02460111       8.35001969       0.45235568       0.90758229      -0.07359172
O        6.44673462       3.33880529      12.13449134       0.90896970      -0.10252313       0.29263782
O        1.84893243       8.39647834       8.34507176      -1.16923077       1.65988116       1.27366096
O        2.18438844       8.76608832      11.85541424      -0.22534438      -0.82359166       0.37855550
O        8.92309046       2.28388252      19.48885661      -2.42357300      -1.40536735       1.37525293
O        8.03233714       1.85486036      15.74382721      -0.50238063       0.21649971      -0.66855291
O        2.92088088       5.31822515      16.85728665      -1.09773425      -1.28491568       0.93510668
O        5.39856480       7.13525932      17.77794671       0.70819468       0.82396350      -0.86817785
O        7.54565294       5.38106544      10.89648893       0.27556044      -0.27936922      -0.68337500
O        5.03701392       3.09941043       9.65630193      -1.69366888       0.36347052       1.95335342
O        9.56168510       7.93080751      17.84654869       0.61176677      -0.19784637      -2.57952202
O        2.81011084       0.59136277       3.06173017      -0.14788932       1.15877604       0.79362371
O        0.55344613       2.38865895      10.11146526      -0.99569967       0.71860932      -1.85106330
O        7.88235838       0.29828989      17.76390387       0.56323829      -0.05326614       3.65853058
O        9.77822006       9.15901757      22.63628438       1.52053386      -2.87997387      -1.14694741
O        1.51357150       0.66134058      12.09985970       2.08266924       0.81240045       1.61940863
O        1.03453565       1.57149036       5.31214313       0.72015614       0.83953634      -0.59592165
O        8.58210119       9.36985129      15.72412801       1.39566208      -0.71283664       0.14236651
O        3.92244608       4.54284129      12.10879660      -1.71883999      -0.01821266      -0.39872811
O        6.09867272       6.57241356      22.33606877       1.08316380      -1.19549967       2.14751960
O        6.97277937       6.17429216      15.99040091       1.31734253       0.22452220      -2.37047222
O        4.23397685       3.51388503      18.51518098       0.17162154       1.40461982      -0.17669947
O        9.00273498       3.31484446      11.96270509       2.43524050      -0.89126701      -0.55365175
O        6.84272894       1.58497892       8.70814191      -0.21992180      -1.95654295      -0.45107366
O        1.88294466       7.31907508      15.58552462      -1.96966862       0.97864965      -0.02422466
O        3.86993373       8.87569062      19.04504379      -1.85370071       2.91685648       0.61139885
O        8.65680038       4.37902764      16.05660877      -0.44336284       2.16779381       0.12113742
O        6.37783358       2.12231205      18.69140249      -0.73446654       0.10327050       1.70313837
O        2.01100359       6.27656454      11.74002409      -0.52437772      -1.37002557       0.51145228
O        4.33857763       8.47562417      22.50210962       1.98985046      -1.65072710      -0.04102886
O        8.04900873       5.40688562      13.42870645       0.27912214      -0.88961582       1.59440600
O        5.16942004       2.91637431       7.14628545      -1.24858417       0.67501288      -0.67856692
O        2.49650337       5.09583251      14.19870425      -1.34771965       0.15333682       3.01626180
O        5.98078780       8.03380874      20.31893862      -2.26253973      -1.38906451      -4.49453410
O        0.29746952       3.00672316       7.42052346       0.51278004       0.40846949       0.41138242
O        7.15402992       0.19444435       6.47421729       0.41995582       0.18055844       0.12729462
O        9.94032323       7.47663438      20.30614487       1.06622407       0.35067971       0.90455424
O        3.26831277       0.90274818      14.44617663      -1.07581257      -1.55127575      -2.23103576
80
Lattice="9.77192453 0.01751879 6.90363604 0.24348012 9.76890588 6.90363604 0.01370155 0.0133883 13.86910312" Properties=species:S:1:pos:R:3:forces:R:3 energy=-574.80271445 source_file=vasprun.xml step_index=0 time_fs=94000.0 time_ps=94.0 file_index=47 pbc="T T T"
Na       7.96471895       6.78045961      18.16570180      -0.38771404      -0.40615751       0.10624084
Na       8.21657696       0.81355560      10.99648518       0.52935166       0.12455120       0.04421550
Na       4.95219535       7.74446208      11.93464861      -0.27896090       0.11577604       0.06717134
Na       1.62608297       8.88702296      17.15734714      -0.10528861       0.11524482      -0.01839217
Na       9.11636852       3.70054130      21.02376104       0.04336821      -0.43860908      -0.40558004
Na       5.06474670       3.00412826      16.93443619       0.61479729      -0.07799802      -1.01161308
Na       1.91586348       6.78484748       6.70105937      -0.40164104      -0.08520176       0.42073485
Na       3.09815265       2.37060984       8.85470872      -0.71595702       0.15959522       0.30707995
Al       7.33846464       5.45745370       9.19049677       1.47254972       0.92216109      -0.73844561
Al       4.95323760       3.02761468      11.58319777       1.28526637       2.19998215       0.76423938
Al       3.02806755       4.79490419      18.44870363       1.12946165      -1.49565853      -2.75277172
Al       5.74572817       7.55803072      16.04928831      -0.81999285      -0.43188786      -0.50325124
Al       0.63135345       2.27596727      11.63858460       0.25909965      -0.55216378      -0.09612230
Al       8.17317267       9.75913959      22.74350153      -1.36256371       0.74031674       0.93426292
Al       0.22397065       7.95999213       9.05329869       0.30544130       4.10907818       3.32138190
Al       2.48617056       0.72783664       4.64969341      -1.80507583       0.00557009       2.05445440
Si       3.22473065       6.02718537      15.16673523       0.53327834       2.42522007       2.06097398
Si       4.59525853       7.50369360      19.05320316       0.04313356      -2.92847299       2.59769974
Si       7.79902303       4.50637987      12.24278922      -1.16281507      -0.69745562       2.38043420
Si       6.01887686       2.97891121       8.40739600      -0.43192226      -0.70263076      -0.13644882
Si       1.02355484       7.66475830      12.16084947       3.28464464       1.15170750      -2.45103119
Si       3.10904986       9.26214146       8.77829199      -2.94268703       2.59002532       0.18081275
Si       9.27285483       2.79122099      15.43546893       1.15438345       0.47461943       3.49871123
Si       7.67046688       0.85994852      19.14132764      -0.70230793       3.49130903      -3.01083965
Si       0.68209151       3.34063528       5.75124462      -0.20229777      -2.69823507       2.00559420
Si       7.35554280       0.11312707       8.09999107       2.01048264       0.60589510       0.72981859
Si       9.94204097       7.07930138      21.89235630       0.58034621      -4.12913970      -1.25738525
Si       3.20852799       0.49821311      12.69352809      -3.06909522       1.32356711       0.34193021
Si       8.14274717       5.54292634      15.21752363      -0.35703502      -0.11792229      -0.44471435
Si       4.68625526       2.24646867       5.86603951       1.80582167      -3.47563890      -5.89028863
Si       2.46026965       4.88375520      12.34616819       1.76161554      -1.01404174       1.00621238
Si       5.71165706       8.02549958      22.08568175      -0.72151287       2.59104083       1.71459035
O        8.98227861       5.59105446      22.08383396       0.52924550       3.06863167       1.40694111
O        4.30870291       1.52926775      12.10846187      -0.29771389      -1.17391977       0.89825614
O        1.46836980       4.62060486       5.32799549       0.08989939       2.72145872      -0.34019583
O        6.32338796       9.13675399      15.56407531      -0.66327708      -0.55142083       0.92960328
O        1.26390634       3.80977255      12.26074091      -0.84603331      -0.11725386       0.45133764
O        6.33629604       9.59122758      22.24858814       2.58710049      -2.14976460      -0.51412341
O        9.41716433       6.54156652      15.58877461      -1.83508276      -4.91673137      -1.55859209
O        3.96943030       0.77485858       5.61747542       0.17187532       0.54598374       0.12648495
O        3.61228643       6.07762773      19.34421108       2.43896169       3.94138395      -0.17296810
O        4.41998975       7.20246496      14.87218500      -0.85637693      -0.92617980       1.11331262
O        6.53958921       4.43327446       7.90084635       0.73640697      -0.91465090       1.82523997
O        6.40371369       3.74445019      12.47680305      -1.61433693      -0.93640609      -0.65911522
O        1.74105198       8.40468282       8.49112410       1.36858619      -1.21314902      -0.38311888
O        1.97872158       8.99474001      12.30955671      -0.42924879      -0.39995222      -0.17195144
O        8.92959397       1.90199018      19.45247041      -0.10071839      -0.17253398      -0.63595414
O        8.44296614       1.53815169      15.06067024      -1.61241846      -3.44371922      -0.17412964
O        3.57531841       5.23519572      16.57373988      -0.92382351      -0.53569922       1.47188126
O        5.73135741       7.46414454      17.92892074      -0.34719178       0.18316100      -1.12674717
O        7.83011527       5.31729034      10.89932269      -0.07873633       0.59006924      -2.29826593
O        5.42771402       2.76026016       9.90092822      -0.23468161       0.39580959      -0.64562195
O        9.74863325       7.96327993      17.83137075       0.50296346      -0.22545380      -0.31498381
O        2.43965041       0.74347515       2.93638879       1.53460653      -1.84966511      -0.96700629
O        0.46184466       2.42065646       9.88751530      -0.22512919       0.08519551      -0.49592111
O        7.65815042       0.04324770      17.71443956       0.99830776       0.35149799      -0.49613448
O        9.51995409       8.49020737      22.42146604      -2.16491486       2.29008935       1.40501846
O        1.67210309       0.83011424      11.97672241       1.55193361       0.35668125       0.11940326
O        1.42941753       2.13037368       5.08906748       0.50612328      -2.10850466      -0.43773784
O        9.04889246       9.42872847      15.72304797      -2.66945740       1.30684169      -0.54985621
O        3.76522110       4.32739776      11.54280086      -0.32304251      -0.15162075      -0.13557633
O        6.30546869       6.85836482      23.00516433       1.02992469      -0.07371277      -0.38499998
O        6.80848932       6.22475277      15.83290274       1.12128269      -0.50867940       0.26667748
O        3.91901508       3.24620970      18.69884890       0.26574656       1.40757273       0.46592507
O        8.88579251       3.24541341      12.30480533      -0.80197459       0.69784233      -0.91887066
O        7.13059527       1.77791782       8.24511812       0.67253296      -0.16126943       0.27984757
O        1.80857952       6.99832717      15.42408107      -0.56572485      -0.73507393       0.28421852
O        3.60913261       8.74711939      18.99771035      -1.00891341       0.31910636      -1.29818025
O        8.14046556       3.95953280      15.89296531       1.17895091       1.84765168      -1.28525517
O        6.33456443       2.00323084      19.06221186      -1.26183607      -0.09914231       0.91088433
O        2.16957971       6.39620018      11.90139382      -1.09287008       1.60102386      -0.81224849
O        4.31112176       8.27238611       9.15458971      -0.20332188      -0.18573065       0.00105026
O        8.11393027       5.55717661      13.55570528       0.07807371      -1.07447823      -0.55015348
O        4.73211377       2.66441356       7.34103021       0.31890338       1.08563584       4.05554343
O        2.97937408       5.03550860      13.97467608      -0.75373893      -1.23965212      -1.89541724
O        5.23673288       7.74100844      20.56790942       0.85205963      -0.66241109      -0.54114313
O        0.63633046       3.15366763       7.46384727       1.12028788       1.22487446      -1.82077222
O        7.75120683       9.67634787      13.42205833      -0.41075665      -2.05048119       0.26377261
O        9.93093019       7.04203796      20.22436832      -1.41471476       0.10293864       1.65876223
O        2.92564548       0.35265413      14.33781019       1.77276335       0.54172618      -2.16542041
80
Lattice="9.77192453 0.01751879 6.90363604 0.24348012 9.76890588 6.90363604 0.01370155 0.0133883 13.86910312" Properties=species:S:1:pos:R:3:forces:R:3 energy=-574.05647259 source_file=vasprun.xml step_index=500 time_fs=95000.0 time_ps=95.0 file_index=47 pbc="T T T"
Na       8.50215439       9.39414472      18.60037353      -0.25994364      -0.21615271      -0.07124832
Na       6.34922386       2.27691658      14.51223884       0.48775001       0.34076973      -0.20484501
Na       3.40355099       0.88147256       8.29382243      -0.32624080       0.59531050       0.14508870
Na       7.95396007       7.80721375      11.58336712       0.27791026      -0.43590661       0.09850040
Na       8.88410712       3.65550419      20.60678240       0.10866017       0.34107680      -0.12883778
Na       2.76462644       2.56421504      15.44584522       0.00514303      -0.40557898       0.54673364
Na       1.96999215       5.55681508       7.58950790       0.29111125      -0.16401010      -0.26639797
Na       4.41161946       8.37841195      13.00465497      -0.29941411      -0.43603722      -0.29676675
Al       7.38673071       5.41832925       8.98582454       0.69014781      -2.63949417       2.76866094
Al       5.01331976       3.22752598      11.78976223       2.75904341      -1.41131421      -1.51755212
Al       3.20656701       4.70414690      18.39947931      -1.88677865       3.05385266      -3.40345318
Al       5.68200961       6.99794205      15.78304536       2.82830332      -2.46550953      -2.95564705
Al       0.97881374       2.34635788      11.13438071      -0.01009490       0.55943866      -1.36150798
Al       8.20069623       9.40950574      22.78881641       2.14121084      -0.83612567      -3.22828529
Al       0.21113243       7.80477410       8.86993259       0.42414603      -1.78443121       1.79749068
Al       2.55597806       0.75124009       4.53832533       0.43042682      -2.20510393       1.27175273
Si       2.96255538       5.48322736      15.25133904       0.46384132       2.49785798      -0.65450795
Si       4.62419810       7.38498314      18.66699186       1.72756122       4.84929356      -0.51869303
Si       7.96668276       4.56707117      12.05478846      -0.92608156       2.00090896      -0.13576424
Si       6.23292581       2.38075503       8.64242523      -1.49778375       0.02853390       1.33192990
Si       1.28809852       7.77286415      12.02338579       0.39237227       0.66620590      -0.69078737
Si       3.16707022       9.17362999      22.29860964      -0.20189539       2.64784386       2.32277930
Si       9.75440775       2.29565770      15.11809076      -1.23297833       3.80573132       1.10587961
Si       7.73315472       1.24776248      18.67720278      -0.71849623      -2.48383099      -0.12304016
Si       0.83205895       3.04511212       5.33270290      -1.36926827      -0.43945492       1.94554620
Si       7.36398007       9.28150768      14.50365153       2.08374159       0.45947993      -1.38357415
Si       9.83909267       6.98881542      21.90591219       3.17514942       0.60372022      -0.86505138
Si       3.40087628       0.79297553      12.60619830      -0.91637952      -3.57969602      -1.11994084
Si       8.48370284       5.20251690      15.01534112      -0.38603660       1.86464601       0.33883362
Si       4.90395307       2.38205651       5.66459468       0.59120125       1.02309270       1.76213915
Si       2.36395712       4.82713565      12.38453206       3.18129380      -0.61708098      -0.28206089
Si       5.83752283       7.67938532      21.61965807      -0.57986051      -2.35433247      -1.20862939
O        8.90194020       5.68929057      22.12619075       1.52950387       0.47435677      -2.31016012
O        4.58675048       1.85480982      12.91737690       0.55192277       0.90250314      -1.14698500
O        1.88238408       4.23950992       5.51912478      -1.35424530       0.92183604      -0.39390043
O        6.19078660       8.22731615      14.24731296      -1.54332036      -0.44099118       1.41411910
O        1.18835701       3.94579606      11.85935523      -1.72468277      -0.91166478       0.06900563
O        7.04527829       8.73115968      21.43947224       1.50342025       1.29584017       1.85852429
O        9.85466506       6.01429303      15.48763275      -0.16151478       0.93112314      -0.10677706
O        3.83745820       1.22353581       5.64681337      -1.00137486      -2.07067884      -0.78778539
O        3.42113146       6.39972356      18.68482137      -1.02082456      -0.97288141      -0.15075986
O        4.40908016       6.18047710      14.85399968      -0.89825093       1.03305148       0.18746357
O        7.18423422       3.70215853       8.45634867      -0.07179185      -0.78308478      -0.33813498
O        6.64441358       3.77452766      12.35841806      -3.52237843      -1.30978043       0.95838673
O        1.84207726       8.25141009       8.43510520      -0.09776648      -0.21774950      -1.02252348
O        2.31884972       9.03464290      12.36294590      -0.42621684      -0.39446925      -0.63549792
O        9.04905828       2.24834015      18.60106266      -1.55790656      -1.80763581       0.26690005
O        8.71138849       1.16240136      15.16473713      -2.62699655      -4.05439730      -0.10482771
O        3.27390822       4.62407181      16.51963879      -0.76525645      -1.39502248       3.70157959
O        5.65843661       7.60985746      17.34729862      -1.15416316      -0.69873139       1.37846293
O        7.74850626       5.57148614      10.78598142       0.23989455      -0.06602712      -0.38834768
O        5.65175327       2.27969972      10.22579914      -0.74198773       0.92344100      -1.38054013
O        0.34394561       8.04437138      10.68196813       0.38482962       0.01445383       0.95365702
O        3.03320377       0.31598859       2.99277022       0.44716549      -1.14866114      -3.60007974
O        1.15069197       2.31640239       9.27662099       0.77282133      -0.46323742       3.80675732
O        7.44512146       0.10394398      17.38649765      -0.39819183       2.16839151       3.27782096
O        9.45198090       8.02851273      23.12122252      -1.20408765       1.31094777      -1.65597658
O        2.08374645       1.14620547      11.70377711       0.77082924       0.69919276       0.76151132
O        1.33454207       1.87193806       4.35902541      -1.45576165       1.45007756      -0.30996967
O        8.52915268       8.51091824      15.26267236       0.56677120       0.23291673       0.12912531
O        3.72498887       4.28644859      11.48256424      -1.56881738       1.14881918       1.77038993
O        6.05578336       6.37164943       8.79874456      -1.23305056       2.68903583      -2.11415184
O        7.13163169       5.71158251      15.73218228      -1.27612504       1.24575456      -0.12821404
O        4.34175992       3.70607563      18.86402310       3.67054613      -2.29266992       1.20328509
O        9.00993437       3.39109484      11.86102257       3.42419645      -1.66412223      -0.60042490
O        6.88775212       0.85068982       8.44930405      -0.51306704       1.85691450       0.46109062
O        1.70883030       6.55568646      15.13198148      -0.41339207       0.00741515       1.03233412
O        4.01743966       9.00904202      18.60604750      -0.05896291       1.67193892       2.58443776
O        8.63980407       3.63403497      15.30995809       1.03332377      -2.19786473      -0.10933181
O        6.35328534       2.16014668      18.82543526       1.87560148      -0.84902811      -0.22609235
O        2.21695959       6.40954513      11.92658474       0.29379798      -0.69985198       0.69195731
O        4.49675924       8.28054742      22.28654473      -0.17943089       0.27400231      -0.42450826
O        8.43351421       5.44011356      13.36178471       0.12654600       0.51862880      -0.22874811
O        5.06235006       2.39067263       7.33611769       1.34716994       0.55344484       1.72389077
O        2.52819109       4.33191434      14.20559416      -0.48447904       0.25942590      -4.90386024
O        5.53280688       7.18581683      20.00703898       0.54738160       0.08485790       1.90477041
O        0.88326810       2.54573462       6.95996215       0.38615969      -0.23278471      -3.81527178
O        8.00260447       9.77726516      12.99052104      -0.33828335       1.40417250      -0.94354059
O        0.36692662       7.60721355      13.33245179      -2.82100173      -0.49051840       2.80947376
O        2.94969182       0.65389173      14.24897226      -0.28486271      -1.76088234      -0.15647422
80
Lattice="9.77192453 0.01751879 6.90363604 0.24348012 9.76890588 6.90363604 0.01370155 0.0133883 13.86910312" Properties=species:S:1:pos:R:3:forces:R:3 energy=-576.96020609 source_file=vasprun.xml step_index=0 time_fs=96000.0 time_ps=96.0 file_index=48 pbc="T T T"
Na       7.90015366       7.81003278      18.55229963      -0.73926248      -0.08599770       0.17210596
Na       6.61319046       1.79275480      13.76394686      -0.30769717      -0.29603508       0.09092596
Na       2.58510544       1.17148347       8.78780209       0.26524712       0.33017994       0.01546658
Na       9.07798017       7.49106002      11.67445196      -0.34016395       0.02176438       0.01603767
Na       8.62569112       3.59661440      20.81299414       0.00073399      -0.23583641      -0.45192029
Na       2.12007569       2.61447581      16.01104568       0.16383167      -0.32829099       0.19384412
Na       2.21774864       5.63708808       7.32885344       0.10278558       0.16265631      -0.23293359
Na       4.14361347       8.23367990      13.25348831       0.60209189      -0.25785932       0.39282196
Al       7.82782651       5.45723640      23.11046305      -0.86210299      -0.34527640      -3.26427737
Al       4.89516113       2.85335553      11.32818473       0.09648143       2.63382256      -2.15579912
Al       3.15680675       4.73327319      18.19802570      -0.85221765      -2.75091921      -0.78314086
Al       5.78670849       7.20400170      15.94804680       1.58378872       1.04642200      -1.68985715
Al       0.87159333       2.39370575      11.36654231      -1.98801635       0.27807859      -0.14052761
Al       8.59663513       9.53565854      22.59907675      -2.46776093      -1.39201726       0.87819978
Al       0.42029323       7.79422416       8.98601813      -1.12958545       1.77220823      -0.81666752
Al       2.51163466       0.54270123       4.70551320      -0.69982761       0.54168216      -1.16353900
Si       3.16851877       5.56472198      15.03431985       1.41896926       1.53563440       0.95201626
Si       4.73447647       7.47292064      18.83289585      -0.59107857       0.79696206       2.05806423
Si       7.68945010       4.51732997      12.17117034       1.53746441       1.70343133      -2.16941826
Si       5.99278403       2.64767699       8.46942632       1.71206165      -0.55697226      -0.97967826
Si       1.11750112       7.57140488      12.02105531       0.79965120       2.43455492      -1.70907939
Si       3.10650961       9.22696199      22.29114561       2.01172419      -0.61313727       1.20297536
Si       9.46175364       2.53854846      15.17466891       1.31262624       2.34536896       1.30228444
Si       7.83429281       0.82397194      18.68612931       2.39997191       1.18429383       4.99249493
Si       0.72460777       2.97881160       5.61532254       1.35741926       2.57965156      -3.11097884
Si       7.57465386       9.53864039      14.58966677       0.13472814      -1.87787346       0.10521072
Si       0.36502300       6.97270619      14.82548247       0.28283113      -0.54505424       1.74278401
Si       3.17306618       0.61652953      12.63020254       1.07829543      -2.83292783      -0.09020557
Si       8.39700080       5.60253491      14.98028504       0.81211791      -0.58465263      -1.76105501
Si       4.95123917       2.12839286       5.69987646      -0.57694325       2.13557520      -2.13457914
Si       2.58919725       4.79095666      12.08232843       2.59134884       2.91453082      -1.53975731
Si       6.06635229       7.82856312      21.87272343      -2.38851480       1.51755746      -3.02101577
O        9.24712536       5.60325014      21.96039558       0.35705610       0.47315477       0.09490977
O        4.36739753       1.64177697      12.33407005       1.16657650      -1.09102537       1.22007510
O        1.59275012       4.40083590       5.15274811      -0.37538941      -1.20290305       0.88818916
O        6.13113497       8.63595392      14.80617609       1.76575169      -0.02600777       0.77034699
O        1.26624048       4.04361641      11.86802480      -2.93379483      -2.35060071      -0.16637860
O        6.88414290       9.20065030      21.89146804       2.64202853       1.30873590       0.20609383
O        0.21584882       6.25199372       8.17094300      -3.28402051      -1.52285553       0.13421021
O        3.88746803       0.87639078       5.87810897      -0.13928835      -0.26121173      -1.22263153
O        3.64116963       6.25070451      18.57633754       2.43268924       3.06290888       1.63877309
O        4.52217615       6.49648866      15.05357752      -0.76956679      -0.72164334      -0.46990111
O        7.02190639       3.97203156       8.62759270      -0.98853320      -2.09967812      -0.06155269
O        6.32556749       3.68336956      11.99951601       0.29626817      -0.65760007       0.94390281
O        2.08584428       7.91932128       8.40671890      -0.80375109       1.60488254       0.06263337
O        2.15223301       8.83684839      12.31959711      -0.52772007       0.17526137      -0.18687068
O        9.10121033       1.95494501      18.97561290      -1.68759746      -0.88933562       0.43899374
O        8.63071495       1.23988080      14.83696588      -0.60179592      -0.50448127      -1.04779214
O        3.10842864       4.69375126      16.39058777      -0.60006015      -1.27226724      -0.38282893
O        5.61451541       7.84302296      17.54043376       0.40260139      -0.33805251       0.00188679
O        8.06567128       5.43999913      10.84355950       0.08354801      -0.10403629       2.37919167
O        4.99864985       2.13127076       9.64683558       0.38402624       0.97968656       1.00474038
O        9.87327335       7.77334834      17.62543014       1.15518918      -0.22595758       0.61040768
O        2.67894705       0.47599806       2.83066260       0.43432376      -1.26220165       0.87773792
O        0.49608457       2.28327500       9.65176875       0.69702288       0.11056284      -0.29313538
O        8.00200603       0.03468891      17.39643357       0.45727119      -1.37769862      -2.69601701
O        9.63915798       8.11354915      22.85747866       0.31616012       0.00261394      -1.71615294
O        1.93960257       1.15612894      11.83160223      -0.61661995      -0.12924929      -1.02744067
O        1.18562971       1.74130422       4.65003630       0.12369804       0.41408993       0.83011343
O        9.04098287       9.16170802      15.28248134      -0.32697725      -1.44042365       0.94529839
O        3.81840659       4.28213409      11.15174195      -0.52077676      -0.47581315       0.10312548
O        6.70435657       6.71810995      22.75476300      -0.12271271      -0.51148223       0.24749525
O        7.26142338       6.15651444      16.00644192       0.71148796       0.13335867      -0.76757181
O        4.14007657       3.39744001      18.69183001       2.06225886      -2.77212019       0.59257551
O        8.97629692       3.51979878      12.12451340       0.35914826      -2.18059146       1.47372394
O        6.97384026       1.30631582       7.99207828      -0.69428506       2.65032795       0.89205641
O        2.02182290       6.73071526      15.17535975      -2.78137017       0.54664735      -1.33322286
O        3.64743772       8.71052763      19.11820514       0.27573190       2.21079360       0.62144486
O        8.45073864       3.89678325      15.16611837       0.81457580      -0.12916660      -0.26256724
O        6.51514077       1.65281450      18.93982481      -4.57759456       2.18622867       0.70176567
O        2.23251148       6.46281434      11.85222003       0.97934989      -2.94377218      -0.15916338
O        4.48258914       8.25431301      22.15073752       0.17034345       0.48436907       0.57497359
O        8.02224049       5.77854756      13.20270954      -0.41538830      -0.77399852       3.71814385
O        5.03834384       2.91091119       7.13547068       0.80124826      -0.24988292       0.65866437
O        3.13836593       4.81400973      13.58479065       0.05608044      -0.71519242       2.52818298
O        5.99643388       7.49121534      20.10167138      -1.53029732      -0.71874583      -0.28379579
O        1.00155231       2.67376029       7.20938719      -1.04103896       0.10844138       0.16262593
O        8.00181162       9.38346015      13.00503313       0.18030555       0.97140708      -2.31508109
O        9.84543364       7.54141654      20.16143214      -0.32464459      -0.78439952       1.71356427
O        2.97531022       0.69375075      14.25424078      -0.78398043      -0.92722263       0.43551329
80
Lattice="9.77192453 0.01751879 6.90363604 0.24348012 9.76890588 6.90363604 0.01370155 0.0133883 13.86910312" Properties=species:S:1:pos:R:3:forces:R:3 energy=-575.8585812 source_file=vasprun.xml step_index=500 time_fs=97000.0 time_ps=97.0 file_index=48 pbc="T T T"
Na       7.79494411       6.54181451      17.98372648       0.34808773       0.24822147       0.90019950
Na       7.79580150       1.07953140      13.10976203      -0.42544642       0.27872770      -0.80732807
Na       3.09181730       3.06056082       8.88268414      -0.07870014      -0.13173560      -0.07054837
Na       8.60795536       7.18729038      11.40069728      -0.31392940       0.88010892      -0.10185281
Na       8.78736557       3.40009441      21.24546089       1.76515380      -0.28453402      -1.06101564
Na       4.30225761       2.64553647      15.74755213      -0.55725286      -0.16620753       0.08690794
Na       1.80895751       6.72400073       6.43953794       0.29962839      -0.13108515       0.31254948
Na       4.31241784       8.63390635      13.68078271      -0.36405532       0.52301888      -0.41415504
Al       7.21393546       5.38532762       8.88009195      -1.28244716      -0.03204862       1.61722858
Al       4.98829912       2.96994807      11.65104333       1.47082558      -0.19575388      -2.27379005
Al       3.43784375       4.81468033      18.24009266      -2.76872900      -1.31492469      -0.82808657
Al       5.65327401       7.38277261      15.90697340       2.45907135       0.57047486      -0.92563316
Al       0.72514799       2.25475406      11.57425736      -0.15669064      -0.61620912      -0.53756827
Al       8.32087449       9.71117942      22.63614939      -0.18582977      -0.97658857       1.11466663
Al       9.94371931       7.74911853      15.88296467       3.39315138      -1.09298911       1.05700243
Al       2.24479958       0.37369864       4.62081206       0.30849684       2.82906649       1.81382410
Si       2.99282371       5.65575789      15.22388867      -1.73516090       1.56520795      -2.21599147
Si       4.72560692       7.52943080      18.98568508       2.72887834      -0.48418420       0.49144015
Si       7.82040912       4.35088236      12.05440404      -1.68936981       2.24775913       0.39390504
Si       6.12824848       2.58070812       8.28943820      -2.81171800       1.55659810       2.81738710
Si       1.26423391       7.32979033      12.03493526      -3.31902741      -0.82596335      -1.26020197
Si       3.14453130       9.21324453      22.41211144       0.11518264       1.22906392       1.75519012
Si       9.67287893       2.62592999      15.25627353       0.95918017       3.05900996       0.98558511
Si       7.66521521       0.82289553      18.82570769       2.84618579       0.03523515       0.33857787
Si       0.95497410       3.25024641       5.48468412      -0.75445373      -0.42705801       1.86282099
Si       7.74259197       9.63754098      14.83963524      -1.12745471      -1.72500577      -1.81347118
Si       9.69161696       6.94067612      21.65196658       1.56096282      -0.20575214      -0.37644208
Si       3.14555629       0.57120470      12.77249953       0.35164882       0.06125666      -1.08127552
Si       8.35888356       5.58718382      14.75706999      -2.21501672      -2.22742143      -0.81093355
Si       4.90593740       2.10733364       5.53201133      -3.78559790       0.27434064       0.97562462
Si       2.57010813       4.55496102      12.32038444      -3.96444638       0.53095630       3.50245173
Si       5.99308327       7.91928222      21.60938436      -1.21149049       0.66932980       0.70174970
O        8.49281936       5.86137768      21.74620138       2.32663524      -0.35311477      -0.09959119
O        4.45575743       1.52550630      12.39557571      -0.86107721      -1.63390182       0.95761915
O        1.71457491       4.62545491       5.04357484       0.31753391      -0.45390865       0.75966780
O        6.24839709       8.91508817      15.03317187       0.24298519      -1.00951903       0.51190852
O        1.11329307       3.62643613      12.50237666       2.71903297       2.84309290      -0.13283861
O        6.84345520       9.34532745      21.65706964       0.54875625       0.11827292       0.54931317
O        9.72818621       6.33609893      14.83012997       2.32474849       1.77097387       0.45834256
O        3.64974611       1.03037896       5.80337160      -0.06012515      -1.07982581      -2.17649378
O        4.07276767       6.04284006      19.18089010       0.11039278       2.21143967      -0.10446440
O        4.12675252       6.90781498      15.20254359      -0.05231112      -1.32094934      -0.24552145
O        6.87829489       3.91282808       7.86506673      -0.17179430       2.27285041       1.44868720
O        6.54196060       3.36200474      12.39404830       0.21109173       0.68855159      -0.09272210
O        1.88933550       8.22263090       8.59090807      -2.13605733      -0.81032590      -0.76516064
O        2.02029855       8.67689864      12.39695178       0.76596282       1.57424101      -0.51364963
O        8.95736839       1.85963836      19.05460881      -3.13618963      -0.86688371       0.78269244
O        8.95518311       1.27005986      14.93996733      -1.87976451      -1.82482599       0.09926955
O        2.99474106       4.73408654      16.49740155       1.63836187      -0.60774534       1.78361770
O        5.53966728       7.79988888      17.56344105      -1.00262320      -0.52450888       1.23010116
O        7.73973257       5.28831286      10.70107993      -0.51533604      -1.28112809      -1.69882595
O        5.46853822       2.73957183       9.83881632       0.26537927      -0.63406143      -1.12042009
O        0.33513421       7.19905286      10.64879636       0.23328719       0.48422310       0.49883985
O        3.03754690       0.23989617       3.10829402       0.00124104      -0.46697345      -1.70547824
O        0.55194404       2.55750594       9.88439749      -0.08900086       0.75927839      -2.64980888
O        8.14944585       9.65072185      24.45263132      -0.10270952      -0.01130848      -2.01045781
O        9.22223961       8.27062828      22.38300776       0.84765437      -0.17743927       0.57046893
O        1.90328126       1.03355211      11.87037754       0.56427079      -0.81553803       0.05588534
O        0.91047420       1.89688732       4.67444290       3.37400804      -3.70190311      -0.98351581
O        8.88478035       9.04266270      15.87941656      -2.41921637       2.24434213      -1.86696342
O        3.70011327       4.11992826      11.36766502       1.69449311      -1.49028603      -1.63435832
O        6.10578329       6.77302361      22.76161880       1.25884122      -0.55873450      -0.57086496
O        7.30963253       6.27182927      15.84304304      -1.55668169       0.23383913      -0.72533772
O        4.25899202       3.39154528      18.55478576       2.06943980      -2.24687120       0.37083019
O        9.09612873       3.42437455      12.18894642      -0.04420710       0.58694100       0.54684408
O        7.22740962       1.48368692       7.96860835       1.85773633      -1.62730419       0.60905810
O        1.51608964       6.50582836      15.28080672      -0.54432498      -0.53974529      -0.76705261
O        3.58082912       8.62260934      19.41695386       0.49496577       1.08970177      -0.52384891
O        8.49141931       3.91761817      14.95736374       1.24446847      -0.53851964       1.05432191
O        6.25683167       1.64028594      18.54973064      -0.59053917       0.26431881       1.50700051
O        2.33194121       6.13989845      11.96093763       0.45309692      -0.89960630       0.40129722
O        4.41164344       8.34507492      22.01952522       1.69165592      -0.51186841      -0.86217448
O        7.98091950       5.74427999      13.11964063      -0.70210841      -1.47460952       0.27241132
O        4.89938027       2.46958797       7.22492179       0.56531861      -0.15500445      -1.27704401
O        3.13045910       4.52860316      13.92374978       0.26661867       1.47445243       1.05243612
O        6.16622894       7.37948269      20.00872525      -2.22446710       0.98535537       0.30066708
O        1.16023988       2.79959904       7.25860786      -0.36667651       1.37196959      -1.37695052
O        8.01607064       9.43737577      13.08267258      -0.46741651       0.32458444       2.30169919
O        9.78910798       7.12483294      20.02584845       0.87784053       0.10500683      -0.38614484
O        2.80946194       0.65293092      14.37616553       0.09821115       0.50232573       0.00212593
80
Lattice="9.77192453 0.01751879 6.90363604 0.24348012 9.76890588 6.90363604 0.01370155 0.0133883 13.86910312" Properties=species:S:1:pos:R:3:forces:R:3 energy=-575.5632144 source_file=vasprun.xml step_index=0 time_fs=98000.0 time_ps=98.0 file_index=49 pbc="T T T"
Na       7.37942472       9.39859114      17.91795350      -0.02447234      -0.23338789      -0.03783239
Na       5.67198218       1.68919136      14.63344407       0.54778816       0.31469042      -0.28497282
Na       2.88157089       2.99345805       7.66607208      -0.36268559      -0.24868239       0.44137807
Na       7.82853277       7.39189239      11.57535382       0.03181322      -0.72692201      -0.18705408
Na       9.25522067       3.61594738      20.23707404      -0.27770940       0.80272591       0.35346733
Na       2.02212375       2.39429609      15.59574116      -0.08465171       0.77320819      -0.03740285
Na       2.02298634       6.05342291       6.87862551      -0.60174322       0.90183348       0.24043617
Na       3.98367512       8.54163129      13.85306515      -0.29828153      -0.01671061      -0.09225672
Al       7.51946898       5.53039384      22.54505694       0.46105237      -0.90168077       1.62381712
Al       5.31490246       3.01773681      11.53305827       1.32486320       1.88517974       0.10964056
Al       3.60197002       4.67539811      18.59224839      -2.78818665      -0.83200245      -1.06560137
Al       5.82002118       6.92147789      16.01620662       0.04601735       0.05705297      -2.18552736
Al       0.94330675       2.03882154      11.21818408       2.06409059      -0.82665187       2.73879006
Al       8.30952549       9.52215294      22.91658638      -0.86844416       1.38911677      -1.76758449
Al       9.80778206       7.82047162      16.05897103       1.73679349       2.16289641      -1.72114008
Al       2.53997067       0.65190026       4.38984789      -0.77092843      -2.68757119      -1.93437832
Si       2.90396774       5.42453535      15.53768508       2.28184375      -0.20480587      -1.69462774
Si       4.99862828       7.46387824      18.97214994       1.03922894       0.01764925       0.36940394
Si       8.06303100       4.35440522      11.97683703      -0.08849653       1.47939616      -2.11452196
Si       6.17491667       2.60067650       8.38948594       2.63645113      -1.18986914       1.53046272
Si       1.32332568       7.52919624      11.93150788      -0.42892866       0.46371283       1.90773488
Si       3.02902010       9.31615495      22.08891705      -3.90502953       1.07415728       0.98123620
Si       9.41734261       2.62199734      15.37253317      -0.18306469      -1.59802208      -1.77413572
Si       7.87747662       0.65311874      19.07844191      -0.40316923      -2.26864813      -3.38240232
Si       0.87532978       2.81485503       5.52242315      -2.13566597       4.05094350       0.09826885
Si       7.36804244       9.36150362      14.70108164      -1.20141009       0.40799834       4.95135736
Si       0.33499404       7.01768293      14.89287966      -1.52754893       1.70062122       0.64404150
Si       3.54371843       0.57289743      12.30379362      -2.12360021       1.20463339       0.88539991
Si       8.46808705       5.55959302      14.70798730      -1.48474676      -1.63937804       0.33366919
Si       5.11703755       2.01183641       5.63804130      -3.17865108      -0.06416468       2.67631351
Si       2.76198686       4.59236720      12.30433297      -2.65759271       0.14230559       1.73981719
Si       5.78220065       8.06259330      21.80608827       2.19844419      -2.66550213      -0.89618386
O        9.09050588       5.81124369      21.69240223      -2.36510336      -1.63726802       0.21281645
O        4.60472903       1.71332346      12.34513865       2.16309398       1.56150295       1.20698597
O        1.94235411       4.12860102       5.77879290       1.37898219      -0.87944943      -0.72269723
O        5.87250506       8.59786895      15.10738052       2.18113545       0.14045363      -0.89390466
O        1.48283992       3.55883302      11.97913814       0.65198258       0.04271908       0.51981793
O        6.65149193       9.38023133      22.09210439      -0.09201470       0.61211122      -0.07082834
O        9.69545774       6.49441261      15.03193288       1.09840253      -0.57733284      -0.13186425
O        3.88828970       0.91548843       5.33587284       2.98276869       1.64029277       1.66349488
O        3.74864622       6.34974290      19.09996833       0.94174260       0.83951366       0.39155921
O        4.18909576       6.44765932      15.51274596       0.31228813      -0.50639389      -0.46026010
O        6.94408888       3.91941368       7.88314432       0.78884978       1.54246572       0.79020776
O        6.81726070       3.52106738      12.62023172      -1.19735068      -0.30205198      -1.35136523
O        1.52711985       8.54621397       8.29576753       1.08985429       0.23186485      -0.10404631
O        2.31037615       8.83450866      11.88512588       0.15916845      -0.98099776       0.21154257
O        9.16321893       1.63232512      19.09986125       0.70092323      -0.14385571      -0.35182498
O        8.21770209       1.56263823      15.21868709      -0.37097498      -2.76679189       1.98828308
O        2.83687280       4.54243511      16.85710579       1.34702427      -1.36144750       2.47176584
O        5.88305756       7.19701698      17.67103169       0.39371918      -0.06126566       0.65025934
O        7.78700867       5.25330738      10.58107532      -0.53091860      -0.50345676      -0.54223892
O        5.77301176       2.41464125       9.93854814      -0.16626487       0.81738237       0.50662917
O        9.95503823       7.62538804      17.70201909       0.35047835      -0.42818876       1.76033440
O        2.77895729       0.56621756       2.61258458       1.24480229      -0.57495189      -0.24832197
O        0.73143136       2.40840867       9.63482642      -0.68533018       0.41632411      -2.27417252
O        7.96557184       9.37392279      24.59989070       0.85445347       2.48775909       2.28977039
O        9.44957613       8.24265581      22.73201837       0.74679999      -0.64441759      -0.56652715
O        2.43910042       0.95498193      11.23890180      -2.86437131       0.41631749      -0.25932897
O        1.28692828       1.77647301       4.44649190       0.94143994      -1.08560175      -0.58664908
O        8.41993359       8.83561734      15.87785347      -1.24612696       0.54376278      -0.84993020
O        4.16073166       4.43756800      11.54049001       0.37946780      -1.14673067       0.42103264
O        6.40859477       6.89533164      22.76445658      -0.34268116      -0.36162106      -0.39662339
O        7.11958057       5.77214199      15.61747584      -0.37143842       1.56902436      -1.21714704
O        4.78893470       3.52415998      19.12563338      -0.37106663       1.24620816      -1.46511253
O        9.31726420       3.39162729      11.51274518       0.38353143       0.13768736       2.09288914
O        7.13205480       1.25229630       8.02922731       0.13072225      -0.43794410      -0.31572708
O        1.66275748       6.35008188      15.46488404      -1.39140916       2.20547215       0.50745629
O        4.60682567       9.08884115      18.71874617       0.43737680      -3.53073596       0.61558604
O        8.73775235       4.02753736      15.22272179       0.27039386       1.45026576      -0.10060755
O        6.46774624       1.46664176      18.89889016       1.18671331       0.29863646       0.53083410
O        2.14298844       6.08225374      11.86792697       0.25391621       0.41048276       0.64502797
O        4.13716024       8.17260751      21.93170020       1.52954318      -0.63226230      -0.11804322
O        8.54863533       5.63960253      13.02073904      -1.09519201      -1.28834439       0.48329534
O        4.95660433       2.29785350       7.44962504      -2.33722620      -1.24109202      -3.83352709
O        2.68736355       4.41370276      14.17450376       1.11580942       0.33347382      -1.55961721
O        6.18347666       7.41412435      20.20266752      -2.65554657       1.22026448       0.72424719
O        0.50352600       2.36376480       7.05046297       1.25328350      -0.21656150      -0.63528322
O        7.95231139       9.18897274      13.23542768       0.52321596      -0.00663508      -1.58272907
O        0.52751591       7.71648808      13.45865806       1.43686020      -0.17333633      -2.60594908
O        2.97632627       0.65011364      13.91109053      -0.06471013      -1.39628267       0.14366996
80
Lattice="9.77192453 0.01751879 6.90363604 0.24348012 9.76890588 6.90363604 0.01370155 0.0133883 13.86910312" Properties=species:S:1:pos:R:3:forces:R:3 energy=-574.61069383 source_file=vasprun.xml step_index=500 time_fs=99000.0 time_ps=99.0 file_index=49 pbc="T T T"
Na       8.43508504       6.96429065      18.65642801      -1.44109666      -0.22317359       0.35059948
Na       6.70761187       1.12474918      13.43594089      -0.14534949       0.34621402       0.16609221
Na       2.85847142       2.70531379       8.89793305      -0.25442132      -0.05579456      -0.45191007
Na       7.64852575       7.08224527      11.24679794      -0.23964872       0.97759630      -0.28186444
Na       9.02185410       3.17116830      20.96440801       0.03769315       0.00636395      -0.50307598
Na       2.95791594       2.62933720      15.87915708       0.10314009       0.07734192      -0.35922363
Na       2.06549551       6.42302935       6.74302791      -0.16465330       0.20463198       0.17834443
Na       4.56928164       9.37241350      14.00144211      -0.77724744      -0.16652322      -0.04757461
Al       7.54925895       5.37283767      22.51103474      -1.27487983      -1.06160909       1.68940703
Al       4.97432759       2.92502173      11.49458219       2.19854584      -2.72136290       1.08513283
Al       3.36770645       4.79344812      18.34969189       1.26020147      -0.24344729       2.37972096
Al       5.83959660       6.96070978      16.04998419       0.04483677       1.53319852      -2.74368602
Al       0.90685333       2.27193854      11.36193587      -0.64163668      -0.20426770      -0.50108225
Al       7.97563433       9.49121269      22.86600724       2.58568654       1.77942700       0.19841838
Al       9.83005713       7.71709369      15.91904201       0.71599623       3.37410166      -4.51065031
Al       2.66024796       0.73604023       4.44934264      -5.12005981      -2.46733179      -2.35430216
Si       2.95679701       5.65826223      15.32566066       0.18186104       2.38076679       1.22327997
Si       4.97393850       7.48789856      18.99068359      -0.47580664       0.36381700      -1.36758161
Si       7.83844082       4.19474991      11.83867432       0.36696846      -1.37182333       2.03846380
Si       5.98400113       2.57585695       8.49039327      -4.29913274      -0.30015717      -2.09752030
Si       1.33892492       7.52574600      11.71248743       3.28964124      -0.23460015       3.04668970
Si       3.00740839       9.27284920      22.32243142      -1.29682827      -1.21075078       0.02703409
Si       9.53880172       2.63130437      15.13021864       1.08770912       0.22749810       1.58457650
Si       7.83846159       0.87266417      18.86545542      -2.99929234      -1.08315853       0.93734636
Si       0.97894338       3.15956817       5.60192672       0.04689713       0.68609224      -1.45610586
Si       7.58312367       9.57108200      14.89214850      -0.08781625      -1.99748005       1.62584600
Si       0.27426499       7.10494327      14.76280644      -0.33195645       1.23333409      -0.37966538
Si       3.32915414       0.39366266      12.45489213      -3.07284529       2.31940455      -2.38431240
Si       8.46440734       5.48111997      14.38013730      -3.44069727       3.57549452       0.96795946
Si       4.99551363       2.10636073       5.53208333       2.90989622       6.38890906       2.04231179
Si       2.60505520       4.69077354      12.43819918      -0.34739287      -1.33897496      -0.61542698
Si       5.64891023       7.92894581      22.03146357       3.34239006      -0.31157526       0.02383481
O        9.01890740       5.80775520      21.67820848       0.21513071      -0.28426564       0.23692847
O        4.40998103       1.54442178      12.58348911       2.18208750       2.09695304      -0.67150866
O        1.85404905       4.51915489       5.39478076      -0.19813719       0.10040409       0.42655967
O        6.15276227       8.68405729      15.17318886       2.07061440      -0.38019819       0.46808110
O        1.20450827       3.65209159      12.58249680       1.83912323       0.76577020      -1.51498951
O        6.25206593       9.40860541      22.52027557       0.75606379      -0.77684993      -1.58910021
O        9.75369154       6.36632818      14.79719895       0.31882686       0.92218624      -0.58208730
O        3.99503927       0.99546993       5.30510027       0.29798721      -3.37351018       0.19476491
O        3.76632451       6.41503168      19.08615645       0.30796734      -1.13123645      -0.68202347
O        4.12865439       6.72617946      15.33555752       3.53583538       0.86926742       0.82871015
O        6.82036767       3.84719176       7.92273625       0.67027093       1.46257213       0.92705677
O        6.67967019       3.14461018      12.33919160      -1.72923557       0.23537965      -1.12312079
O        1.55548725       8.62803301       8.65272924      -0.22453943      -1.37192471      -0.89394616
O        2.17916474       8.84894643      11.64944202       1.25411156       1.92590513       0.43928109
O        9.05994792       1.82235158      18.86616749       2.30356839       1.30170369       0.70772844
O        8.55876979       1.41048540      15.33616923      -2.17222425      -1.88728195      -0.67337019
O        3.05553238       4.74005820      16.66328407      -0.38903182      -0.79605557      -0.81905188
O        6.08168738       7.32565501      17.75452643      -0.54225953      -0.84758391       1.07746024
O        7.50343149       4.81902891      10.46265741       0.25760052       1.09466070      -4.00324543
O        4.84801272       2.48932219       9.74164259       3.26383699       0.36447204      -0.34180028
O        0.34729467       7.36733059      10.54139306      -1.06194183      -2.63498006       2.96882031
O        2.98878739       0.53901782       2.73097605       1.02001243       1.16170326      -0.23717418
O        0.67440917       2.74913169       9.57280162       0.76631210       0.07180509       2.19630658
O        8.04591873       9.54034469      24.61365834      -0.13061530      -0.66330182      -1.10279619
O        9.30033529       8.47623191      22.24060395      -0.46551836      -1.18891986       0.08639348
O        2.01039931       0.88639279      11.46338218       1.23253757       0.48348982       1.03906952
O        1.48105891       2.04184813       4.61290510       1.85143373      -1.76477910      -1.30380770
O        8.84455528       9.20618234      16.05988671      -3.06199147      -0.34608540      -3.19457486
O        3.80357868       4.06903209      11.42865460      -3.52443768       2.73946597       1.59559839
O        6.55343244       6.77513095      22.84797607      -1.05346412       1.14870347      -0.90189889
O        7.17560615       5.99368866      15.36987793       0.62154544      -0.07191536      -0.59517376
O        4.69419676       3.66297172      18.93145052      -1.90003095       0.34800602      -1.46351683
O        9.20878428       3.33362932      12.03353934      -0.85130040       0.75514893      -0.28487746
O        6.99189146       1.37139865       8.27661622       1.29643151      -0.39951868       0.54782489
O        1.71362192       6.81413521      15.56358773      -1.44496754      -1.45167817      -1.47728454
O        4.19145714       8.89592617      18.67443353       1.04940917      -1.71528105      -0.61146291
O        8.80842440       4.04582958      14.78887022      -0.04583072      -3.30949927       0.43421621
O        6.54341348       2.01803772      18.81487491       0.74496591      -2.33881577       0.70771888
O        2.38145105       6.24201380      11.98149715      -0.29050080      -0.61231171      -0.67561017
O        4.11316562       8.03948491      22.18344555      -2.83934334      -0.34605375       1.41912611
O        7.99105102       5.61281085      12.73885379       0.70700741      -0.78781478       2.27395032
O        4.71524999       2.23187158       7.21201522       2.38656430       0.03399876       1.50530034
O        3.15323971       4.71589017      14.01152713      -0.84526108      -0.46716483       0.04392275
O        5.76145218       7.58695536      20.40860094       1.50986162       0.12815901       0.18366073
O        0.99774413       2.61200592       7.10838286       0.04064586      -0.71079974       1.00257273
O        7.85153163       9.50542237      13.19778118       0.30578586       1.04276615       1.26057199
O        0.50625070       7.43042160      13.12528901      -1.21122104      -0.21833424       1.15595767
O        2.81618086       0.14148240      13.92881688      -0.59077289       0.31768959       1.50861276
